*Heading
** V11 Contact Output Smoke Test ¡ª Minimal Valid Model
*Preprint, echo=NO, model=NO, history=NO, contact=NO
*Part, name=BLOCK_DEF
*Node
1, 0.0, 0.0, 0.0
2, 10.0, 0.0, 0.0
3, 10.0, 10.0, 0.0
4, 0.0, 10.0, 0.0
5, 0.0, 0.0, 10.0
6, 10.0, 0.0, 10.0
7, 10.0, 10.0, 10.0
8, 0.0, 10.0, 10.0
*Element, type=C3D8R
1,1,2,3,4,5,6,7,8
*Nset, nset=ALL_NODES, generate
1,8,1
*Elset, elset=ALL_ELEMS
1,
*Solid Section, elset=ALL_ELEMS, material=TEST_MAT
*Surface, name=TOP_SURF, type=ELEMENT
ALL_ELEMS, S4
*End Part
*Part, name=BLOCK_RIGID
*Node
1, 5.0, 5.0, 15.0
*Nset, nset=RIGID_REF
1,
*Surface, type=REVOLUTION, name=RIGID_SURF
START, 20.0, -20.0
LINE,  20.0,  20.0
*Rigid Body, ref node=RIGID_REF, analytical surface=RIGID_SURF
*End Part
*Assembly, name=Assembly
*Instance, name=DEF, part=BLOCK_DEF
*End Instance
*Instance, name=RGD, part=BLOCK_RIGID
*End Instance
*End Assembly
*Material, name=TEST_MAT
*Elastic
210000.0, 0.3
*Surface Interaction, name=INT_CONTACT
*Friction
0.1,
*Surface Behavior, pressure-overclosure=HARD
*Contact
*Contact Inclusions
DEF.TOP_SURF, RGD.RIGID_SURF
*Contact Property Assignment
DEF.TOP_SURF, RGD.RIGID_SURF, INT_CONTACT
*Initial Conditions, type=TEMPERATURE
DEF.ALL_NODES, 20.0
*Step, name=Contact, nlgeom=YES, inc=100
*Static
0.1, 1.0, 1e-05, 1.0
*Boundary
DEF.ALL_NODES, 1, 3, 0.0
RGD.RIGID_REF, 1, 2, 0.0
RGD.RIGID_REF, 4, 6, 0.0
RGD.RIGID_REF, 3, 3, -1.0
*Output, field
*Node Output
U, RF
*Element Output
S
*Contact Output
CSTRESS, CSTATUS, CFORCE, CDISP
*Output, history
*End Step