*Heading
** V10 v10_rough_center: ROUGH x2=42.5mm mu=0.45
** Model hash: bc028982b5a0e8bf
** V9 audit: 61-98 kN = EXTRACTION ARTIFACT confirmed
** V10: Whole-frame rotation + double-center coupling support
** Belt: 468 nodes, 408 S4R
** Date: 2026-07-23T15:15:45.956362
*Preprint, echo=NO, model=NO, history=NO, contact=NO
** MATERIALS
*Material, name=AISI_304
*Density
 7.9e-9,
*Elastic
 200000., 0.30
*Plastic
 230., 0
 270., 0.002
 320., 0.01
 390., 0.03
 470., 0.07
 550., 0.15
 630., 0.25
 700., 0.4
*Material, name=BeltMat
*Density
 1.5e-9,
*Elastic
 4000.0, 0.30
** WORKPIECE: V9 validated cylindrical O-grid (D=26mm L=160mm)
*Include, input=includes/wp_cylinder_v9.inc
** BELT: Two-pulley flexible S4R
*Part, name=BI
*Node
1,-15.000000,-3.014493,-31.857697
2,-11.250000,-3.014493,-31.857697
3,-7.500000,-3.014493,-31.857697
4,-3.750000,-3.014493,-31.857697
5,0.000000,-3.014493,-31.857697
6,3.750000,-3.014493,-31.857697
7,7.500000,-3.014493,-31.857697
8,11.250000,-3.014493,-31.857697
9,15.000000,-3.014493,-31.857697
10,-15.000000,7.903627,-31.008591
11,-11.250000,7.903627,-31.008591
12,-7.500000,7.903627,-31.008591
13,-3.750000,7.903627,-31.008591
14,0.000000,7.903627,-31.008591
15,3.750000,7.903627,-31.008591
16,7.500000,7.903627,-31.008591
17,11.250000,7.903627,-31.008591
18,15.000000,7.903627,-31.008591
19,-15.000000,17.896109,-26.527897
20,-11.250000,17.896109,-26.527897
21,-7.500000,17.896109,-26.527897
22,-3.750000,17.896109,-26.527897
23,0.000000,17.896109,-26.527897
24,3.750000,17.896109,-26.527897
25,7.500000,17.896109,-26.527897
26,11.250000,17.896109,-26.527897
27,15.000000,17.896109,-26.527897
28,-15.000000,25.792678,-18.940374
29,-11.250000,25.792678,-18.940374
30,-7.500000,25.792678,-18.940374
31,-3.750000,25.792678,-18.940374
32,0.000000,25.792678,-18.940374
33,3.750000,25.792678,-18.940374
34,7.500000,25.792678,-18.940374
35,11.250000,25.792678,-18.940374
36,15.000000,25.792678,-18.940374
37,-15.000000,30.668524,-9.134639
38,-11.250000,30.668524,-9.134639
39,-7.500000,30.668524,-9.134639
40,-3.750000,30.668524,-9.134639
41,0.000000,30.668524,-9.134639
42,3.750000,30.668524,-9.134639
43,7.500000,30.668524,-9.134639
44,11.250000,30.668524,-9.134639
45,15.000000,30.668524,-9.134639
46,-15.000000,31.952609,1.740904
47,-11.250000,31.952609,1.740904
48,-7.500000,31.952609,1.740904
49,-3.750000,31.952609,1.740904
50,0.000000,31.952609,1.740904
51,3.750000,31.952609,1.740904
52,7.500000,31.952609,1.740904
53,11.250000,31.952609,1.740904
54,15.000000,31.952609,1.740904
55,-15.000000,29.494548,12.412561
56,-11.250000,29.494548,12.412561
57,-7.500000,29.494548,12.412561
58,-3.750000,29.494548,12.412561
59,0.000000,29.494548,12.412561
60,3.750000,29.494548,12.412561
61,7.500000,29.494548,12.412561
62,11.250000,29.494548,12.412561
63,15.000000,29.494548,12.412561
64,-15.000000,23.582216,21.630513
65,-11.250000,23.582216,21.630513
66,-7.500000,23.582216,21.630513
67,-3.750000,23.582216,21.630513
68,0.000000,23.582216,21.630513
69,3.750000,23.582216,21.630513
70,7.500000,23.582216,21.630513
71,11.250000,23.582216,21.630513
72,15.000000,23.582216,21.630513
73,-15.000000,14.908040,28.315196
74,-11.250000,14.908040,28.315196
75,-7.500000,14.908040,28.315196
76,-3.750000,14.908040,28.315196
77,0.000000,14.908040,28.315196
78,3.750000,14.908040,28.315196
79,7.500000,14.908040,28.315196
80,11.250000,14.908040,28.315196
81,15.000000,14.908040,28.315196
82,-15.000000,4.487901,31.683730
83,-11.250000,4.487901,31.683730
84,-7.500000,4.487901,31.683730
85,-3.750000,4.487901,31.683730
86,0.000000,4.487901,31.683730
87,3.750000,4.487901,31.683730
88,7.500000,4.487901,31.683730
89,11.250000,4.487901,31.683730
90,15.000000,4.487901,31.683730
91,-15.000000,-2.944739,34.979081
92,-11.250000,-2.944739,34.979081
93,-7.500000,-2.944739,34.979081
94,-3.750000,-2.944739,34.979081
95,0.000000,-2.944739,34.979081
96,3.750000,-2.944739,34.979081
97,7.500000,-2.944739,34.979081
98,11.250000,-2.944739,34.979081
99,15.000000,-2.944739,34.979081
100,-15.000000,-2.724370,44.840231
101,-11.250000,-2.724370,44.840231
102,-7.500000,-2.724370,44.840231
103,-3.750000,-2.724370,44.840231
104,0.000000,-2.724370,44.840231
105,3.750000,-2.724370,44.840231
106,7.500000,-2.724370,44.840231
107,11.250000,-2.724370,44.840231
108,15.000000,-2.724370,44.840231
109,-15.000000,-2.504001,54.701381
110,-11.250000,-2.504001,54.701381
111,-7.500000,-2.504001,54.701381
112,-3.750000,-2.504001,54.701381
113,0.000000,-2.504001,54.701381
114,3.750000,-2.504001,54.701381
115,7.500000,-2.504001,54.701381
116,11.250000,-2.504001,54.701381
117,15.000000,-2.504001,54.701381
118,-15.000000,-2.283633,64.562531
119,-11.250000,-2.283633,64.562531
120,-7.500000,-2.283633,64.562531
121,-3.750000,-2.283633,64.562531
122,0.000000,-2.283633,64.562531
123,3.750000,-2.283633,64.562531
124,7.500000,-2.283633,64.562531
125,11.250000,-2.283633,64.562531
126,15.000000,-2.283633,64.562531
127,-15.000000,-2.063264,74.423681
128,-11.250000,-2.063264,74.423681
129,-7.500000,-2.063264,74.423681
130,-3.750000,-2.063264,74.423681
131,0.000000,-2.063264,74.423681
132,3.750000,-2.063264,74.423681
133,7.500000,-2.063264,74.423681
134,11.250000,-2.063264,74.423681
135,15.000000,-2.063264,74.423681
136,-15.000000,-1.842896,84.284831
137,-11.250000,-1.842896,84.284831
138,-7.500000,-1.842896,84.284831
139,-3.750000,-1.842896,84.284831
140,0.000000,-1.842896,84.284831
141,3.750000,-1.842896,84.284831
142,7.500000,-1.842896,84.284831
143,11.250000,-1.842896,84.284831
144,15.000000,-1.842896,84.284831
145,-15.000000,-1.622527,94.145981
146,-11.250000,-1.622527,94.145981
147,-7.500000,-1.622527,94.145981
148,-3.750000,-1.622527,94.145981
149,0.000000,-1.622527,94.145981
150,3.750000,-1.622527,94.145981
151,7.500000,-1.622527,94.145981
152,11.250000,-1.622527,94.145981
153,15.000000,-1.622527,94.145981
154,-15.000000,-1.402158,104.007131
155,-11.250000,-1.402158,104.007131
156,-7.500000,-1.402158,104.007131
157,-3.750000,-1.402158,104.007131
158,0.000000,-1.402158,104.007131
159,3.750000,-1.402158,104.007131
160,7.500000,-1.402158,104.007131
161,11.250000,-1.402158,104.007131
162,15.000000,-1.402158,104.007131
163,-15.000000,-1.181790,113.868280
164,-11.250000,-1.181790,113.868280
165,-7.500000,-1.181790,113.868280
166,-3.750000,-1.181790,113.868280
167,0.000000,-1.181790,113.868280
168,3.750000,-1.181790,113.868280
169,7.500000,-1.181790,113.868280
170,11.250000,-1.181790,113.868280
171,15.000000,-1.181790,113.868280
172,-15.000000,-0.961421,123.729430
173,-11.250000,-0.961421,123.729430
174,-7.500000,-0.961421,123.729430
175,-3.750000,-0.961421,123.729430
176,0.000000,-0.961421,123.729430
177,3.750000,-0.961421,123.729430
178,7.500000,-0.961421,123.729430
179,11.250000,-0.961421,123.729430
180,15.000000,-0.961421,123.729430
181,-15.000000,-0.741052,133.590580
182,-11.250000,-0.741052,133.590580
183,-7.500000,-0.741052,133.590580
184,-3.750000,-0.741052,133.590580
185,0.000000,-0.741052,133.590580
186,3.750000,-0.741052,133.590580
187,7.500000,-0.741052,133.590580
188,11.250000,-0.741052,133.590580
189,15.000000,-0.741052,133.590580
190,-15.000000,-0.520684,143.451730
191,-11.250000,-0.520684,143.451730
192,-7.500000,-0.520684,143.451730
193,-3.750000,-0.520684,143.451730
194,0.000000,-0.520684,143.451730
195,3.750000,-0.520684,143.451730
196,7.500000,-0.520684,143.451730
197,11.250000,-0.520684,143.451730
198,15.000000,-0.520684,143.451730
199,-15.000000,-0.300315,153.312880
200,-11.250000,-0.300315,153.312880
201,-7.500000,-0.300315,153.312880
202,-3.750000,-0.300315,153.312880
203,0.000000,-0.300315,153.312880
204,3.750000,-0.300315,153.312880
205,7.500000,-0.300315,153.312880
206,11.250000,-0.300315,153.312880
207,15.000000,-0.300315,153.312880
208,-15.000000,-0.079947,163.174030
209,-11.250000,-0.079947,163.174030
210,-7.500000,-0.079947,163.174030
211,-3.750000,-0.079947,163.174030
212,0.000000,-0.079947,163.174030
213,3.750000,-0.079947,163.174030
214,7.500000,-0.079947,163.174030
215,11.250000,-0.079947,163.174030
216,15.000000,-0.079947,163.174030
217,-15.000000,0.140422,173.035180
218,-11.250000,0.140422,173.035180
219,-7.500000,0.140422,173.035180
220,-3.750000,0.140422,173.035180
221,0.000000,0.140422,173.035180
222,3.750000,0.140422,173.035180
223,7.500000,0.140422,173.035180
224,11.250000,0.140422,173.035180
225,15.000000,0.140422,173.035180
226,-15.000000,0.360791,182.896330
227,-11.250000,0.360791,182.896330
228,-7.500000,0.360791,182.896330
229,-3.750000,0.360791,182.896330
230,0.000000,0.360791,182.896330
231,3.750000,0.360791,182.896330
232,7.500000,0.360791,182.896330
233,11.250000,0.360791,182.896330
234,15.000000,0.360791,182.896330
235,-15.000000,0.581159,192.757480
236,-11.250000,0.581159,192.757480
237,-7.500000,0.581159,192.757480
238,-3.750000,0.581159,192.757480
239,0.000000,0.581159,192.757480
240,3.750000,0.581159,192.757480
241,7.500000,0.581159,192.757480
242,11.250000,0.581159,192.757480
243,15.000000,0.581159,192.757480
244,-15.000000,0.801528,202.618630
245,-11.250000,0.801528,202.618630
246,-7.500000,0.801528,202.618630
247,-3.750000,0.801528,202.618630
248,0.000000,0.801528,202.618630
249,3.750000,0.801528,202.618630
250,7.500000,0.801528,202.618630
251,11.250000,0.801528,202.618630
252,15.000000,0.801528,202.618630
253,-15.000000,1.021897,212.479779
254,-11.250000,1.021897,212.479779
255,-7.500000,1.021897,212.479779
256,-3.750000,1.021897,212.479779
257,0.000000,1.021897,212.479779
258,3.750000,1.021897,212.479779
259,7.500000,1.021897,212.479779
260,11.250000,1.021897,212.479779
261,15.000000,1.021897,212.479779
262,-15.000000,1.660684,219.389194
263,-11.250000,1.660684,219.389194
264,-7.500000,1.660684,219.389194
265,-3.750000,1.660684,219.389194
266,0.000000,1.660684,219.389194
267,3.750000,1.660684,219.389194
268,7.500000,1.660684,219.389194
269,11.250000,1.660684,219.389194
270,15.000000,1.660684,219.389194
271,-15.000000,3.282349,219.061351
272,-11.250000,3.282349,219.061351
273,-7.500000,3.282349,219.061351
274,-3.750000,3.282349,219.061351
275,0.000000,3.282349,219.061351
276,3.750000,3.282349,219.061351
277,7.500000,3.282349,219.061351
278,11.250000,3.282349,219.061351
279,15.000000,3.282349,219.061351
280,-15.000000,4.846512,218.522210
281,-11.250000,4.846512,218.522210
282,-7.500000,4.846512,218.522210
283,-3.750000,4.846512,218.522210
284,0.000000,4.846512,218.522210
285,3.750000,4.846512,218.522210
286,7.500000,4.846512,218.522210
287,11.250000,4.846512,218.522210
288,15.000000,4.846512,218.522210
289,-15.000000,6.325771,217.781216
290,-11.250000,6.325771,217.781216
291,-7.500000,6.325771,217.781216
292,-3.750000,6.325771,217.781216
293,0.000000,6.325771,217.781216
294,3.750000,6.325771,217.781216
295,7.500000,6.325771,217.781216
296,11.250000,6.325771,217.781216
297,15.000000,6.325771,217.781216
298,-15.000000,7.694212,216.851350
299,-11.250000,7.694212,216.851350
300,-7.500000,7.694212,216.851350
301,-3.750000,7.694212,216.851350
302,0.000000,7.694212,216.851350
303,3.750000,7.694212,216.851350
304,7.500000,7.694212,216.851350
305,11.250000,7.694212,216.851350
306,15.000000,7.694212,216.851350
307,-15.000000,8.927860,215.748903
308,-11.250000,8.927860,215.748903
309,-7.500000,8.927860,215.748903
310,-3.750000,8.927860,215.748903
311,0.000000,8.927860,215.748903
312,3.750000,8.927860,215.748903
313,7.500000,8.927860,215.748903
314,11.250000,8.927860,215.748903
315,15.000000,8.927860,215.748903
316,-15.000000,10.005106,214.493188
317,-11.250000,10.005106,214.493188
318,-7.500000,10.005106,214.493188
319,-3.750000,10.005106,214.493188
320,0.000000,10.005106,214.493188
321,3.750000,10.005106,214.493188
322,7.500000,10.005106,214.493188
323,11.250000,10.005106,214.493188
324,15.000000,10.005106,214.493188
325,-15.000000,10.907076,213.106202
326,-11.250000,10.907076,213.106202
327,-7.500000,10.907076,213.106202
328,-3.750000,10.907076,213.106202
329,0.000000,10.907076,213.106202
330,3.750000,10.907076,213.106202
331,7.500000,10.907076,213.106202
332,11.250000,10.907076,213.106202
333,15.000000,10.907076,213.106202
334,-15.000000,11.617969,211.612244
335,-11.250000,11.617969,211.612244
336,-7.500000,11.617969,211.612244
337,-3.750000,11.617969,211.612244
338,0.000000,11.617969,211.612244
339,3.750000,11.617969,211.612244
340,7.500000,11.617969,211.612244
341,11.250000,11.617969,211.612244
342,15.000000,11.617969,211.612244
343,-15.000000,12.125332,210.037487
344,-11.250000,12.125332,210.037487
345,-7.500000,12.125332,210.037487
346,-3.750000,12.125332,210.037487
347,0.000000,12.125332,210.037487
348,3.750000,12.125332,210.037487
349,7.500000,12.125332,210.037487
350,11.250000,12.125332,210.037487
351,15.000000,12.125332,210.037487
352,-15.000000,12.420276,208.409516
353,-11.250000,12.420276,208.409516
354,-7.500000,12.420276,208.409516
355,-3.750000,12.420276,208.409516
356,0.000000,12.420276,208.409516
357,3.750000,12.420276,208.409516
358,7.500000,12.420276,208.409516
359,11.250000,12.420276,208.409516
360,15.000000,12.420276,208.409516
361,-15.000000,12.497635,206.756853
362,-11.250000,12.497635,206.756853
363,-7.500000,12.497635,206.756853
364,-3.750000,12.497635,206.756853
365,0.000000,12.497635,206.756853
366,3.750000,12.497635,206.756853
367,7.500000,12.497635,206.756853
368,11.250000,12.497635,206.756853
369,15.000000,12.497635,206.756853
370,-15.000000,12.356053,205.108450
371,-11.250000,12.356053,205.108450
372,-7.500000,12.356053,205.108450
373,-3.750000,12.356053,205.108450
374,0.000000,12.356053,205.108450
375,3.750000,12.356053,205.108450
376,7.500000,12.356053,205.108450
377,11.250000,12.356053,205.108450
378,15.000000,12.356053,205.108450
379,-15.000000,11.998010,203.493184
380,-11.250000,11.998010,203.493184
381,-7.500000,11.998010,203.493184
382,-3.750000,11.998010,203.493184
383,0.000000,11.998010,203.493184
384,3.750000,11.998010,203.493184
385,7.500000,11.998010,203.493184
386,11.250000,11.998010,203.493184
387,15.000000,11.998010,203.493184
388,-15.000000,11.429779,201.939352
389,-11.250000,11.429779,201.939352
390,-7.500000,11.429779,201.939352
391,-3.750000,11.429779,201.939352
392,0.000000,11.429779,201.939352
393,3.750000,11.429779,201.939352
394,7.500000,11.429779,201.939352
395,11.250000,11.429779,201.939352
396,15.000000,11.429779,201.939352
397,-15.000000,10.661314,200.474176
398,-11.250000,10.661314,200.474176
399,-7.500000,10.661314,200.474176
400,-3.750000,10.661314,200.474176
401,0.000000,10.661314,200.474176
402,3.750000,10.661314,200.474176
403,7.500000,10.661314,200.474176
404,11.250000,10.661314,200.474176
405,15.000000,10.661314,200.474176
406,-15.000000,9.706079,199.123323
407,-11.250000,9.706079,199.123323
408,-7.500000,9.706079,199.123323
409,-3.750000,9.706079,199.123323
410,0.000000,9.706079,199.123323
411,3.750000,9.706079,199.123323
412,7.500000,9.706079,199.123323
413,11.250000,9.706079,199.123323
414,15.000000,9.706079,199.123323
415,-15.000000,8.580806,197.910459
416,-11.250000,8.580806,197.910459
417,-7.500000,8.580806,197.910459
418,-3.750000,8.580806,197.910459
419,0.000000,8.580806,197.910459
420,3.750000,8.580806,197.910459
421,7.500000,8.580806,197.910459
422,11.250000,8.580806,197.910459
423,15.000000,8.580806,197.910459
424,-15.000000,7.305210,196.856830
425,-11.250000,7.305210,196.856830
426,-7.500000,7.305210,196.856830
427,-3.750000,7.305210,196.856830
428,0.000000,7.305210,196.856830
429,3.750000,7.305210,196.856830
430,7.500000,7.305210,196.856830
431,11.250000,7.305210,196.856830
432,15.000000,7.305210,196.856830
433,-15.000000,5.901637,195.980895
434,-11.250000,5.901637,195.980895
435,-7.500000,5.901637,195.980895
436,-3.750000,5.901637,195.980895
437,0.000000,5.901637,195.980895
438,3.750000,5.901637,195.980895
439,7.500000,5.901637,195.980895
440,11.250000,5.901637,195.980895
441,15.000000,5.901637,195.980895
442,-15.000000,4.394676,195.297999
443,-11.250000,4.394676,195.297999
444,-7.500000,4.394676,195.297999
445,-3.750000,4.394676,195.297999
446,0.000000,4.394676,195.297999
447,3.750000,4.394676,195.297999
448,7.500000,4.394676,195.297999
449,11.250000,4.394676,195.297999
450,15.000000,4.394676,195.297999
451,-15.000000,2.810726,194.820106
452,-11.250000,2.810726,194.820106
453,-7.500000,2.810726,194.820106
454,-3.750000,2.810726,194.820106
455,0.000000,2.810726,194.820106
456,3.750000,2.810726,194.820106
457,7.500000,2.810726,194.820106
458,11.250000,2.810726,194.820106
459,15.000000,2.810726,194.820106
460,-15.000000,1.177536,194.555587
461,-11.250000,1.177536,194.555587
462,-7.500000,1.177536,194.555587
463,-3.750000,1.177536,194.555587
464,0.000000,1.177536,194.555587
465,3.750000,1.177536,194.555587
466,7.500000,1.177536,194.555587
467,11.250000,1.177536,194.555587
468,15.000000,1.177536,194.555587
*Element, type=S4R
1,1,2,11,10
2,2,3,12,11
3,3,4,13,12
4,4,5,14,13
5,5,6,15,14
6,6,7,16,15
7,7,8,17,16
8,8,9,18,17
9,10,11,20,19
10,11,12,21,20
11,12,13,22,21
12,13,14,23,22
13,14,15,24,23
14,15,16,25,24
15,16,17,26,25
16,17,18,27,26
17,19,20,29,28
18,20,21,30,29
19,21,22,31,30
20,22,23,32,31
21,23,24,33,32
22,24,25,34,33
23,25,26,35,34
24,26,27,36,35
25,28,29,38,37
26,29,30,39,38
27,30,31,40,39
28,31,32,41,40
29,32,33,42,41
30,33,34,43,42
31,34,35,44,43
32,35,36,45,44
33,37,38,47,46
34,38,39,48,47
35,39,40,49,48
36,40,41,50,49
37,41,42,51,50
38,42,43,52,51
39,43,44,53,52
40,44,45,54,53
41,46,47,56,55
42,47,48,57,56
43,48,49,58,57
44,49,50,59,58
45,50,51,60,59
46,51,52,61,60
47,52,53,62,61
48,53,54,63,62
49,55,56,65,64
50,56,57,66,65
51,57,58,67,66
52,58,59,68,67
53,59,60,69,68
54,60,61,70,69
55,61,62,71,70
56,62,63,72,71
57,64,65,74,73
58,65,66,75,74
59,66,67,76,75
60,67,68,77,76
61,68,69,78,77
62,69,70,79,78
63,70,71,80,79
64,71,72,81,80
65,73,74,83,82
66,74,75,84,83
67,75,76,85,84
68,76,77,86,85
69,77,78,87,86
70,78,79,88,87
71,79,80,89,88
72,80,81,90,89
73,82,83,92,91
74,83,84,93,92
75,84,85,94,93
76,85,86,95,94
77,86,87,96,95
78,87,88,97,96
79,88,89,98,97
80,89,90,99,98
81,91,92,101,100
82,92,93,102,101
83,93,94,103,102
84,94,95,104,103
85,95,96,105,104
86,96,97,106,105
87,97,98,107,106
88,98,99,108,107
89,100,101,110,109
90,101,102,111,110
91,102,103,112,111
92,103,104,113,112
93,104,105,114,113
94,105,106,115,114
95,106,107,116,115
96,107,108,117,116
97,109,110,119,118
98,110,111,120,119
99,111,112,121,120
100,112,113,122,121
101,113,114,123,122
102,114,115,124,123
103,115,116,125,124
104,116,117,126,125
105,118,119,128,127
106,119,120,129,128
107,120,121,130,129
108,121,122,131,130
109,122,123,132,131
110,123,124,133,132
111,124,125,134,133
112,125,126,135,134
113,127,128,137,136
114,128,129,138,137
115,129,130,139,138
116,130,131,140,139
117,131,132,141,140
118,132,133,142,141
119,133,134,143,142
120,134,135,144,143
121,136,137,146,145
122,137,138,147,146
123,138,139,148,147
124,139,140,149,148
125,140,141,150,149
126,141,142,151,150
127,142,143,152,151
128,143,144,153,152
129,145,146,155,154
130,146,147,156,155
131,147,148,157,156
132,148,149,158,157
133,149,150,159,158
134,150,151,160,159
135,151,152,161,160
136,152,153,162,161
137,154,155,164,163
138,155,156,165,164
139,156,157,166,165
140,157,158,167,166
141,158,159,168,167
142,159,160,169,168
143,160,161,170,169
144,161,162,171,170
145,163,164,173,172
146,164,165,174,173
147,165,166,175,174
148,166,167,176,175
149,167,168,177,176
150,168,169,178,177
151,169,170,179,178
152,170,171,180,179
153,172,173,182,181
154,173,174,183,182
155,174,175,184,183
156,175,176,185,184
157,176,177,186,185
158,177,178,187,186
159,178,179,188,187
160,179,180,189,188
161,181,182,191,190
162,182,183,192,191
163,183,184,193,192
164,184,185,194,193
165,185,186,195,194
166,186,187,196,195
167,187,188,197,196
168,188,189,198,197
169,190,191,200,199
170,191,192,201,200
171,192,193,202,201
172,193,194,203,202
173,194,195,204,203
174,195,196,205,204
175,196,197,206,205
176,197,198,207,206
177,199,200,209,208
178,200,201,210,209
179,201,202,211,210
180,202,203,212,211
181,203,204,213,212
182,204,205,214,213
183,205,206,215,214
184,206,207,216,215
185,208,209,218,217
186,209,210,219,218
187,210,211,220,219
188,211,212,221,220
189,212,213,222,221
190,213,214,223,222
191,214,215,224,223
192,215,216,225,224
193,217,218,227,226
194,218,219,228,227
195,219,220,229,228
196,220,221,230,229
197,221,222,231,230
198,222,223,232,231
199,223,224,233,232
200,224,225,234,233
201,226,227,236,235
202,227,228,237,236
203,228,229,238,237
204,229,230,239,238
205,230,231,240,239
206,231,232,241,240
207,232,233,242,241
208,233,234,243,242
209,235,236,245,244
210,236,237,246,245
211,237,238,247,246
212,238,239,248,247
213,239,240,249,248
214,240,241,250,249
215,241,242,251,250
216,242,243,252,251
217,244,245,254,253
218,245,246,255,254
219,246,247,256,255
220,247,248,257,256
221,248,249,258,257
222,249,250,259,258
223,250,251,260,259
224,251,252,261,260
225,253,254,263,262
226,254,255,264,263
227,255,256,265,264
228,256,257,266,265
229,257,258,267,266
230,258,259,268,267
231,259,260,269,268
232,260,261,270,269
233,262,263,272,271
234,263,264,273,272
235,264,265,274,273
236,265,266,275,274
237,266,267,276,275
238,267,268,277,276
239,268,269,278,277
240,269,270,279,278
241,271,272,281,280
242,272,273,282,281
243,273,274,283,282
244,274,275,284,283
245,275,276,285,284
246,276,277,286,285
247,277,278,287,286
248,278,279,288,287
249,280,281,290,289
250,281,282,291,290
251,282,283,292,291
252,283,284,293,292
253,284,285,294,293
254,285,286,295,294
255,286,287,296,295
256,287,288,297,296
257,289,290,299,298
258,290,291,300,299
259,291,292,301,300
260,292,293,302,301
261,293,294,303,302
262,294,295,304,303
263,295,296,305,304
264,296,297,306,305
265,298,299,308,307
266,299,300,309,308
267,300,301,310,309
268,301,302,311,310
269,302,303,312,311
270,303,304,313,312
271,304,305,314,313
272,305,306,315,314
273,307,308,317,316
274,308,309,318,317
275,309,310,319,318
276,310,311,320,319
277,311,312,321,320
278,312,313,322,321
279,313,314,323,322
280,314,315,324,323
281,316,317,326,325
282,317,318,327,326
283,318,319,328,327
284,319,320,329,328
285,320,321,330,329
286,321,322,331,330
287,322,323,332,331
288,323,324,333,332
289,325,326,335,334
290,326,327,336,335
291,327,328,337,336
292,328,329,338,337
293,329,330,339,338
294,330,331,340,339
295,331,332,341,340
296,332,333,342,341
297,334,335,344,343
298,335,336,345,344
299,336,337,346,345
300,337,338,347,346
301,338,339,348,347
302,339,340,349,348
303,340,341,350,349
304,341,342,351,350
305,343,344,353,352
306,344,345,354,353
307,345,346,355,354
308,346,347,356,355
309,347,348,357,356
310,348,349,358,357
311,349,350,359,358
312,350,351,360,359
313,352,353,362,361
314,353,354,363,362
315,354,355,364,363
316,355,356,365,364
317,356,357,366,365
318,357,358,367,366
319,358,359,368,367
320,359,360,369,368
321,361,362,371,370
322,362,363,372,371
323,363,364,373,372
324,364,365,374,373
325,365,366,375,374
326,366,367,376,375
327,367,368,377,376
328,368,369,378,377
329,370,371,380,379
330,371,372,381,380
331,372,373,382,381
332,373,374,383,382
333,374,375,384,383
334,375,376,385,384
335,376,377,386,385
336,377,378,387,386
337,379,380,389,388
338,380,381,390,389
339,381,382,391,390
340,382,383,392,391
341,383,384,393,392
342,384,385,394,393
343,385,386,395,394
344,386,387,396,395
345,388,389,398,397
346,389,390,399,398
347,390,391,400,399
348,391,392,401,400
349,392,393,402,401
350,393,394,403,402
351,394,395,404,403
352,395,396,405,404
353,397,398,407,406
354,398,399,408,407
355,399,400,409,408
356,400,401,410,409
357,401,402,411,410
358,402,403,412,411
359,403,404,413,412
360,404,405,414,413
361,406,407,416,415
362,407,408,417,416
363,408,409,418,417
364,409,410,419,418
365,410,411,420,419
366,411,412,421,420
367,412,413,422,421
368,413,414,423,422
369,415,416,425,424
370,416,417,426,425
371,417,418,427,426
372,418,419,428,427
373,419,420,429,428
374,420,421,430,429
375,421,422,431,430
376,422,423,432,431
377,424,425,434,433
378,425,426,435,434
379,426,427,436,435
380,427,428,437,436
381,428,429,438,437
382,429,430,439,438
383,430,431,440,439
384,431,432,441,440
385,433,434,443,442
386,434,435,444,443
387,435,436,445,444
388,436,437,446,445
389,437,438,447,446
390,438,439,448,447
391,439,440,449,448
392,440,441,450,449
393,442,443,452,451
394,443,444,453,452
395,444,445,454,453
396,445,446,455,454
397,446,447,456,455
398,447,448,457,456
399,448,449,458,457
400,449,450,459,458
401,451,452,461,460
402,452,453,462,461
403,453,454,463,462
404,454,455,464,463
405,455,456,465,464
406,456,457,466,465
407,457,458,467,466
408,458,459,468,467
*Elset, elset=BI_ALL, generate
1,408,1
*Nset, nset=BI_ALL, generate
1,468,1
*Surface, name=BELT_OUTER, type=ELEMENT
1,SPOS
2,SPOS
3,SPOS
4,SPOS
5,SPOS
6,SPOS
7,SPOS
8,SPOS
9,SPOS
10,SPOS
11,SPOS
12,SPOS
13,SPOS
14,SPOS
15,SPOS
16,SPOS
17,SPOS
18,SPOS
19,SPOS
20,SPOS
21,SPOS
22,SPOS
23,SPOS
24,SPOS
25,SPOS
26,SPOS
27,SPOS
28,SPOS
29,SPOS
30,SPOS
31,SPOS
32,SPOS
33,SPOS
34,SPOS
35,SPOS
36,SPOS
37,SPOS
38,SPOS
39,SPOS
40,SPOS
41,SPOS
42,SPOS
43,SPOS
44,SPOS
45,SPOS
46,SPOS
47,SPOS
48,SPOS
49,SPOS
50,SPOS
51,SPOS
52,SPOS
53,SPOS
54,SPOS
55,SPOS
56,SPOS
57,SPOS
58,SPOS
59,SPOS
60,SPOS
61,SPOS
62,SPOS
63,SPOS
64,SPOS
65,SPOS
66,SPOS
67,SPOS
68,SPOS
69,SPOS
70,SPOS
71,SPOS
72,SPOS
73,SPOS
74,SPOS
75,SPOS
76,SPOS
77,SPOS
78,SPOS
79,SPOS
80,SPOS
81,SPOS
82,SPOS
83,SPOS
84,SPOS
85,SPOS
86,SPOS
87,SPOS
88,SPOS
89,SPOS
90,SPOS
91,SPOS
92,SPOS
93,SPOS
94,SPOS
95,SPOS
96,SPOS
97,SPOS
98,SPOS
99,SPOS
100,SPOS
101,SPOS
102,SPOS
103,SPOS
104,SPOS
105,SPOS
106,SPOS
107,SPOS
108,SPOS
109,SPOS
110,SPOS
111,SPOS
112,SPOS
113,SPOS
114,SPOS
115,SPOS
116,SPOS
117,SPOS
118,SPOS
119,SPOS
120,SPOS
121,SPOS
122,SPOS
123,SPOS
124,SPOS
125,SPOS
126,SPOS
127,SPOS
128,SPOS
129,SPOS
130,SPOS
131,SPOS
132,SPOS
133,SPOS
134,SPOS
135,SPOS
136,SPOS
137,SPOS
138,SPOS
139,SPOS
140,SPOS
141,SPOS
142,SPOS
143,SPOS
144,SPOS
145,SPOS
146,SPOS
147,SPOS
148,SPOS
149,SPOS
150,SPOS
151,SPOS
152,SPOS
153,SPOS
154,SPOS
155,SPOS
156,SPOS
157,SPOS
158,SPOS
159,SPOS
160,SPOS
161,SPOS
162,SPOS
163,SPOS
164,SPOS
165,SPOS
166,SPOS
167,SPOS
168,SPOS
169,SPOS
170,SPOS
171,SPOS
172,SPOS
173,SPOS
174,SPOS
175,SPOS
176,SPOS
177,SPOS
178,SPOS
179,SPOS
180,SPOS
181,SPOS
182,SPOS
183,SPOS
184,SPOS
185,SPOS
186,SPOS
187,SPOS
188,SPOS
189,SPOS
190,SPOS
191,SPOS
192,SPOS
193,SPOS
194,SPOS
195,SPOS
196,SPOS
197,SPOS
198,SPOS
199,SPOS
200,SPOS
201,SPOS
202,SPOS
203,SPOS
204,SPOS
205,SPOS
206,SPOS
207,SPOS
208,SPOS
209,SPOS
210,SPOS
211,SPOS
212,SPOS
213,SPOS
214,SPOS
215,SPOS
216,SPOS
217,SPOS
218,SPOS
219,SPOS
220,SPOS
221,SPOS
222,SPOS
223,SPOS
224,SPOS
225,SPOS
226,SPOS
227,SPOS
228,SPOS
229,SPOS
230,SPOS
231,SPOS
232,SPOS
233,SPOS
234,SPOS
235,SPOS
236,SPOS
237,SPOS
238,SPOS
239,SPOS
240,SPOS
241,SPOS
242,SPOS
243,SPOS
244,SPOS
245,SPOS
246,SPOS
247,SPOS
248,SPOS
249,SPOS
250,SPOS
251,SPOS
252,SPOS
253,SPOS
254,SPOS
255,SPOS
256,SPOS
257,SPOS
258,SPOS
259,SPOS
260,SPOS
261,SPOS
262,SPOS
263,SPOS
264,SPOS
265,SPOS
266,SPOS
267,SPOS
268,SPOS
269,SPOS
270,SPOS
271,SPOS
272,SPOS
273,SPOS
274,SPOS
275,SPOS
276,SPOS
277,SPOS
278,SPOS
279,SPOS
280,SPOS
281,SPOS
282,SPOS
283,SPOS
284,SPOS
285,SPOS
286,SPOS
287,SPOS
288,SPOS
289,SPOS
290,SPOS
291,SPOS
292,SPOS
293,SPOS
294,SPOS
295,SPOS
296,SPOS
297,SPOS
298,SPOS
299,SPOS
300,SPOS
301,SPOS
302,SPOS
303,SPOS
304,SPOS
305,SPOS
306,SPOS
307,SPOS
308,SPOS
309,SPOS
310,SPOS
311,SPOS
312,SPOS
313,SPOS
314,SPOS
315,SPOS
316,SPOS
317,SPOS
318,SPOS
319,SPOS
320,SPOS
321,SPOS
322,SPOS
323,SPOS
324,SPOS
325,SPOS
326,SPOS
327,SPOS
328,SPOS
329,SPOS
330,SPOS
331,SPOS
332,SPOS
333,SPOS
334,SPOS
335,SPOS
336,SPOS
337,SPOS
338,SPOS
339,SPOS
340,SPOS
341,SPOS
342,SPOS
343,SPOS
344,SPOS
345,SPOS
346,SPOS
347,SPOS
348,SPOS
349,SPOS
350,SPOS
351,SPOS
352,SPOS
353,SPOS
354,SPOS
355,SPOS
356,SPOS
357,SPOS
358,SPOS
359,SPOS
360,SPOS
361,SPOS
362,SPOS
363,SPOS
364,SPOS
365,SPOS
366,SPOS
367,SPOS
368,SPOS
369,SPOS
370,SPOS
371,SPOS
372,SPOS
373,SPOS
374,SPOS
375,SPOS
376,SPOS
377,SPOS
378,SPOS
379,SPOS
380,SPOS
381,SPOS
382,SPOS
383,SPOS
384,SPOS
385,SPOS
386,SPOS
387,SPOS
388,SPOS
389,SPOS
390,SPOS
391,SPOS
392,SPOS
393,SPOS
394,SPOS
395,SPOS
396,SPOS
397,SPOS
398,SPOS
399,SPOS
400,SPOS
401,SPOS
402,SPOS
403,SPOS
404,SPOS
405,SPOS
406,SPOS
407,SPOS
408,SPOS
*Surface, name=BELT_INNER, type=ELEMENT
1,SNEG
2,SNEG
3,SNEG
4,SNEG
5,SNEG
6,SNEG
7,SNEG
8,SNEG
9,SNEG
10,SNEG
11,SNEG
12,SNEG
13,SNEG
14,SNEG
15,SNEG
16,SNEG
17,SNEG
18,SNEG
19,SNEG
20,SNEG
21,SNEG
22,SNEG
23,SNEG
24,SNEG
25,SNEG
26,SNEG
27,SNEG
28,SNEG
29,SNEG
30,SNEG
31,SNEG
32,SNEG
33,SNEG
34,SNEG
35,SNEG
36,SNEG
37,SNEG
38,SNEG
39,SNEG
40,SNEG
41,SNEG
42,SNEG
43,SNEG
44,SNEG
45,SNEG
46,SNEG
47,SNEG
48,SNEG
49,SNEG
50,SNEG
51,SNEG
52,SNEG
53,SNEG
54,SNEG
55,SNEG
56,SNEG
57,SNEG
58,SNEG
59,SNEG
60,SNEG
61,SNEG
62,SNEG
63,SNEG
64,SNEG
65,SNEG
66,SNEG
67,SNEG
68,SNEG
69,SNEG
70,SNEG
71,SNEG
72,SNEG
73,SNEG
74,SNEG
75,SNEG
76,SNEG
77,SNEG
78,SNEG
79,SNEG
80,SNEG
81,SNEG
82,SNEG
83,SNEG
84,SNEG
85,SNEG
86,SNEG
87,SNEG
88,SNEG
89,SNEG
90,SNEG
91,SNEG
92,SNEG
93,SNEG
94,SNEG
95,SNEG
96,SNEG
97,SNEG
98,SNEG
99,SNEG
100,SNEG
101,SNEG
102,SNEG
103,SNEG
104,SNEG
105,SNEG
106,SNEG
107,SNEG
108,SNEG
109,SNEG
110,SNEG
111,SNEG
112,SNEG
113,SNEG
114,SNEG
115,SNEG
116,SNEG
117,SNEG
118,SNEG
119,SNEG
120,SNEG
121,SNEG
122,SNEG
123,SNEG
124,SNEG
125,SNEG
126,SNEG
127,SNEG
128,SNEG
129,SNEG
130,SNEG
131,SNEG
132,SNEG
133,SNEG
134,SNEG
135,SNEG
136,SNEG
137,SNEG
138,SNEG
139,SNEG
140,SNEG
141,SNEG
142,SNEG
143,SNEG
144,SNEG
145,SNEG
146,SNEG
147,SNEG
148,SNEG
149,SNEG
150,SNEG
151,SNEG
152,SNEG
153,SNEG
154,SNEG
155,SNEG
156,SNEG
157,SNEG
158,SNEG
159,SNEG
160,SNEG
161,SNEG
162,SNEG
163,SNEG
164,SNEG
165,SNEG
166,SNEG
167,SNEG
168,SNEG
169,SNEG
170,SNEG
171,SNEG
172,SNEG
173,SNEG
174,SNEG
175,SNEG
176,SNEG
177,SNEG
178,SNEG
179,SNEG
180,SNEG
181,SNEG
182,SNEG
183,SNEG
184,SNEG
185,SNEG
186,SNEG
187,SNEG
188,SNEG
189,SNEG
190,SNEG
191,SNEG
192,SNEG
193,SNEG
194,SNEG
195,SNEG
196,SNEG
197,SNEG
198,SNEG
199,SNEG
200,SNEG
201,SNEG
202,SNEG
203,SNEG
204,SNEG
205,SNEG
206,SNEG
207,SNEG
208,SNEG
209,SNEG
210,SNEG
211,SNEG
212,SNEG
213,SNEG
214,SNEG
215,SNEG
216,SNEG
217,SNEG
218,SNEG
219,SNEG
220,SNEG
221,SNEG
222,SNEG
223,SNEG
224,SNEG
225,SNEG
226,SNEG
227,SNEG
228,SNEG
229,SNEG
230,SNEG
231,SNEG
232,SNEG
233,SNEG
234,SNEG
235,SNEG
236,SNEG
237,SNEG
238,SNEG
239,SNEG
240,SNEG
241,SNEG
242,SNEG
243,SNEG
244,SNEG
245,SNEG
246,SNEG
247,SNEG
248,SNEG
249,SNEG
250,SNEG
251,SNEG
252,SNEG
253,SNEG
254,SNEG
255,SNEG
256,SNEG
257,SNEG
258,SNEG
259,SNEG
260,SNEG
261,SNEG
262,SNEG
263,SNEG
264,SNEG
265,SNEG
266,SNEG
267,SNEG
268,SNEG
269,SNEG
270,SNEG
271,SNEG
272,SNEG
273,SNEG
274,SNEG
275,SNEG
276,SNEG
277,SNEG
278,SNEG
279,SNEG
280,SNEG
281,SNEG
282,SNEG
283,SNEG
284,SNEG
285,SNEG
286,SNEG
287,SNEG
288,SNEG
289,SNEG
290,SNEG
291,SNEG
292,SNEG
293,SNEG
294,SNEG
295,SNEG
296,SNEG
297,SNEG
298,SNEG
299,SNEG
300,SNEG
301,SNEG
302,SNEG
303,SNEG
304,SNEG
305,SNEG
306,SNEG
307,SNEG
308,SNEG
309,SNEG
310,SNEG
311,SNEG
312,SNEG
313,SNEG
314,SNEG
315,SNEG
316,SNEG
317,SNEG
318,SNEG
319,SNEG
320,SNEG
321,SNEG
322,SNEG
323,SNEG
324,SNEG
325,SNEG
326,SNEG
327,SNEG
328,SNEG
329,SNEG
330,SNEG
331,SNEG
332,SNEG
333,SNEG
334,SNEG
335,SNEG
336,SNEG
337,SNEG
338,SNEG
339,SNEG
340,SNEG
341,SNEG
342,SNEG
343,SNEG
344,SNEG
345,SNEG
346,SNEG
347,SNEG
348,SNEG
349,SNEG
350,SNEG
351,SNEG
352,SNEG
353,SNEG
354,SNEG
355,SNEG
356,SNEG
357,SNEG
358,SNEG
359,SNEG
360,SNEG
361,SNEG
362,SNEG
363,SNEG
364,SNEG
365,SNEG
366,SNEG
367,SNEG
368,SNEG
369,SNEG
370,SNEG
371,SNEG
372,SNEG
373,SNEG
374,SNEG
375,SNEG
376,SNEG
377,SNEG
378,SNEG
379,SNEG
380,SNEG
381,SNEG
382,SNEG
383,SNEG
384,SNEG
385,SNEG
386,SNEG
387,SNEG
388,SNEG
389,SNEG
390,SNEG
391,SNEG
392,SNEG
393,SNEG
394,SNEG
395,SNEG
396,SNEG
397,SNEG
398,SNEG
399,SNEG
400,SNEG
401,SNEG
402,SNEG
403,SNEG
404,SNEG
405,SNEG
406,SNEG
407,SNEG
408,SNEG
*Shell Section, elset=BI_ALL, material=BeltMat
1.0,
*End Part
** BIG PULLEY: Rigid R=31.5mm
*Part, name=BP
*Node
1, 0.0, 0.000000, 0.000000
*Nset, nset=BP_REF
1,
*Surface, type=REVOLUTION, name=BP_SURF
START, 31.500, -17.000
LINE,  31.500,  17.000
*Rigid Body, ref node=BP_REF, analytical surface=BP_SURF
*End Part
** SMALL PULLEY: Rigid R=12.0mm
*Part, name=SP
*Node
1, 0.0, 0.000000, 207.000000
*Nset, nset=SP_REF
1,
*Surface, type=REVOLUTION, name=SP_SURF
START, 12.000, -17.000
LINE,  12.000,  17.000
*Rigid Body, ref node=SP_REF, analytical surface=SP_SURF
*End Part
** ASSEMBLY
*Assembly, name=Assembly
*Instance, name=WI, part=WP
*End Instance
*Instance, name=BI, part=BI
*End Instance
*Instance, name=BPR, part=BP
*End Instance
*Instance, name=SPR, part=SP
*End Instance
*Node
9999991, 0.0, 0.0, -80.000000
9999992, 0.0, 0.0, 80.000000
9999993, 0.0, 0.0, 0.0
*Nset, nset=WP_LEFT_RP
9999991,
*Nset, nset=WP_RIGHT_RP
9999992,
*Nset, nset=FRAME_RP
9999993,
*Surface, type=NODE, name=WP_LEFT_NODES
WI.EndLeft
*Surface, type=NODE, name=WP_RIGHT_NODES
WI.EndRight
*Surface, type=NODE, name=WP_GRIND_SURF_NODES
WI.OuterSurface
*Surface, type=ELEMENT, name=WP_ALL_SURF
WI.AllElems, 
*Coupling, constraint name=WP_LEFT_CPLG, ref node=WP_LEFT_RP, surface=WP_LEFT_NODES
*Distributing
*Coupling, constraint name=WP_RIGHT_CPLG, ref node=WP_RIGHT_RP, surface=WP_RIGHT_NODES
*Distributing
*Kinematic Coupling, ref node=FRAME_RP
BPR.BP_REF, 1, 6
*Kinematic Coupling, ref node=SPR.SP_REF
FRAME_RP, 1, 6
*End Assembly
*Surface Interaction, name=INT_BW
*Friction
0.45,
*Surface Behavior, pressure-overclosure=HARD
*Surface Interaction, name=INT_PULLEY
*Friction
0.0,
*Surface Behavior, pressure-overclosure=HARD
*Contact
*Contact Inclusions
WI.WP_ALL_SURF, BI.BELT_OUTER
BI.BELT_INNER, BPR.BP_SURF
BI.BELT_INNER, SPR.SP_SURF
*Contact Property Assignment
WI.WP_ALL_SURF, BI.BELT_OUTER,  INT_BW
BI.BELT_INNER, BPR.BP_SURF,   INT_PULLEY
BI.BELT_INNER, SPR.SP_SURF,   INT_PULLEY
*Initial Conditions, type=STRESS
BI.BI_ALL, 3.0000
*Step, name=Pretension, nlgeom=YES, inc=200
*Static
0.01, 1.0, 1e-08, 1.0
*Boundary
FRAME_RP, 1, 6, 0.0
WP_LEFT_RP, 1, 3, 0.0
WP_LEFT_RP, 4, 6, 0.0
WP_RIGHT_RP, 1, 2, 0.0
WP_RIGHT_RP, 4, 6, 0.0
*Output, field
*Node Output
U, RF
*Element Output
S, PEEQ
*Contact Output
CSTATUS, CPRESS, CNORMF, CSHEARF, COPEN
*Output, history
**
** STEP 2: FramePose (theta=11.848deg)
**
*Step, name=FramePose, nlgeom=YES, inc=200
*Static
0.01, 1.0, 1e-08, 1.0
*Boundary, op=NEW
FRAME_RP, 1, 3, 0.0
FRAME_RP, 5, 6, 0.0
FRAME_RP, 4, 4, 0.20678454
WP_LEFT_RP, 1, 3, 0.0
WP_LEFT_RP, 4, 6, 0.0
WP_RIGHT_RP, 1, 2, 0.0
WP_RIGHT_RP, 4, 6, 0.0
*Output, field
*Node Output
U, RF
*Element Output
S, PEEQ
*Contact Output
CSTATUS, CPRESS, CNORMF, CSHEARF, COPEN
*Output, history
**
** STEP 3: ContactApproach with stabilization
**
*Step, name=ContactApproach, nlgeom=YES, inc=500, unsymm=YES
*Static, stabilize
0.01, 1.0, 1e-06, 1.0
*Boundary, op=NEW
FRAME_RP, 1, 3, 0.0
FRAME_RP, 5, 6, 0.0
WP_LEFT_RP, 1, 3, 0.0
WP_LEFT_RP, 4, 6, 0.0
WP_RIGHT_RP, 1, 2, 0.0
WP_RIGHT_RP, 4, 6, 0.0
*Contact Controls, stabilize
*Contact Controls, automatic tolerances
*Output, field
*Node Output
U, RF
*Element Output
S, PEEQ
*Contact Output
CSTATUS, CPRESS, CNORMF, CSHEARF, COPEN
*Output, history
*Energy Output
ALLSE, ALLSD, ALLWK
*End Step
**
** STEP 4: FrictionRamp
**
*Step, name=FrictionRamp, nlgeom=YES, inc=200, unsymm=YES
*Static
0.01, 1.0, 1e-06, 1.0
*Boundary, op=NEW
FRAME_RP, 1, 3, 0.0
FRAME_RP, 5, 6, 0.0
WP_LEFT_RP, 1, 3, 0.0
WP_LEFT_RP, 4, 6, 0.0
WP_RIGHT_RP, 1, 2, 0.0
WP_RIGHT_RP, 4, 6, 0.0
*Output, field
*Node Output
U, RF
*Element Output
S, PEEQ
*Contact Output
CSTATUS, CPRESS, CNORMF, CSHEARF, COPEN
*Output, history
**
** STEP 5: Equilibrium (steady state)
**
*Step, name=Equilibrium, nlgeom=YES, inc=500, unsymm=YES
*Static
0.01, 1.0, 1e-06, 1.0
*Boundary, op=NEW
FRAME_RP, 1, 3, 0.0
FRAME_RP, 5, 6, 0.0
WP_LEFT_RP, 1, 3, 0.0
WP_LEFT_RP, 4, 6, 0.0
WP_RIGHT_RP, 1, 2, 0.0
WP_RIGHT_RP, 4, 6, 0.0
*Output, field
*Node Output
U, RF
*Element Output
S, PEEQ
*Contact Output
CSTATUS, CPRESS, CNORMF, CSHEARF, COPEN
*Output, history