*HEADING
Cantilever beam — linear elastic static analysis
*NODE
1, 0.0, 0.0, 0.0
2, 0.0, 0.5, 0.0
3, 0.0, 1.0, 0.0
4, 0.0, 0.0, 1.0
5, 0.0, 0.5, 1.0
6, 0.0, 1.0, 1.0
7, 5.0, 0.0, 0.0
8, 5.0, 0.5, 0.0
9, 5.0, 1.0, 0.0
10, 5.0, 0.0, 1.0
11, 5.0, 0.5, 1.0
12, 5.0, 1.0, 1.0
*ELEMENT, TYPE=C3D8, ELSET=ALL
1, 1, 2, 5, 4, 7, 8, 11, 10
2, 2, 3, 6, 5, 8, 9, 12, 11
*SOLID SECTION, ELSET=ALL, MATERIAL=STEEL
*MATERIAL, NAME=STEEL
*ELASTIC
210000.0, 0.3
*BOUNDARY
1, 1, 3, 0.0
2, 1, 3, 0.0
3, 1, 3, 0.0
4, 1, 3, 0.0
5, 1, 3, 0.0
6, 1, 3, 0.0
*STEP, NLGEOM=NO
*STATIC
0.1, 1.0
*CLOAD
7, 2, -100.0
8, 2, -100.0
9, 2, -100.0
10, 2, -100.0
11, 2, -100.0
12, 2, -100.0
*NODE PRINT, NSET=ALL
U
*EL PRINT, ELSET=ALL
S
*END STEP
