*Heading
** V9 Rough Calibration gap=0.5mm cl=0.15mm
*Preprint, echo=NO, model=NO, history=NO, contact=NO
*Material, name=AISI_304
*Density
7.9e-09,
*Elastic
200000.0,0.30
*Plastic
230.0,0.000000
270.0,0.002000
320.0,0.010000
390.0,0.030000
470.0,0.070000
550.0,0.150000
630.0,0.250000
700.0,0.400000
*Material, name=BeltMat
*Density
1.5e-09,
*Elastic
4000.0,0.30
*Part, name=Belt
*Node
1,-15.00000,-100.00000,0.0
2,-11.25000,-100.00000,0.0
3,-7.50000,-100.00000,0.0
4,-3.75000,-100.00000,0.0
5,0.00000,-100.00000,0.0
6,3.75000,-100.00000,0.0
7,7.50000,-100.00000,0.0
8,11.25000,-100.00000,0.0
9,15.00000,-100.00000,0.0
10,-15.00000,-96.00000,0.0
11,-11.25000,-96.00000,0.0
12,-7.50000,-96.00000,0.0
13,-3.75000,-96.00000,0.0
14,0.00000,-96.00000,0.0
15,3.75000,-96.00000,0.0
16,7.50000,-96.00000,0.0
17,11.25000,-96.00000,0.0
18,15.00000,-96.00000,0.0
19,-15.00000,-92.00000,0.0
20,-11.25000,-92.00000,0.0
21,-7.50000,-92.00000,0.0
22,-3.75000,-92.00000,0.0
23,0.00000,-92.00000,0.0
24,3.75000,-92.00000,0.0
25,7.50000,-92.00000,0.0
26,11.25000,-92.00000,0.0
27,15.00000,-92.00000,0.0
28,-15.00000,-88.00000,0.0
29,-11.25000,-88.00000,0.0
30,-7.50000,-88.00000,0.0
31,-3.75000,-88.00000,0.0
32,0.00000,-88.00000,0.0
33,3.75000,-88.00000,0.0
34,7.50000,-88.00000,0.0
35,11.25000,-88.00000,0.0
36,15.00000,-88.00000,0.0
37,-15.00000,-84.00000,0.0
38,-11.25000,-84.00000,0.0
39,-7.50000,-84.00000,0.0
40,-3.75000,-84.00000,0.0
41,0.00000,-84.00000,0.0
42,3.75000,-84.00000,0.0
43,7.50000,-84.00000,0.0
44,11.25000,-84.00000,0.0
45,15.00000,-84.00000,0.0
46,-15.00000,-80.00000,0.0
47,-11.25000,-80.00000,0.0
48,-7.50000,-80.00000,0.0
49,-3.75000,-80.00000,0.0
50,0.00000,-80.00000,0.0
51,3.75000,-80.00000,0.0
52,7.50000,-80.00000,0.0
53,11.25000,-80.00000,0.0
54,15.00000,-80.00000,0.0
55,-15.00000,-76.00000,0.0
56,-11.25000,-76.00000,0.0
57,-7.50000,-76.00000,0.0
58,-3.75000,-76.00000,0.0
59,0.00000,-76.00000,0.0
60,3.75000,-76.00000,0.0
61,7.50000,-76.00000,0.0
62,11.25000,-76.00000,0.0
63,15.00000,-76.00000,0.0
64,-15.00000,-72.00000,0.0
65,-11.25000,-72.00000,0.0
66,-7.50000,-72.00000,0.0
67,-3.75000,-72.00000,0.0
68,0.00000,-72.00000,0.0
69,3.75000,-72.00000,0.0
70,7.50000,-72.00000,0.0
71,11.25000,-72.00000,0.0
72,15.00000,-72.00000,0.0
73,-15.00000,-68.00000,0.0
74,-11.25000,-68.00000,0.0
75,-7.50000,-68.00000,0.0
76,-3.75000,-68.00000,0.0
77,0.00000,-68.00000,0.0
78,3.75000,-68.00000,0.0
79,7.50000,-68.00000,0.0
80,11.25000,-68.00000,0.0
81,15.00000,-68.00000,0.0
82,-15.00000,-64.00000,0.0
83,-11.25000,-64.00000,0.0
84,-7.50000,-64.00000,0.0
85,-3.75000,-64.00000,0.0
86,0.00000,-64.00000,0.0
87,3.75000,-64.00000,0.0
88,7.50000,-64.00000,0.0
89,11.25000,-64.00000,0.0
90,15.00000,-64.00000,0.0
91,-15.00000,-60.00000,0.0
92,-11.25000,-60.00000,0.0
93,-7.50000,-60.00000,0.0
94,-3.75000,-60.00000,0.0
95,0.00000,-60.00000,0.0
96,3.75000,-60.00000,0.0
97,7.50000,-60.00000,0.0
98,11.25000,-60.00000,0.0
99,15.00000,-60.00000,0.0
100,-15.00000,-56.00000,0.0
101,-11.25000,-56.00000,0.0
102,-7.50000,-56.00000,0.0
103,-3.75000,-56.00000,0.0
104,0.00000,-56.00000,0.0
105,3.75000,-56.00000,0.0
106,7.50000,-56.00000,0.0
107,11.25000,-56.00000,0.0
108,15.00000,-56.00000,0.0
109,-15.00000,-52.00000,0.0
110,-11.25000,-52.00000,0.0
111,-7.50000,-52.00000,0.0
112,-3.75000,-52.00000,0.0
113,0.00000,-52.00000,0.0
114,3.75000,-52.00000,0.0
115,7.50000,-52.00000,0.0
116,11.25000,-52.00000,0.0
117,15.00000,-52.00000,0.0
118,-15.00000,-48.00000,0.0
119,-11.25000,-48.00000,0.0
120,-7.50000,-48.00000,0.0
121,-3.75000,-48.00000,0.0
122,0.00000,-48.00000,0.0
123,3.75000,-48.00000,0.0
124,7.50000,-48.00000,0.0
125,11.25000,-48.00000,0.0
126,15.00000,-48.00000,0.0
127,-15.00000,-44.00000,0.0
128,-11.25000,-44.00000,0.0
129,-7.50000,-44.00000,0.0
130,-3.75000,-44.00000,0.0
131,0.00000,-44.00000,0.0
132,3.75000,-44.00000,0.0
133,7.50000,-44.00000,0.0
134,11.25000,-44.00000,0.0
135,15.00000,-44.00000,0.0
136,-15.00000,-40.00000,0.0
137,-11.25000,-40.00000,0.0
138,-7.50000,-40.00000,0.0
139,-3.75000,-40.00000,0.0
140,0.00000,-40.00000,0.0
141,3.75000,-40.00000,0.0
142,7.50000,-40.00000,0.0
143,11.25000,-40.00000,0.0
144,15.00000,-40.00000,0.0
145,-15.00000,-36.00000,0.0
146,-11.25000,-36.00000,0.0
147,-7.50000,-36.00000,0.0
148,-3.75000,-36.00000,0.0
149,0.00000,-36.00000,0.0
150,3.75000,-36.00000,0.0
151,7.50000,-36.00000,0.0
152,11.25000,-36.00000,0.0
153,15.00000,-36.00000,0.0
154,-15.00000,-32.00000,0.0
155,-11.25000,-32.00000,0.0
156,-7.50000,-32.00000,0.0
157,-3.75000,-32.00000,0.0
158,0.00000,-32.00000,0.0
159,3.75000,-32.00000,0.0
160,7.50000,-32.00000,0.0
161,11.25000,-32.00000,0.0
162,15.00000,-32.00000,0.0
163,-15.00000,-28.00000,0.0
164,-11.25000,-28.00000,0.0
165,-7.50000,-28.00000,0.0
166,-3.75000,-28.00000,0.0
167,0.00000,-28.00000,0.0
168,3.75000,-28.00000,0.0
169,7.50000,-28.00000,0.0
170,11.25000,-28.00000,0.0
171,15.00000,-28.00000,0.0
172,-15.00000,-24.00000,0.0
173,-11.25000,-24.00000,0.0
174,-7.50000,-24.00000,0.0
175,-3.75000,-24.00000,0.0
176,0.00000,-24.00000,0.0
177,3.75000,-24.00000,0.0
178,7.50000,-24.00000,0.0
179,11.25000,-24.00000,0.0
180,15.00000,-24.00000,0.0
181,-15.00000,-20.00000,0.0
182,-11.25000,-20.00000,0.0
183,-7.50000,-20.00000,0.0
184,-3.75000,-20.00000,0.0
185,0.00000,-20.00000,0.0
186,3.75000,-20.00000,0.0
187,7.50000,-20.00000,0.0
188,11.25000,-20.00000,0.0
189,15.00000,-20.00000,0.0
190,-15.00000,-16.00000,0.0
191,-11.25000,-16.00000,0.0
192,-7.50000,-16.00000,0.0
193,-3.75000,-16.00000,0.0
194,0.00000,-16.00000,0.0
195,3.75000,-16.00000,0.0
196,7.50000,-16.00000,0.0
197,11.25000,-16.00000,0.0
198,15.00000,-16.00000,0.0
199,-15.00000,-12.00000,0.0
200,-11.25000,-12.00000,0.0
201,-7.50000,-12.00000,0.0
202,-3.75000,-12.00000,0.0
203,0.00000,-12.00000,0.0
204,3.75000,-12.00000,0.0
205,7.50000,-12.00000,0.0
206,11.25000,-12.00000,0.0
207,15.00000,-12.00000,0.0
208,-15.00000,-8.00000,0.0
209,-11.25000,-8.00000,0.0
210,-7.50000,-8.00000,0.0
211,-3.75000,-8.00000,0.0
212,0.00000,-8.00000,0.0
213,3.75000,-8.00000,0.0
214,7.50000,-8.00000,0.0
215,11.25000,-8.00000,0.0
216,15.00000,-8.00000,0.0
217,-15.00000,-4.00000,0.0
218,-11.25000,-4.00000,0.0
219,-7.50000,-4.00000,0.0
220,-3.75000,-4.00000,0.0
221,0.00000,-4.00000,0.0
222,3.75000,-4.00000,0.0
223,7.50000,-4.00000,0.0
224,11.25000,-4.00000,0.0
225,15.00000,-4.00000,0.0
226,-15.00000,0.00000,0.0
227,-11.25000,0.00000,0.0
228,-7.50000,0.00000,0.0
229,-3.75000,0.00000,0.0
230,0.00000,0.00000,0.0
231,3.75000,0.00000,0.0
232,7.50000,0.00000,0.0
233,11.25000,0.00000,0.0
234,15.00000,0.00000,0.0
235,-15.00000,4.00000,0.0
236,-11.25000,4.00000,0.0
237,-7.50000,4.00000,0.0
238,-3.75000,4.00000,0.0
239,0.00000,4.00000,0.0
240,3.75000,4.00000,0.0
241,7.50000,4.00000,0.0
242,11.25000,4.00000,0.0
243,15.00000,4.00000,0.0
244,-15.00000,8.00000,0.0
245,-11.25000,8.00000,0.0
246,-7.50000,8.00000,0.0
247,-3.75000,8.00000,0.0
248,0.00000,8.00000,0.0
249,3.75000,8.00000,0.0
250,7.50000,8.00000,0.0
251,11.25000,8.00000,0.0
252,15.00000,8.00000,0.0
253,-15.00000,12.00000,0.0
254,-11.25000,12.00000,0.0
255,-7.50000,12.00000,0.0
256,-3.75000,12.00000,0.0
257,0.00000,12.00000,0.0
258,3.75000,12.00000,0.0
259,7.50000,12.00000,0.0
260,11.25000,12.00000,0.0
261,15.00000,12.00000,0.0
262,-15.00000,16.00000,0.0
263,-11.25000,16.00000,0.0
264,-7.50000,16.00000,0.0
265,-3.75000,16.00000,0.0
266,0.00000,16.00000,0.0
267,3.75000,16.00000,0.0
268,7.50000,16.00000,0.0
269,11.25000,16.00000,0.0
270,15.00000,16.00000,0.0
271,-15.00000,20.00000,0.0
272,-11.25000,20.00000,0.0
273,-7.50000,20.00000,0.0
274,-3.75000,20.00000,0.0
275,0.00000,20.00000,0.0
276,3.75000,20.00000,0.0
277,7.50000,20.00000,0.0
278,11.25000,20.00000,0.0
279,15.00000,20.00000,0.0
280,-15.00000,24.00000,0.0
281,-11.25000,24.00000,0.0
282,-7.50000,24.00000,0.0
283,-3.75000,24.00000,0.0
284,0.00000,24.00000,0.0
285,3.75000,24.00000,0.0
286,7.50000,24.00000,0.0
287,11.25000,24.00000,0.0
288,15.00000,24.00000,0.0
289,-15.00000,28.00000,0.0
290,-11.25000,28.00000,0.0
291,-7.50000,28.00000,0.0
292,-3.75000,28.00000,0.0
293,0.00000,28.00000,0.0
294,3.75000,28.00000,0.0
295,7.50000,28.00000,0.0
296,11.25000,28.00000,0.0
297,15.00000,28.00000,0.0
298,-15.00000,32.00000,0.0
299,-11.25000,32.00000,0.0
300,-7.50000,32.00000,0.0
301,-3.75000,32.00000,0.0
302,0.00000,32.00000,0.0
303,3.75000,32.00000,0.0
304,7.50000,32.00000,0.0
305,11.25000,32.00000,0.0
306,15.00000,32.00000,0.0
307,-15.00000,36.00000,0.0
308,-11.25000,36.00000,0.0
309,-7.50000,36.00000,0.0
310,-3.75000,36.00000,0.0
311,0.00000,36.00000,0.0
312,3.75000,36.00000,0.0
313,7.50000,36.00000,0.0
314,11.25000,36.00000,0.0
315,15.00000,36.00000,0.0
316,-15.00000,40.00000,0.0
317,-11.25000,40.00000,0.0
318,-7.50000,40.00000,0.0
319,-3.75000,40.00000,0.0
320,0.00000,40.00000,0.0
321,3.75000,40.00000,0.0
322,7.50000,40.00000,0.0
323,11.25000,40.00000,0.0
324,15.00000,40.00000,0.0
325,-15.00000,44.00000,0.0
326,-11.25000,44.00000,0.0
327,-7.50000,44.00000,0.0
328,-3.75000,44.00000,0.0
329,0.00000,44.00000,0.0
330,3.75000,44.00000,0.0
331,7.50000,44.00000,0.0
332,11.25000,44.00000,0.0
333,15.00000,44.00000,0.0
334,-15.00000,48.00000,0.0
335,-11.25000,48.00000,0.0
336,-7.50000,48.00000,0.0
337,-3.75000,48.00000,0.0
338,0.00000,48.00000,0.0
339,3.75000,48.00000,0.0
340,7.50000,48.00000,0.0
341,11.25000,48.00000,0.0
342,15.00000,48.00000,0.0
343,-15.00000,52.00000,0.0
344,-11.25000,52.00000,0.0
345,-7.50000,52.00000,0.0
346,-3.75000,52.00000,0.0
347,0.00000,52.00000,0.0
348,3.75000,52.00000,0.0
349,7.50000,52.00000,0.0
350,11.25000,52.00000,0.0
351,15.00000,52.00000,0.0
352,-15.00000,56.00000,0.0
353,-11.25000,56.00000,0.0
354,-7.50000,56.00000,0.0
355,-3.75000,56.00000,0.0
356,0.00000,56.00000,0.0
357,3.75000,56.00000,0.0
358,7.50000,56.00000,0.0
359,11.25000,56.00000,0.0
360,15.00000,56.00000,0.0
361,-15.00000,60.00000,0.0
362,-11.25000,60.00000,0.0
363,-7.50000,60.00000,0.0
364,-3.75000,60.00000,0.0
365,0.00000,60.00000,0.0
366,3.75000,60.00000,0.0
367,7.50000,60.00000,0.0
368,11.25000,60.00000,0.0
369,15.00000,60.00000,0.0
370,-15.00000,64.00000,0.0
371,-11.25000,64.00000,0.0
372,-7.50000,64.00000,0.0
373,-3.75000,64.00000,0.0
374,0.00000,64.00000,0.0
375,3.75000,64.00000,0.0
376,7.50000,64.00000,0.0
377,11.25000,64.00000,0.0
378,15.00000,64.00000,0.0
379,-15.00000,68.00000,0.0
380,-11.25000,68.00000,0.0
381,-7.50000,68.00000,0.0
382,-3.75000,68.00000,0.0
383,0.00000,68.00000,0.0
384,3.75000,68.00000,0.0
385,7.50000,68.00000,0.0
386,11.25000,68.00000,0.0
387,15.00000,68.00000,0.0
388,-15.00000,72.00000,0.0
389,-11.25000,72.00000,0.0
390,-7.50000,72.00000,0.0
391,-3.75000,72.00000,0.0
392,0.00000,72.00000,0.0
393,3.75000,72.00000,0.0
394,7.50000,72.00000,0.0
395,11.25000,72.00000,0.0
396,15.00000,72.00000,0.0
397,-15.00000,76.00000,0.0
398,-11.25000,76.00000,0.0
399,-7.50000,76.00000,0.0
400,-3.75000,76.00000,0.0
401,0.00000,76.00000,0.0
402,3.75000,76.00000,0.0
403,7.50000,76.00000,0.0
404,11.25000,76.00000,0.0
405,15.00000,76.00000,0.0
406,-15.00000,80.00000,0.0
407,-11.25000,80.00000,0.0
408,-7.50000,80.00000,0.0
409,-3.75000,80.00000,0.0
410,0.00000,80.00000,0.0
411,3.75000,80.00000,0.0
412,7.50000,80.00000,0.0
413,11.25000,80.00000,0.0
414,15.00000,80.00000,0.0
415,-15.00000,84.00000,0.0
416,-11.25000,84.00000,0.0
417,-7.50000,84.00000,0.0
418,-3.75000,84.00000,0.0
419,0.00000,84.00000,0.0
420,3.75000,84.00000,0.0
421,7.50000,84.00000,0.0
422,11.25000,84.00000,0.0
423,15.00000,84.00000,0.0
424,-15.00000,88.00000,0.0
425,-11.25000,88.00000,0.0
426,-7.50000,88.00000,0.0
427,-3.75000,88.00000,0.0
428,0.00000,88.00000,0.0
429,3.75000,88.00000,0.0
430,7.50000,88.00000,0.0
431,11.25000,88.00000,0.0
432,15.00000,88.00000,0.0
433,-15.00000,92.00000,0.0
434,-11.25000,92.00000,0.0
435,-7.50000,92.00000,0.0
436,-3.75000,92.00000,0.0
437,0.00000,92.00000,0.0
438,3.75000,92.00000,0.0
439,7.50000,92.00000,0.0
440,11.25000,92.00000,0.0
441,15.00000,92.00000,0.0
442,-15.00000,96.00000,0.0
443,-11.25000,96.00000,0.0
444,-7.50000,96.00000,0.0
445,-3.75000,96.00000,0.0
446,0.00000,96.00000,0.0
447,3.75000,96.00000,0.0
448,7.50000,96.00000,0.0
449,11.25000,96.00000,0.0
450,15.00000,96.00000,0.0
451,-15.00000,100.00000,0.0
452,-11.25000,100.00000,0.0
453,-7.50000,100.00000,0.0
454,-3.75000,100.00000,0.0
455,0.00000,100.00000,0.0
456,3.75000,100.00000,0.0
457,7.50000,100.00000,0.0
458,11.25000,100.00000,0.0
459,15.00000,100.00000,0.0
*Element, type=S4R, ELSET=EALL
1,1,2,11,10
2,2,3,12,11
3,3,4,13,12
4,4,5,14,13
5,5,6,15,14
6,6,7,16,15
7,7,8,17,16
8,8,9,18,17
9,10,11,20,19
10,11,12,21,20
11,12,13,22,21
12,13,14,23,22
13,14,15,24,23
14,15,16,25,24
15,16,17,26,25
16,17,18,27,26
17,19,20,29,28
18,20,21,30,29
19,21,22,31,30
20,22,23,32,31
21,23,24,33,32
22,24,25,34,33
23,25,26,35,34
24,26,27,36,35
25,28,29,38,37
26,29,30,39,38
27,30,31,40,39
28,31,32,41,40
29,32,33,42,41
30,33,34,43,42
31,34,35,44,43
32,35,36,45,44
33,37,38,47,46
34,38,39,48,47
35,39,40,49,48
36,40,41,50,49
37,41,42,51,50
38,42,43,52,51
39,43,44,53,52
40,44,45,54,53
41,46,47,56,55
42,47,48,57,56
43,48,49,58,57
44,49,50,59,58
45,50,51,60,59
46,51,52,61,60
47,52,53,62,61
48,53,54,63,62
49,55,56,65,64
50,56,57,66,65
51,57,58,67,66
52,58,59,68,67
53,59,60,69,68
54,60,61,70,69
55,61,62,71,70
56,62,63,72,71
57,64,65,74,73
58,65,66,75,74
59,66,67,76,75
60,67,68,77,76
61,68,69,78,77
62,69,70,79,78
63,70,71,80,79
64,71,72,81,80
65,73,74,83,82
66,74,75,84,83
67,75,76,85,84
68,76,77,86,85
69,77,78,87,86
70,78,79,88,87
71,79,80,89,88
72,80,81,90,89
73,82,83,92,91
74,83,84,93,92
75,84,85,94,93
76,85,86,95,94
77,86,87,96,95
78,87,88,97,96
79,88,89,98,97
80,89,90,99,98
81,91,92,101,100
82,92,93,102,101
83,93,94,103,102
84,94,95,104,103
85,95,96,105,104
86,96,97,106,105
87,97,98,107,106
88,98,99,108,107
89,100,101,110,109
90,101,102,111,110
91,102,103,112,111
92,103,104,113,112
93,104,105,114,113
94,105,106,115,114
95,106,107,116,115
96,107,108,117,116
97,109,110,119,118
98,110,111,120,119
99,111,112,121,120
100,112,113,122,121
101,113,114,123,122
102,114,115,124,123
103,115,116,125,124
104,116,117,126,125
105,118,119,128,127
106,119,120,129,128
107,120,121,130,129
108,121,122,131,130
109,122,123,132,131
110,123,124,133,132
111,124,125,134,133
112,125,126,135,134
113,127,128,137,136
114,128,129,138,137
115,129,130,139,138
116,130,131,140,139
117,131,132,141,140
118,132,133,142,141
119,133,134,143,142
120,134,135,144,143
121,136,137,146,145
122,137,138,147,146
123,138,139,148,147
124,139,140,149,148
125,140,141,150,149
126,141,142,151,150
127,142,143,152,151
128,143,144,153,152
129,145,146,155,154
130,146,147,156,155
131,147,148,157,156
132,148,149,158,157
133,149,150,159,158
134,150,151,160,159
135,151,152,161,160
136,152,153,162,161
137,154,155,164,163
138,155,156,165,164
139,156,157,166,165
140,157,158,167,166
141,158,159,168,167
142,159,160,169,168
143,160,161,170,169
144,161,162,171,170
145,163,164,173,172
146,164,165,174,173
147,165,166,175,174
148,166,167,176,175
149,167,168,177,176
150,168,169,178,177
151,169,170,179,178
152,170,171,180,179
153,172,173,182,181
154,173,174,183,182
155,174,175,184,183
156,175,176,185,184
157,176,177,186,185
158,177,178,187,186
159,178,179,188,187
160,179,180,189,188
161,181,182,191,190
162,182,183,192,191
163,183,184,193,192
164,184,185,194,193
165,185,186,195,194
166,186,187,196,195
167,187,188,197,196
168,188,189,198,197
169,190,191,200,199
170,191,192,201,200
171,192,193,202,201
172,193,194,203,202
173,194,195,204,203
174,195,196,205,204
175,196,197,206,205
176,197,198,207,206
177,199,200,209,208
178,200,201,210,209
179,201,202,211,210
180,202,203,212,211
181,203,204,213,212
182,204,205,214,213
183,205,206,215,214
184,206,207,216,215
185,208,209,218,217
186,209,210,219,218
187,210,211,220,219
188,211,212,221,220
189,212,213,222,221
190,213,214,223,222
191,214,215,224,223
192,215,216,225,224
193,217,218,227,226
194,218,219,228,227
195,219,220,229,228
196,220,221,230,229
197,221,222,231,230
198,222,223,232,231
199,223,224,233,232
200,224,225,234,233
201,226,227,236,235
202,227,228,237,236
203,228,229,238,237
204,229,230,239,238
205,230,231,240,239
206,231,232,241,240
207,232,233,242,241
208,233,234,243,242
209,235,236,245,244
210,236,237,246,245
211,237,238,247,246
212,238,239,248,247
213,239,240,249,248
214,240,241,250,249
215,241,242,251,250
216,242,243,252,251
217,244,245,254,253
218,245,246,255,254
219,246,247,256,255
220,247,248,257,256
221,248,249,258,257
222,249,250,259,258
223,250,251,260,259
224,251,252,261,260
225,253,254,263,262
226,254,255,264,263
227,255,256,265,264
228,256,257,266,265
229,257,258,267,266
230,258,259,268,267
231,259,260,269,268
232,260,261,270,269
233,262,263,272,271
234,263,264,273,272
235,264,265,274,273
236,265,266,275,274
237,266,267,276,275
238,267,268,277,276
239,268,269,278,277
240,269,270,279,278
241,271,272,281,280
242,272,273,282,281
243,273,274,283,282
244,274,275,284,283
245,275,276,285,284
246,276,277,286,285
247,277,278,287,286
248,278,279,288,287
249,280,281,290,289
250,281,282,291,290
251,282,283,292,291
252,283,284,293,292
253,284,285,294,293
254,285,286,295,294
255,286,287,296,295
256,287,288,297,296
257,289,290,299,298
258,290,291,300,299
259,291,292,301,300
260,292,293,302,301
261,293,294,303,302
262,294,295,304,303
263,295,296,305,304
264,296,297,306,305
265,298,299,308,307
266,299,300,309,308
267,300,301,310,309
268,301,302,311,310
269,302,303,312,311
270,303,304,313,312
271,304,305,314,313
272,305,306,315,314
273,307,308,317,316
274,308,309,318,317
275,309,310,319,318
276,310,311,320,319
277,311,312,321,320
278,312,313,322,321
279,313,314,323,322
280,314,315,324,323
281,316,317,326,325
282,317,318,327,326
283,318,319,328,327
284,319,320,329,328
285,320,321,330,329
286,321,322,331,330
287,322,323,332,331
288,323,324,333,332
289,325,326,335,334
290,326,327,336,335
291,327,328,337,336
292,328,329,338,337
293,329,330,339,338
294,330,331,340,339
295,331,332,341,340
296,332,333,342,341
297,334,335,344,343
298,335,336,345,344
299,336,337,346,345
300,337,338,347,346
301,338,339,348,347
302,339,340,349,348
303,340,341,350,349
304,341,342,351,350
305,343,344,353,352
306,344,345,354,353
307,345,346,355,354
308,346,347,356,355
309,347,348,357,356
310,348,349,358,357
311,349,350,359,358
312,350,351,360,359
313,352,353,362,361
314,353,354,363,362
315,354,355,364,363
316,355,356,365,364
317,356,357,366,365
318,357,358,367,366
319,358,359,368,367
320,359,360,369,368
321,361,362,371,370
322,362,363,372,371
323,363,364,373,372
324,364,365,374,373
325,365,366,375,374
326,366,367,376,375
327,367,368,377,376
328,368,369,378,377
329,370,371,380,379
330,371,372,381,380
331,372,373,382,381
332,373,374,383,382
333,374,375,384,383
334,375,376,385,384
335,376,377,386,385
336,377,378,387,386
337,379,380,389,388
338,380,381,390,389
339,381,382,391,390
340,382,383,392,391
341,383,384,393,392
342,384,385,394,393
343,385,386,395,394
344,386,387,396,395
345,388,389,398,397
346,389,390,399,398
347,390,391,400,399
348,391,392,401,400
349,392,393,402,401
350,393,394,403,402
351,394,395,404,403
352,395,396,405,404
353,397,398,407,406
354,398,399,408,407
355,399,400,409,408
356,400,401,410,409
357,401,402,411,410
358,402,403,412,411
359,403,404,413,412
360,404,405,414,413
361,406,407,416,415
362,407,408,417,416
363,408,409,418,417
364,409,410,419,418
365,410,411,420,419
366,411,412,421,420
367,412,413,422,421
368,413,414,423,422
369,415,416,425,424
370,416,417,426,425
371,417,418,427,426
372,418,419,428,427
373,419,420,429,428
374,420,421,430,429
375,421,422,431,430
376,422,423,432,431
377,424,425,434,433
378,425,426,435,434
379,426,427,436,435
380,427,428,437,436
381,428,429,438,437
382,429,430,439,438
383,430,431,440,439
384,431,432,441,440
385,433,434,443,442
386,434,435,444,443
387,435,436,445,444
388,436,437,446,445
389,437,438,447,446
390,438,439,448,447
391,439,440,449,448
392,440,441,450,449
393,442,443,452,451
394,443,444,453,452
395,444,445,454,453
396,445,446,455,454
397,446,447,456,455
398,447,448,457,456
399,448,449,458,457
400,449,450,459,458
*Nset, nset=LEFT
1,2,3,4,5,6,7,8,9,
*Nset, nset=RIGHT
451,452,453,454,455,456,457,458,459,
*Nset, nset=BELTMID, generate
10,441,1
*Shell Section, elset=EALL, material=BeltMat
1.0,
*End Part
*Part, name=WP
*Node
1459,0.00000,0.50000,14.00000
1460,0.00000,2.06250,14.00000
1461,0.00000,3.62500,14.00000
1462,0.00000,5.18750,14.00000
1463,0.00000,6.75000,14.00000
1464,0.00000,8.31250,14.00000
1465,0.00000,9.87500,14.00000
1466,0.00000,11.43750,14.00000
1467,0.00000,13.00000,14.00000
1468,0.00000,0.49240,14.08682
1469,0.00000,2.03117,14.35815
1470,0.00000,3.56993,14.62947
1471,0.00000,5.10869,14.90080
1472,0.00000,6.64745,15.17213
1473,0.00000,8.18621,15.44345
1474,0.00000,9.72498,15.71478
1475,0.00000,11.26374,15.98610
1476,0.00000,12.80250,16.25743
1477,0.00000,0.46985,14.17101
1478,0.00000,1.93812,14.70542
1479,0.00000,3.40639,15.23982
1480,0.00000,4.87466,15.77423
1481,0.00000,6.34293,16.30864
1482,0.00000,7.81119,16.84304
1483,0.00000,9.27946,17.37745
1484,0.00000,10.74773,17.91186
1485,0.00000,12.21600,18.44626
1486,0.00000,0.43301,14.25000
1487,0.00000,1.78618,15.03125
1488,0.00000,3.13934,15.81250
1489,0.00000,4.49251,16.59375
1490,0.00000,5.84567,17.37500
1491,0.00000,7.19884,18.15625
1492,0.00000,8.55200,18.93750
1493,0.00000,9.90517,19.71875
1494,0.00000,11.25833,20.50000
1495,0.00000,0.38302,14.32139
1496,0.00000,1.57997,15.32575
1497,0.00000,2.77691,16.33011
1498,0.00000,3.97386,17.33446
1499,0.00000,5.17080,18.33882
1500,0.00000,6.36774,19.34317
1501,0.00000,7.56469,20.34753
1502,0.00000,8.76163,21.35188
1503,0.00000,9.95858,22.35624
1504,0.00000,0.32139,14.38302
1505,0.00000,1.32575,15.57997
1506,0.00000,2.33011,16.77691
1507,0.00000,3.33446,17.97386
1508,0.00000,4.33882,19.17080
1509,0.00000,5.34317,20.36774
1510,0.00000,6.34753,21.56469
1511,0.00000,7.35188,22.76163
1512,0.00000,8.35624,23.95858
1513,0.00000,0.25000,14.43301
1514,0.00000,1.03125,15.78618
1515,0.00000,1.81250,17.13934
1516,0.00000,2.59375,18.49251
1517,0.00000,3.37500,19.84567
1518,0.00000,4.15625,21.19884
1519,0.00000,4.93750,22.55200
1520,0.00000,5.71875,23.90517
1521,0.00000,6.50000,25.25833
1522,0.00000,0.17101,14.46985
1523,0.00000,0.70542,15.93812
1524,0.00000,1.23982,17.40639
1525,0.00000,1.77423,18.87466
1526,0.00000,2.30864,20.34293
1527,0.00000,2.84304,21.81119
1528,0.00000,3.37745,23.27946
1529,0.00000,3.91186,24.74773
1530,0.00000,4.44626,26.21600
1531,0.00000,0.08682,14.49240
1532,0.00000,0.35815,16.03117
1533,0.00000,0.62947,17.56993
1534,0.00000,0.90080,19.10869
1535,0.00000,1.17213,20.64745
1536,0.00000,1.44345,22.18621
1537,0.00000,1.71478,23.72498
1538,0.00000,1.98610,25.26374
1539,0.00000,2.25743,26.80250
1540,0.00000,0.00000,14.50000
1541,0.00000,0.00000,16.06250
1542,0.00000,0.00000,17.62500
1543,0.00000,0.00000,19.18750
1544,0.00000,0.00000,20.75000
1545,0.00000,0.00000,22.31250
1546,0.00000,0.00000,23.87500
1547,0.00000,0.00000,25.43750
1548,0.00000,0.00000,27.00000
1549,0.00000,-0.08682,14.49240
1550,0.00000,-0.35815,16.03117
1551,0.00000,-0.62947,17.56993
1552,0.00000,-0.90080,19.10869
1553,0.00000,-1.17213,20.64745
1554,0.00000,-1.44345,22.18621
1555,0.00000,-1.71478,23.72498
1556,0.00000,-1.98610,25.26374
1557,0.00000,-2.25743,26.80250
1558,0.00000,-0.17101,14.46985
1559,0.00000,-0.70542,15.93812
1560,0.00000,-1.23982,17.40639
1561,0.00000,-1.77423,18.87466
1562,0.00000,-2.30864,20.34293
1563,0.00000,-2.84304,21.81119
1564,0.00000,-3.37745,23.27946
1565,0.00000,-3.91186,24.74773
1566,0.00000,-4.44626,26.21600
1567,0.00000,-0.25000,14.43301
1568,0.00000,-1.03125,15.78618
1569,0.00000,-1.81250,17.13934
1570,0.00000,-2.59375,18.49251
1571,0.00000,-3.37500,19.84567
1572,0.00000,-4.15625,21.19884
1573,0.00000,-4.93750,22.55200
1574,0.00000,-5.71875,23.90517
1575,0.00000,-6.50000,25.25833
1576,0.00000,-0.32139,14.38302
1577,0.00000,-1.32575,15.57997
1578,0.00000,-2.33011,16.77691
1579,0.00000,-3.33446,17.97386
1580,0.00000,-4.33882,19.17080
1581,0.00000,-5.34317,20.36774
1582,0.00000,-6.34753,21.56469
1583,0.00000,-7.35188,22.76163
1584,0.00000,-8.35624,23.95858
1585,0.00000,-0.38302,14.32139
1586,0.00000,-1.57997,15.32575
1587,0.00000,-2.77691,16.33011
1588,0.00000,-3.97386,17.33446
1589,0.00000,-5.17080,18.33882
1590,0.00000,-6.36774,19.34317
1591,0.00000,-7.56469,20.34753
1592,0.00000,-8.76163,21.35188
1593,0.00000,-9.95858,22.35624
1594,0.00000,-0.43301,14.25000
1595,0.00000,-1.78618,15.03125
1596,0.00000,-3.13934,15.81250
1597,0.00000,-4.49251,16.59375
1598,0.00000,-5.84567,17.37500
1599,0.00000,-7.19884,18.15625
1600,0.00000,-8.55200,18.93750
1601,0.00000,-9.90517,19.71875
1602,0.00000,-11.25833,20.50000
1603,0.00000,-0.46985,14.17101
1604,0.00000,-1.93812,14.70542
1605,0.00000,-3.40639,15.23982
1606,0.00000,-4.87466,15.77423
1607,0.00000,-6.34293,16.30864
1608,0.00000,-7.81119,16.84304
1609,0.00000,-9.27946,17.37745
1610,0.00000,-10.74773,17.91186
1611,0.00000,-12.21600,18.44626
1612,0.00000,-0.49240,14.08682
1613,0.00000,-2.03117,14.35815
1614,0.00000,-3.56993,14.62947
1615,0.00000,-5.10869,14.90080
1616,0.00000,-6.64745,15.17213
1617,0.00000,-8.18621,15.44345
1618,0.00000,-9.72498,15.71478
1619,0.00000,-11.26374,15.98610
1620,0.00000,-12.80250,16.25743
1621,0.00000,-0.50000,14.00000
1622,0.00000,-2.06250,14.00000
1623,0.00000,-3.62500,14.00000
1624,0.00000,-5.18750,14.00000
1625,0.00000,-6.75000,14.00000
1626,0.00000,-8.31250,14.00000
1627,0.00000,-9.87500,14.00000
1628,0.00000,-11.43750,14.00000
1629,0.00000,-13.00000,14.00000
1630,0.00000,-0.49240,13.91318
1631,0.00000,-2.03117,13.64185
1632,0.00000,-3.56993,13.37053
1633,0.00000,-5.10869,13.09920
1634,0.00000,-6.64745,12.82787
1635,0.00000,-8.18621,12.55655
1636,0.00000,-9.72498,12.28522
1637,0.00000,-11.26374,12.01390
1638,0.00000,-12.80250,11.74257
1639,0.00000,-0.46985,13.82899
1640,0.00000,-1.93812,13.29458
1641,0.00000,-3.40639,12.76018
1642,0.00000,-4.87466,12.22577
1643,0.00000,-6.34293,11.69136
1644,0.00000,-7.81119,11.15696
1645,0.00000,-9.27946,10.62255
1646,0.00000,-10.74773,10.08814
1647,0.00000,-12.21600,9.55374
1648,0.00000,-0.43301,13.75000
1649,0.00000,-1.78618,12.96875
1650,0.00000,-3.13934,12.18750
1651,0.00000,-4.49251,11.40625
1652,0.00000,-5.84567,10.62500
1653,0.00000,-7.19884,9.84375
1654,0.00000,-8.55200,9.06250
1655,0.00000,-9.90517,8.28125
1656,0.00000,-11.25833,7.50000
1657,0.00000,-0.38302,13.67861
1658,0.00000,-1.57997,12.67425
1659,0.00000,-2.77691,11.66989
1660,0.00000,-3.97386,10.66554
1661,0.00000,-5.17080,9.66118
1662,0.00000,-6.36774,8.65683
1663,0.00000,-7.56469,7.65247
1664,0.00000,-8.76163,6.64812
1665,0.00000,-9.95858,5.64376
1666,0.00000,-0.32139,13.61698
1667,0.00000,-1.32575,12.42003
1668,0.00000,-2.33011,11.22309
1669,0.00000,-3.33446,10.02614
1670,0.00000,-4.33882,8.82920
1671,0.00000,-5.34317,7.63226
1672,0.00000,-6.34753,6.43531
1673,0.00000,-7.35188,5.23837
1674,0.00000,-8.35624,4.04142
1675,0.00000,-0.25000,13.56699
1676,0.00000,-1.03125,12.21382
1677,0.00000,-1.81250,10.86066
1678,0.00000,-2.59375,9.50749
1679,0.00000,-3.37500,8.15433
1680,0.00000,-4.15625,6.80116
1681,0.00000,-4.93750,5.44800
1682,0.00000,-5.71875,4.09483
1683,0.00000,-6.50000,2.74167
1684,0.00000,-0.17101,13.53015
1685,0.00000,-0.70542,12.06188
1686,0.00000,-1.23982,10.59361
1687,0.00000,-1.77423,9.12534
1688,0.00000,-2.30864,7.65707
1689,0.00000,-2.84304,6.18881
1690,0.00000,-3.37745,4.72054
1691,0.00000,-3.91186,3.25227
1692,0.00000,-4.44626,1.78400
1693,0.00000,-0.08682,13.50760
1694,0.00000,-0.35815,11.96883
1695,0.00000,-0.62947,10.43007
1696,0.00000,-0.90080,8.89131
1697,0.00000,-1.17213,7.35255
1698,0.00000,-1.44345,5.81379
1699,0.00000,-1.71478,4.27502
1700,0.00000,-1.98610,2.73626
1701,0.00000,-2.25743,1.19750
1702,0.00000,-0.00000,13.50000
1703,0.00000,-0.00000,11.93750
1704,0.00000,-0.00000,10.37500
1705,0.00000,-0.00000,8.81250
1706,0.00000,-0.00000,7.25000
1707,0.00000,-0.00000,5.68750
1708,0.00000,-0.00000,4.12500
1709,0.00000,-0.00000,2.56250
1710,0.00000,-0.00000,1.00000
1711,0.00000,0.08682,13.50760
1712,0.00000,0.35815,11.96883
1713,0.00000,0.62947,10.43007
1714,0.00000,0.90080,8.89131
1715,0.00000,1.17213,7.35255
1716,0.00000,1.44345,5.81379
1717,0.00000,1.71478,4.27502
1718,0.00000,1.98610,2.73626
1719,0.00000,2.25743,1.19750
1720,0.00000,0.17101,13.53015
1721,0.00000,0.70542,12.06188
1722,0.00000,1.23982,10.59361
1723,0.00000,1.77423,9.12534
1724,0.00000,2.30864,7.65707
1725,0.00000,2.84304,6.18881
1726,0.00000,3.37745,4.72054
1727,0.00000,3.91186,3.25227
1728,0.00000,4.44626,1.78400
1729,0.00000,0.25000,13.56699
1730,0.00000,1.03125,12.21382
1731,0.00000,1.81250,10.86066
1732,0.00000,2.59375,9.50749
1733,0.00000,3.37500,8.15433
1734,0.00000,4.15625,6.80116
1735,0.00000,4.93750,5.44800
1736,0.00000,5.71875,4.09483
1737,0.00000,6.50000,2.74167
1738,0.00000,0.32139,13.61698
1739,0.00000,1.32575,12.42003
1740,0.00000,2.33011,11.22309
1741,0.00000,3.33446,10.02614
1742,0.00000,4.33882,8.82920
1743,0.00000,5.34317,7.63226
1744,0.00000,6.34753,6.43531
1745,0.00000,7.35188,5.23837
1746,0.00000,8.35624,4.04142
1747,0.00000,0.38302,13.67861
1748,0.00000,1.57997,12.67425
1749,0.00000,2.77691,11.66989
1750,0.00000,3.97386,10.66554
1751,0.00000,5.17080,9.66118
1752,0.00000,6.36774,8.65683
1753,0.00000,7.56469,7.65247
1754,0.00000,8.76163,6.64812
1755,0.00000,9.95858,5.64376
1756,0.00000,0.43301,13.75000
1757,0.00000,1.78618,12.96875
1758,0.00000,3.13934,12.18750
1759,0.00000,4.49251,11.40625
1760,0.00000,5.84567,10.62500
1761,0.00000,7.19884,9.84375
1762,0.00000,8.55200,9.06250
1763,0.00000,9.90517,8.28125
1764,0.00000,11.25833,7.50000
1765,0.00000,0.46985,13.82899
1766,0.00000,1.93812,13.29458
1767,0.00000,3.40639,12.76018
1768,0.00000,4.87466,12.22577
1769,0.00000,6.34293,11.69136
1770,0.00000,7.81119,11.15696
1771,0.00000,9.27946,10.62255
1772,0.00000,10.74773,10.08814
1773,0.00000,12.21600,9.55374
1774,0.00000,0.49240,13.91318
1775,0.00000,2.03117,13.64185
1776,0.00000,3.56993,13.37053
1777,0.00000,5.10869,13.09920
1778,0.00000,6.64745,12.82787
1779,0.00000,8.18621,12.55655
1780,0.00000,9.72498,12.28522
1781,0.00000,11.26374,12.01390
1782,0.00000,12.80250,11.74257
1783,0.00000,0.50000,14.00000
1784,0.00000,2.06250,14.00000
1785,0.00000,3.62500,14.00000
1786,0.00000,5.18750,14.00000
1787,0.00000,6.75000,14.00000
1788,0.00000,8.31250,14.00000
1789,0.00000,9.87500,14.00000
1790,0.00000,11.43750,14.00000
1791,0.00000,13.00000,14.00000
1792,5.00000,0.50000,14.00000
1793,5.00000,2.06250,14.00000
1794,5.00000,3.62500,14.00000
1795,5.00000,5.18750,14.00000
1796,5.00000,6.75000,14.00000
1797,5.00000,8.31250,14.00000
1798,5.00000,9.87500,14.00000
1799,5.00000,11.43750,14.00000
1800,5.00000,13.00000,14.00000
1801,5.00000,0.49240,14.08682
1802,5.00000,2.03117,14.35815
1803,5.00000,3.56993,14.62947
1804,5.00000,5.10869,14.90080
1805,5.00000,6.64745,15.17213
1806,5.00000,8.18621,15.44345
1807,5.00000,9.72498,15.71478
1808,5.00000,11.26374,15.98610
1809,5.00000,12.80250,16.25743
1810,5.00000,0.46985,14.17101
1811,5.00000,1.93812,14.70542
1812,5.00000,3.40639,15.23982
1813,5.00000,4.87466,15.77423
1814,5.00000,6.34293,16.30864
1815,5.00000,7.81119,16.84304
1816,5.00000,9.27946,17.37745
1817,5.00000,10.74773,17.91186
1818,5.00000,12.21600,18.44626
1819,5.00000,0.43301,14.25000
1820,5.00000,1.78618,15.03125
1821,5.00000,3.13934,15.81250
1822,5.00000,4.49251,16.59375
1823,5.00000,5.84567,17.37500
1824,5.00000,7.19884,18.15625
1825,5.00000,8.55200,18.93750
1826,5.00000,9.90517,19.71875
1827,5.00000,11.25833,20.50000
1828,5.00000,0.38302,14.32139
1829,5.00000,1.57997,15.32575
1830,5.00000,2.77691,16.33011
1831,5.00000,3.97386,17.33446
1832,5.00000,5.17080,18.33882
1833,5.00000,6.36774,19.34317
1834,5.00000,7.56469,20.34753
1835,5.00000,8.76163,21.35188
1836,5.00000,9.95858,22.35624
1837,5.00000,0.32139,14.38302
1838,5.00000,1.32575,15.57997
1839,5.00000,2.33011,16.77691
1840,5.00000,3.33446,17.97386
1841,5.00000,4.33882,19.17080
1842,5.00000,5.34317,20.36774
1843,5.00000,6.34753,21.56469
1844,5.00000,7.35188,22.76163
1845,5.00000,8.35624,23.95858
1846,5.00000,0.25000,14.43301
1847,5.00000,1.03125,15.78618
1848,5.00000,1.81250,17.13934
1849,5.00000,2.59375,18.49251
1850,5.00000,3.37500,19.84567
1851,5.00000,4.15625,21.19884
1852,5.00000,4.93750,22.55200
1853,5.00000,5.71875,23.90517
1854,5.00000,6.50000,25.25833
1855,5.00000,0.17101,14.46985
1856,5.00000,0.70542,15.93812
1857,5.00000,1.23982,17.40639
1858,5.00000,1.77423,18.87466
1859,5.00000,2.30864,20.34293
1860,5.00000,2.84304,21.81119
1861,5.00000,3.37745,23.27946
1862,5.00000,3.91186,24.74773
1863,5.00000,4.44626,26.21600
1864,5.00000,0.08682,14.49240
1865,5.00000,0.35815,16.03117
1866,5.00000,0.62947,17.56993
1867,5.00000,0.90080,19.10869
1868,5.00000,1.17213,20.64745
1869,5.00000,1.44345,22.18621
1870,5.00000,1.71478,23.72498
1871,5.00000,1.98610,25.26374
1872,5.00000,2.25743,26.80250
1873,5.00000,0.00000,14.50000
1874,5.00000,0.00000,16.06250
1875,5.00000,0.00000,17.62500
1876,5.00000,0.00000,19.18750
1877,5.00000,0.00000,20.75000
1878,5.00000,0.00000,22.31250
1879,5.00000,0.00000,23.87500
1880,5.00000,0.00000,25.43750
1881,5.00000,0.00000,27.00000
1882,5.00000,-0.08682,14.49240
1883,5.00000,-0.35815,16.03117
1884,5.00000,-0.62947,17.56993
1885,5.00000,-0.90080,19.10869
1886,5.00000,-1.17213,20.64745
1887,5.00000,-1.44345,22.18621
1888,5.00000,-1.71478,23.72498
1889,5.00000,-1.98610,25.26374
1890,5.00000,-2.25743,26.80250
1891,5.00000,-0.17101,14.46985
1892,5.00000,-0.70542,15.93812
1893,5.00000,-1.23982,17.40639
1894,5.00000,-1.77423,18.87466
1895,5.00000,-2.30864,20.34293
1896,5.00000,-2.84304,21.81119
1897,5.00000,-3.37745,23.27946
1898,5.00000,-3.91186,24.74773
1899,5.00000,-4.44626,26.21600
1900,5.00000,-0.25000,14.43301
1901,5.00000,-1.03125,15.78618
1902,5.00000,-1.81250,17.13934
1903,5.00000,-2.59375,18.49251
1904,5.00000,-3.37500,19.84567
1905,5.00000,-4.15625,21.19884
1906,5.00000,-4.93750,22.55200
1907,5.00000,-5.71875,23.90517
1908,5.00000,-6.50000,25.25833
1909,5.00000,-0.32139,14.38302
1910,5.00000,-1.32575,15.57997
1911,5.00000,-2.33011,16.77691
1912,5.00000,-3.33446,17.97386
1913,5.00000,-4.33882,19.17080
1914,5.00000,-5.34317,20.36774
1915,5.00000,-6.34753,21.56469
1916,5.00000,-7.35188,22.76163
1917,5.00000,-8.35624,23.95858
1918,5.00000,-0.38302,14.32139
1919,5.00000,-1.57997,15.32575
1920,5.00000,-2.77691,16.33011
1921,5.00000,-3.97386,17.33446
1922,5.00000,-5.17080,18.33882
1923,5.00000,-6.36774,19.34317
1924,5.00000,-7.56469,20.34753
1925,5.00000,-8.76163,21.35188
1926,5.00000,-9.95858,22.35624
1927,5.00000,-0.43301,14.25000
1928,5.00000,-1.78618,15.03125
1929,5.00000,-3.13934,15.81250
1930,5.00000,-4.49251,16.59375
1931,5.00000,-5.84567,17.37500
1932,5.00000,-7.19884,18.15625
1933,5.00000,-8.55200,18.93750
1934,5.00000,-9.90517,19.71875
1935,5.00000,-11.25833,20.50000
1936,5.00000,-0.46985,14.17101
1937,5.00000,-1.93812,14.70542
1938,5.00000,-3.40639,15.23982
1939,5.00000,-4.87466,15.77423
1940,5.00000,-6.34293,16.30864
1941,5.00000,-7.81119,16.84304
1942,5.00000,-9.27946,17.37745
1943,5.00000,-10.74773,17.91186
1944,5.00000,-12.21600,18.44626
1945,5.00000,-0.49240,14.08682
1946,5.00000,-2.03117,14.35815
1947,5.00000,-3.56993,14.62947
1948,5.00000,-5.10869,14.90080
1949,5.00000,-6.64745,15.17213
1950,5.00000,-8.18621,15.44345
1951,5.00000,-9.72498,15.71478
1952,5.00000,-11.26374,15.98610
1953,5.00000,-12.80250,16.25743
1954,5.00000,-0.50000,14.00000
1955,5.00000,-2.06250,14.00000
1956,5.00000,-3.62500,14.00000
1957,5.00000,-5.18750,14.00000
1958,5.00000,-6.75000,14.00000
1959,5.00000,-8.31250,14.00000
1960,5.00000,-9.87500,14.00000
1961,5.00000,-11.43750,14.00000
1962,5.00000,-13.00000,14.00000
1963,5.00000,-0.49240,13.91318
1964,5.00000,-2.03117,13.64185
1965,5.00000,-3.56993,13.37053
1966,5.00000,-5.10869,13.09920
1967,5.00000,-6.64745,12.82787
1968,5.00000,-8.18621,12.55655
1969,5.00000,-9.72498,12.28522
1970,5.00000,-11.26374,12.01390
1971,5.00000,-12.80250,11.74257
1972,5.00000,-0.46985,13.82899
1973,5.00000,-1.93812,13.29458
1974,5.00000,-3.40639,12.76018
1975,5.00000,-4.87466,12.22577
1976,5.00000,-6.34293,11.69136
1977,5.00000,-7.81119,11.15696
1978,5.00000,-9.27946,10.62255
1979,5.00000,-10.74773,10.08814
1980,5.00000,-12.21600,9.55374
1981,5.00000,-0.43301,13.75000
1982,5.00000,-1.78618,12.96875
1983,5.00000,-3.13934,12.18750
1984,5.00000,-4.49251,11.40625
1985,5.00000,-5.84567,10.62500
1986,5.00000,-7.19884,9.84375
1987,5.00000,-8.55200,9.06250
1988,5.00000,-9.90517,8.28125
1989,5.00000,-11.25833,7.50000
1990,5.00000,-0.38302,13.67861
1991,5.00000,-1.57997,12.67425
1992,5.00000,-2.77691,11.66989
1993,5.00000,-3.97386,10.66554
1994,5.00000,-5.17080,9.66118
1995,5.00000,-6.36774,8.65683
1996,5.00000,-7.56469,7.65247
1997,5.00000,-8.76163,6.64812
1998,5.00000,-9.95858,5.64376
1999,5.00000,-0.32139,13.61698
2000,5.00000,-1.32575,12.42003
2001,5.00000,-2.33011,11.22309
2002,5.00000,-3.33446,10.02614
2003,5.00000,-4.33882,8.82920
2004,5.00000,-5.34317,7.63226
2005,5.00000,-6.34753,6.43531
2006,5.00000,-7.35188,5.23837
2007,5.00000,-8.35624,4.04142
2008,5.00000,-0.25000,13.56699
2009,5.00000,-1.03125,12.21382
2010,5.00000,-1.81250,10.86066
2011,5.00000,-2.59375,9.50749
2012,5.00000,-3.37500,8.15433
2013,5.00000,-4.15625,6.80116
2014,5.00000,-4.93750,5.44800
2015,5.00000,-5.71875,4.09483
2016,5.00000,-6.50000,2.74167
2017,5.00000,-0.17101,13.53015
2018,5.00000,-0.70542,12.06188
2019,5.00000,-1.23982,10.59361
2020,5.00000,-1.77423,9.12534
2021,5.00000,-2.30864,7.65707
2022,5.00000,-2.84304,6.18881
2023,5.00000,-3.37745,4.72054
2024,5.00000,-3.91186,3.25227
2025,5.00000,-4.44626,1.78400
2026,5.00000,-0.08682,13.50760
2027,5.00000,-0.35815,11.96883
2028,5.00000,-0.62947,10.43007
2029,5.00000,-0.90080,8.89131
2030,5.00000,-1.17213,7.35255
2031,5.00000,-1.44345,5.81379
2032,5.00000,-1.71478,4.27502
2033,5.00000,-1.98610,2.73626
2034,5.00000,-2.25743,1.19750
2035,5.00000,-0.00000,13.50000
2036,5.00000,-0.00000,11.93750
2037,5.00000,-0.00000,10.37500
2038,5.00000,-0.00000,8.81250
2039,5.00000,-0.00000,7.25000
2040,5.00000,-0.00000,5.68750
2041,5.00000,-0.00000,4.12500
2042,5.00000,-0.00000,2.56250
2043,5.00000,-0.00000,1.00000
2044,5.00000,0.08682,13.50760
2045,5.00000,0.35815,11.96883
2046,5.00000,0.62947,10.43007
2047,5.00000,0.90080,8.89131
2048,5.00000,1.17213,7.35255
2049,5.00000,1.44345,5.81379
2050,5.00000,1.71478,4.27502
2051,5.00000,1.98610,2.73626
2052,5.00000,2.25743,1.19750
2053,5.00000,0.17101,13.53015
2054,5.00000,0.70542,12.06188
2055,5.00000,1.23982,10.59361
2056,5.00000,1.77423,9.12534
2057,5.00000,2.30864,7.65707
2058,5.00000,2.84304,6.18881
2059,5.00000,3.37745,4.72054
2060,5.00000,3.91186,3.25227
2061,5.00000,4.44626,1.78400
2062,5.00000,0.25000,13.56699
2063,5.00000,1.03125,12.21382
2064,5.00000,1.81250,10.86066
2065,5.00000,2.59375,9.50749
2066,5.00000,3.37500,8.15433
2067,5.00000,4.15625,6.80116
2068,5.00000,4.93750,5.44800
2069,5.00000,5.71875,4.09483
2070,5.00000,6.50000,2.74167
2071,5.00000,0.32139,13.61698
2072,5.00000,1.32575,12.42003
2073,5.00000,2.33011,11.22309
2074,5.00000,3.33446,10.02614
2075,5.00000,4.33882,8.82920
2076,5.00000,5.34317,7.63226
2077,5.00000,6.34753,6.43531
2078,5.00000,7.35188,5.23837
2079,5.00000,8.35624,4.04142
2080,5.00000,0.38302,13.67861
2081,5.00000,1.57997,12.67425
2082,5.00000,2.77691,11.66989
2083,5.00000,3.97386,10.66554
2084,5.00000,5.17080,9.66118
2085,5.00000,6.36774,8.65683
2086,5.00000,7.56469,7.65247
2087,5.00000,8.76163,6.64812
2088,5.00000,9.95858,5.64376
2089,5.00000,0.43301,13.75000
2090,5.00000,1.78618,12.96875
2091,5.00000,3.13934,12.18750
2092,5.00000,4.49251,11.40625
2093,5.00000,5.84567,10.62500
2094,5.00000,7.19884,9.84375
2095,5.00000,8.55200,9.06250
2096,5.00000,9.90517,8.28125
2097,5.00000,11.25833,7.50000
2098,5.00000,0.46985,13.82899
2099,5.00000,1.93812,13.29458
2100,5.00000,3.40639,12.76018
2101,5.00000,4.87466,12.22577
2102,5.00000,6.34293,11.69136
2103,5.00000,7.81119,11.15696
2104,5.00000,9.27946,10.62255
2105,5.00000,10.74773,10.08814
2106,5.00000,12.21600,9.55374
2107,5.00000,0.49240,13.91318
2108,5.00000,2.03117,13.64185
2109,5.00000,3.56993,13.37053
2110,5.00000,5.10869,13.09920
2111,5.00000,6.64745,12.82787
2112,5.00000,8.18621,12.55655
2113,5.00000,9.72498,12.28522
2114,5.00000,11.26374,12.01390
2115,5.00000,12.80250,11.74257
2116,5.00000,0.50000,14.00000
2117,5.00000,2.06250,14.00000
2118,5.00000,3.62500,14.00000
2119,5.00000,5.18750,14.00000
2120,5.00000,6.75000,14.00000
2121,5.00000,8.31250,14.00000
2122,5.00000,9.87500,14.00000
2123,5.00000,11.43750,14.00000
2124,5.00000,13.00000,14.00000
2125,10.00000,0.50000,14.00000
2126,10.00000,2.06250,14.00000
2127,10.00000,3.62500,14.00000
2128,10.00000,5.18750,14.00000
2129,10.00000,6.75000,14.00000
2130,10.00000,8.31250,14.00000
2131,10.00000,9.87500,14.00000
2132,10.00000,11.43750,14.00000
2133,10.00000,13.00000,14.00000
2134,10.00000,0.49240,14.08682
2135,10.00000,2.03117,14.35815
2136,10.00000,3.56993,14.62947
2137,10.00000,5.10869,14.90080
2138,10.00000,6.64745,15.17213
2139,10.00000,8.18621,15.44345
2140,10.00000,9.72498,15.71478
2141,10.00000,11.26374,15.98610
2142,10.00000,12.80250,16.25743
2143,10.00000,0.46985,14.17101
2144,10.00000,1.93812,14.70542
2145,10.00000,3.40639,15.23982
2146,10.00000,4.87466,15.77423
2147,10.00000,6.34293,16.30864
2148,10.00000,7.81119,16.84304
2149,10.00000,9.27946,17.37745
2150,10.00000,10.74773,17.91186
2151,10.00000,12.21600,18.44626
2152,10.00000,0.43301,14.25000
2153,10.00000,1.78618,15.03125
2154,10.00000,3.13934,15.81250
2155,10.00000,4.49251,16.59375
2156,10.00000,5.84567,17.37500
2157,10.00000,7.19884,18.15625
2158,10.00000,8.55200,18.93750
2159,10.00000,9.90517,19.71875
2160,10.00000,11.25833,20.50000
2161,10.00000,0.38302,14.32139
2162,10.00000,1.57997,15.32575
2163,10.00000,2.77691,16.33011
2164,10.00000,3.97386,17.33446
2165,10.00000,5.17080,18.33882
2166,10.00000,6.36774,19.34317
2167,10.00000,7.56469,20.34753
2168,10.00000,8.76163,21.35188
2169,10.00000,9.95858,22.35624
2170,10.00000,0.32139,14.38302
2171,10.00000,1.32575,15.57997
2172,10.00000,2.33011,16.77691
2173,10.00000,3.33446,17.97386
2174,10.00000,4.33882,19.17080
2175,10.00000,5.34317,20.36774
2176,10.00000,6.34753,21.56469
2177,10.00000,7.35188,22.76163
2178,10.00000,8.35624,23.95858
2179,10.00000,0.25000,14.43301
2180,10.00000,1.03125,15.78618
2181,10.00000,1.81250,17.13934
2182,10.00000,2.59375,18.49251
2183,10.00000,3.37500,19.84567
2184,10.00000,4.15625,21.19884
2185,10.00000,4.93750,22.55200
2186,10.00000,5.71875,23.90517
2187,10.00000,6.50000,25.25833
2188,10.00000,0.17101,14.46985
2189,10.00000,0.70542,15.93812
2190,10.00000,1.23982,17.40639
2191,10.00000,1.77423,18.87466
2192,10.00000,2.30864,20.34293
2193,10.00000,2.84304,21.81119
2194,10.00000,3.37745,23.27946
2195,10.00000,3.91186,24.74773
2196,10.00000,4.44626,26.21600
2197,10.00000,0.08682,14.49240
2198,10.00000,0.35815,16.03117
2199,10.00000,0.62947,17.56993
2200,10.00000,0.90080,19.10869
2201,10.00000,1.17213,20.64745
2202,10.00000,1.44345,22.18621
2203,10.00000,1.71478,23.72498
2204,10.00000,1.98610,25.26374
2205,10.00000,2.25743,26.80250
2206,10.00000,0.00000,14.50000
2207,10.00000,0.00000,16.06250
2208,10.00000,0.00000,17.62500
2209,10.00000,0.00000,19.18750
2210,10.00000,0.00000,20.75000
2211,10.00000,0.00000,22.31250
2212,10.00000,0.00000,23.87500
2213,10.00000,0.00000,25.43750
2214,10.00000,0.00000,27.00000
2215,10.00000,-0.08682,14.49240
2216,10.00000,-0.35815,16.03117
2217,10.00000,-0.62947,17.56993
2218,10.00000,-0.90080,19.10869
2219,10.00000,-1.17213,20.64745
2220,10.00000,-1.44345,22.18621
2221,10.00000,-1.71478,23.72498
2222,10.00000,-1.98610,25.26374
2223,10.00000,-2.25743,26.80250
2224,10.00000,-0.17101,14.46985
2225,10.00000,-0.70542,15.93812
2226,10.00000,-1.23982,17.40639
2227,10.00000,-1.77423,18.87466
2228,10.00000,-2.30864,20.34293
2229,10.00000,-2.84304,21.81119
2230,10.00000,-3.37745,23.27946
2231,10.00000,-3.91186,24.74773
2232,10.00000,-4.44626,26.21600
2233,10.00000,-0.25000,14.43301
2234,10.00000,-1.03125,15.78618
2235,10.00000,-1.81250,17.13934
2236,10.00000,-2.59375,18.49251
2237,10.00000,-3.37500,19.84567
2238,10.00000,-4.15625,21.19884
2239,10.00000,-4.93750,22.55200
2240,10.00000,-5.71875,23.90517
2241,10.00000,-6.50000,25.25833
2242,10.00000,-0.32139,14.38302
2243,10.00000,-1.32575,15.57997
2244,10.00000,-2.33011,16.77691
2245,10.00000,-3.33446,17.97386
2246,10.00000,-4.33882,19.17080
2247,10.00000,-5.34317,20.36774
2248,10.00000,-6.34753,21.56469
2249,10.00000,-7.35188,22.76163
2250,10.00000,-8.35624,23.95858
2251,10.00000,-0.38302,14.32139
2252,10.00000,-1.57997,15.32575
2253,10.00000,-2.77691,16.33011
2254,10.00000,-3.97386,17.33446
2255,10.00000,-5.17080,18.33882
2256,10.00000,-6.36774,19.34317
2257,10.00000,-7.56469,20.34753
2258,10.00000,-8.76163,21.35188
2259,10.00000,-9.95858,22.35624
2260,10.00000,-0.43301,14.25000
2261,10.00000,-1.78618,15.03125
2262,10.00000,-3.13934,15.81250
2263,10.00000,-4.49251,16.59375
2264,10.00000,-5.84567,17.37500
2265,10.00000,-7.19884,18.15625
2266,10.00000,-8.55200,18.93750
2267,10.00000,-9.90517,19.71875
2268,10.00000,-11.25833,20.50000
2269,10.00000,-0.46985,14.17101
2270,10.00000,-1.93812,14.70542
2271,10.00000,-3.40639,15.23982
2272,10.00000,-4.87466,15.77423
2273,10.00000,-6.34293,16.30864
2274,10.00000,-7.81119,16.84304
2275,10.00000,-9.27946,17.37745
2276,10.00000,-10.74773,17.91186
2277,10.00000,-12.21600,18.44626
2278,10.00000,-0.49240,14.08682
2279,10.00000,-2.03117,14.35815
2280,10.00000,-3.56993,14.62947
2281,10.00000,-5.10869,14.90080
2282,10.00000,-6.64745,15.17213
2283,10.00000,-8.18621,15.44345
2284,10.00000,-9.72498,15.71478
2285,10.00000,-11.26374,15.98610
2286,10.00000,-12.80250,16.25743
2287,10.00000,-0.50000,14.00000
2288,10.00000,-2.06250,14.00000
2289,10.00000,-3.62500,14.00000
2290,10.00000,-5.18750,14.00000
2291,10.00000,-6.75000,14.00000
2292,10.00000,-8.31250,14.00000
2293,10.00000,-9.87500,14.00000
2294,10.00000,-11.43750,14.00000
2295,10.00000,-13.00000,14.00000
2296,10.00000,-0.49240,13.91318
2297,10.00000,-2.03117,13.64185
2298,10.00000,-3.56993,13.37053
2299,10.00000,-5.10869,13.09920
2300,10.00000,-6.64745,12.82787
2301,10.00000,-8.18621,12.55655
2302,10.00000,-9.72498,12.28522
2303,10.00000,-11.26374,12.01390
2304,10.00000,-12.80250,11.74257
2305,10.00000,-0.46985,13.82899
2306,10.00000,-1.93812,13.29458
2307,10.00000,-3.40639,12.76018
2308,10.00000,-4.87466,12.22577
2309,10.00000,-6.34293,11.69136
2310,10.00000,-7.81119,11.15696
2311,10.00000,-9.27946,10.62255
2312,10.00000,-10.74773,10.08814
2313,10.00000,-12.21600,9.55374
2314,10.00000,-0.43301,13.75000
2315,10.00000,-1.78618,12.96875
2316,10.00000,-3.13934,12.18750
2317,10.00000,-4.49251,11.40625
2318,10.00000,-5.84567,10.62500
2319,10.00000,-7.19884,9.84375
2320,10.00000,-8.55200,9.06250
2321,10.00000,-9.90517,8.28125
2322,10.00000,-11.25833,7.50000
2323,10.00000,-0.38302,13.67861
2324,10.00000,-1.57997,12.67425
2325,10.00000,-2.77691,11.66989
2326,10.00000,-3.97386,10.66554
2327,10.00000,-5.17080,9.66118
2328,10.00000,-6.36774,8.65683
2329,10.00000,-7.56469,7.65247
2330,10.00000,-8.76163,6.64812
2331,10.00000,-9.95858,5.64376
2332,10.00000,-0.32139,13.61698
2333,10.00000,-1.32575,12.42003
2334,10.00000,-2.33011,11.22309
2335,10.00000,-3.33446,10.02614
2336,10.00000,-4.33882,8.82920
2337,10.00000,-5.34317,7.63226
2338,10.00000,-6.34753,6.43531
2339,10.00000,-7.35188,5.23837
2340,10.00000,-8.35624,4.04142
2341,10.00000,-0.25000,13.56699
2342,10.00000,-1.03125,12.21382
2343,10.00000,-1.81250,10.86066
2344,10.00000,-2.59375,9.50749
2345,10.00000,-3.37500,8.15433
2346,10.00000,-4.15625,6.80116
2347,10.00000,-4.93750,5.44800
2348,10.00000,-5.71875,4.09483
2349,10.00000,-6.50000,2.74167
2350,10.00000,-0.17101,13.53015
2351,10.00000,-0.70542,12.06188
2352,10.00000,-1.23982,10.59361
2353,10.00000,-1.77423,9.12534
2354,10.00000,-2.30864,7.65707
2355,10.00000,-2.84304,6.18881
2356,10.00000,-3.37745,4.72054
2357,10.00000,-3.91186,3.25227
2358,10.00000,-4.44626,1.78400
2359,10.00000,-0.08682,13.50760
2360,10.00000,-0.35815,11.96883
2361,10.00000,-0.62947,10.43007
2362,10.00000,-0.90080,8.89131
2363,10.00000,-1.17213,7.35255
2364,10.00000,-1.44345,5.81379
2365,10.00000,-1.71478,4.27502
2366,10.00000,-1.98610,2.73626
2367,10.00000,-2.25743,1.19750
2368,10.00000,-0.00000,13.50000
2369,10.00000,-0.00000,11.93750
2370,10.00000,-0.00000,10.37500
2371,10.00000,-0.00000,8.81250
2372,10.00000,-0.00000,7.25000
2373,10.00000,-0.00000,5.68750
2374,10.00000,-0.00000,4.12500
2375,10.00000,-0.00000,2.56250
2376,10.00000,-0.00000,1.00000
2377,10.00000,0.08682,13.50760
2378,10.00000,0.35815,11.96883
2379,10.00000,0.62947,10.43007
2380,10.00000,0.90080,8.89131
2381,10.00000,1.17213,7.35255
2382,10.00000,1.44345,5.81379
2383,10.00000,1.71478,4.27502
2384,10.00000,1.98610,2.73626
2385,10.00000,2.25743,1.19750
2386,10.00000,0.17101,13.53015
2387,10.00000,0.70542,12.06188
2388,10.00000,1.23982,10.59361
2389,10.00000,1.77423,9.12534
2390,10.00000,2.30864,7.65707
2391,10.00000,2.84304,6.18881
2392,10.00000,3.37745,4.72054
2393,10.00000,3.91186,3.25227
2394,10.00000,4.44626,1.78400
2395,10.00000,0.25000,13.56699
2396,10.00000,1.03125,12.21382
2397,10.00000,1.81250,10.86066
2398,10.00000,2.59375,9.50749
2399,10.00000,3.37500,8.15433
2400,10.00000,4.15625,6.80116
2401,10.00000,4.93750,5.44800
2402,10.00000,5.71875,4.09483
2403,10.00000,6.50000,2.74167
2404,10.00000,0.32139,13.61698
2405,10.00000,1.32575,12.42003
2406,10.00000,2.33011,11.22309
2407,10.00000,3.33446,10.02614
2408,10.00000,4.33882,8.82920
2409,10.00000,5.34317,7.63226
2410,10.00000,6.34753,6.43531
2411,10.00000,7.35188,5.23837
2412,10.00000,8.35624,4.04142
2413,10.00000,0.38302,13.67861
2414,10.00000,1.57997,12.67425
2415,10.00000,2.77691,11.66989
2416,10.00000,3.97386,10.66554
2417,10.00000,5.17080,9.66118
2418,10.00000,6.36774,8.65683
2419,10.00000,7.56469,7.65247
2420,10.00000,8.76163,6.64812
2421,10.00000,9.95858,5.64376
2422,10.00000,0.43301,13.75000
2423,10.00000,1.78618,12.96875
2424,10.00000,3.13934,12.18750
2425,10.00000,4.49251,11.40625
2426,10.00000,5.84567,10.62500
2427,10.00000,7.19884,9.84375
2428,10.00000,8.55200,9.06250
2429,10.00000,9.90517,8.28125
2430,10.00000,11.25833,7.50000
2431,10.00000,0.46985,13.82899
2432,10.00000,1.93812,13.29458
2433,10.00000,3.40639,12.76018
2434,10.00000,4.87466,12.22577
2435,10.00000,6.34293,11.69136
2436,10.00000,7.81119,11.15696
2437,10.00000,9.27946,10.62255
2438,10.00000,10.74773,10.08814
2439,10.00000,12.21600,9.55374
2440,10.00000,0.49240,13.91318
2441,10.00000,2.03117,13.64185
2442,10.00000,3.56993,13.37053
2443,10.00000,5.10869,13.09920
2444,10.00000,6.64745,12.82787
2445,10.00000,8.18621,12.55655
2446,10.00000,9.72498,12.28522
2447,10.00000,11.26374,12.01390
2448,10.00000,12.80250,11.74257
2449,10.00000,0.50000,14.00000
2450,10.00000,2.06250,14.00000
2451,10.00000,3.62500,14.00000
2452,10.00000,5.18750,14.00000
2453,10.00000,6.75000,14.00000
2454,10.00000,8.31250,14.00000
2455,10.00000,9.87500,14.00000
2456,10.00000,11.43750,14.00000
2457,10.00000,13.00000,14.00000
2458,15.00000,0.50000,14.00000
2459,15.00000,2.06250,14.00000
2460,15.00000,3.62500,14.00000
2461,15.00000,5.18750,14.00000
2462,15.00000,6.75000,14.00000
2463,15.00000,8.31250,14.00000
2464,15.00000,9.87500,14.00000
2465,15.00000,11.43750,14.00000
2466,15.00000,13.00000,14.00000
2467,15.00000,0.49240,14.08682
2468,15.00000,2.03117,14.35815
2469,15.00000,3.56993,14.62947
2470,15.00000,5.10869,14.90080
2471,15.00000,6.64745,15.17213
2472,15.00000,8.18621,15.44345
2473,15.00000,9.72498,15.71478
2474,15.00000,11.26374,15.98610
2475,15.00000,12.80250,16.25743
2476,15.00000,0.46985,14.17101
2477,15.00000,1.93812,14.70542
2478,15.00000,3.40639,15.23982
2479,15.00000,4.87466,15.77423
2480,15.00000,6.34293,16.30864
2481,15.00000,7.81119,16.84304
2482,15.00000,9.27946,17.37745
2483,15.00000,10.74773,17.91186
2484,15.00000,12.21600,18.44626
2485,15.00000,0.43301,14.25000
2486,15.00000,1.78618,15.03125
2487,15.00000,3.13934,15.81250
2488,15.00000,4.49251,16.59375
2489,15.00000,5.84567,17.37500
2490,15.00000,7.19884,18.15625
2491,15.00000,8.55200,18.93750
2492,15.00000,9.90517,19.71875
2493,15.00000,11.25833,20.50000
2494,15.00000,0.38302,14.32139
2495,15.00000,1.57997,15.32575
2496,15.00000,2.77691,16.33011
2497,15.00000,3.97386,17.33446
2498,15.00000,5.17080,18.33882
2499,15.00000,6.36774,19.34317
2500,15.00000,7.56469,20.34753
2501,15.00000,8.76163,21.35188
2502,15.00000,9.95858,22.35624
2503,15.00000,0.32139,14.38302
2504,15.00000,1.32575,15.57997
2505,15.00000,2.33011,16.77691
2506,15.00000,3.33446,17.97386
2507,15.00000,4.33882,19.17080
2508,15.00000,5.34317,20.36774
2509,15.00000,6.34753,21.56469
2510,15.00000,7.35188,22.76163
2511,15.00000,8.35624,23.95858
2512,15.00000,0.25000,14.43301
2513,15.00000,1.03125,15.78618
2514,15.00000,1.81250,17.13934
2515,15.00000,2.59375,18.49251
2516,15.00000,3.37500,19.84567
2517,15.00000,4.15625,21.19884
2518,15.00000,4.93750,22.55200
2519,15.00000,5.71875,23.90517
2520,15.00000,6.50000,25.25833
2521,15.00000,0.17101,14.46985
2522,15.00000,0.70542,15.93812
2523,15.00000,1.23982,17.40639
2524,15.00000,1.77423,18.87466
2525,15.00000,2.30864,20.34293
2526,15.00000,2.84304,21.81119
2527,15.00000,3.37745,23.27946
2528,15.00000,3.91186,24.74773
2529,15.00000,4.44626,26.21600
2530,15.00000,0.08682,14.49240
2531,15.00000,0.35815,16.03117
2532,15.00000,0.62947,17.56993
2533,15.00000,0.90080,19.10869
2534,15.00000,1.17213,20.64745
2535,15.00000,1.44345,22.18621
2536,15.00000,1.71478,23.72498
2537,15.00000,1.98610,25.26374
2538,15.00000,2.25743,26.80250
2539,15.00000,0.00000,14.50000
2540,15.00000,0.00000,16.06250
2541,15.00000,0.00000,17.62500
2542,15.00000,0.00000,19.18750
2543,15.00000,0.00000,20.75000
2544,15.00000,0.00000,22.31250
2545,15.00000,0.00000,23.87500
2546,15.00000,0.00000,25.43750
2547,15.00000,0.00000,27.00000
2548,15.00000,-0.08682,14.49240
2549,15.00000,-0.35815,16.03117
2550,15.00000,-0.62947,17.56993
2551,15.00000,-0.90080,19.10869
2552,15.00000,-1.17213,20.64745
2553,15.00000,-1.44345,22.18621
2554,15.00000,-1.71478,23.72498
2555,15.00000,-1.98610,25.26374
2556,15.00000,-2.25743,26.80250
2557,15.00000,-0.17101,14.46985
2558,15.00000,-0.70542,15.93812
2559,15.00000,-1.23982,17.40639
2560,15.00000,-1.77423,18.87466
2561,15.00000,-2.30864,20.34293
2562,15.00000,-2.84304,21.81119
2563,15.00000,-3.37745,23.27946
2564,15.00000,-3.91186,24.74773
2565,15.00000,-4.44626,26.21600
2566,15.00000,-0.25000,14.43301
2567,15.00000,-1.03125,15.78618
2568,15.00000,-1.81250,17.13934
2569,15.00000,-2.59375,18.49251
2570,15.00000,-3.37500,19.84567
2571,15.00000,-4.15625,21.19884
2572,15.00000,-4.93750,22.55200
2573,15.00000,-5.71875,23.90517
2574,15.00000,-6.50000,25.25833
2575,15.00000,-0.32139,14.38302
2576,15.00000,-1.32575,15.57997
2577,15.00000,-2.33011,16.77691
2578,15.00000,-3.33446,17.97386
2579,15.00000,-4.33882,19.17080
2580,15.00000,-5.34317,20.36774
2581,15.00000,-6.34753,21.56469
2582,15.00000,-7.35188,22.76163
2583,15.00000,-8.35624,23.95858
2584,15.00000,-0.38302,14.32139
2585,15.00000,-1.57997,15.32575
2586,15.00000,-2.77691,16.33011
2587,15.00000,-3.97386,17.33446
2588,15.00000,-5.17080,18.33882
2589,15.00000,-6.36774,19.34317
2590,15.00000,-7.56469,20.34753
2591,15.00000,-8.76163,21.35188
2592,15.00000,-9.95858,22.35624
2593,15.00000,-0.43301,14.25000
2594,15.00000,-1.78618,15.03125
2595,15.00000,-3.13934,15.81250
2596,15.00000,-4.49251,16.59375
2597,15.00000,-5.84567,17.37500
2598,15.00000,-7.19884,18.15625
2599,15.00000,-8.55200,18.93750
2600,15.00000,-9.90517,19.71875
2601,15.00000,-11.25833,20.50000
2602,15.00000,-0.46985,14.17101
2603,15.00000,-1.93812,14.70542
2604,15.00000,-3.40639,15.23982
2605,15.00000,-4.87466,15.77423
2606,15.00000,-6.34293,16.30864
2607,15.00000,-7.81119,16.84304
2608,15.00000,-9.27946,17.37745
2609,15.00000,-10.74773,17.91186
2610,15.00000,-12.21600,18.44626
2611,15.00000,-0.49240,14.08682
2612,15.00000,-2.03117,14.35815
2613,15.00000,-3.56993,14.62947
2614,15.00000,-5.10869,14.90080
2615,15.00000,-6.64745,15.17213
2616,15.00000,-8.18621,15.44345
2617,15.00000,-9.72498,15.71478
2618,15.00000,-11.26374,15.98610
2619,15.00000,-12.80250,16.25743
2620,15.00000,-0.50000,14.00000
2621,15.00000,-2.06250,14.00000
2622,15.00000,-3.62500,14.00000
2623,15.00000,-5.18750,14.00000
2624,15.00000,-6.75000,14.00000
2625,15.00000,-8.31250,14.00000
2626,15.00000,-9.87500,14.00000
2627,15.00000,-11.43750,14.00000
2628,15.00000,-13.00000,14.00000
2629,15.00000,-0.49240,13.91318
2630,15.00000,-2.03117,13.64185
2631,15.00000,-3.56993,13.37053
2632,15.00000,-5.10869,13.09920
2633,15.00000,-6.64745,12.82787
2634,15.00000,-8.18621,12.55655
2635,15.00000,-9.72498,12.28522
2636,15.00000,-11.26374,12.01390
2637,15.00000,-12.80250,11.74257
2638,15.00000,-0.46985,13.82899
2639,15.00000,-1.93812,13.29458
2640,15.00000,-3.40639,12.76018
2641,15.00000,-4.87466,12.22577
2642,15.00000,-6.34293,11.69136
2643,15.00000,-7.81119,11.15696
2644,15.00000,-9.27946,10.62255
2645,15.00000,-10.74773,10.08814
2646,15.00000,-12.21600,9.55374
2647,15.00000,-0.43301,13.75000
2648,15.00000,-1.78618,12.96875
2649,15.00000,-3.13934,12.18750
2650,15.00000,-4.49251,11.40625
2651,15.00000,-5.84567,10.62500
2652,15.00000,-7.19884,9.84375
2653,15.00000,-8.55200,9.06250
2654,15.00000,-9.90517,8.28125
2655,15.00000,-11.25833,7.50000
2656,15.00000,-0.38302,13.67861
2657,15.00000,-1.57997,12.67425
2658,15.00000,-2.77691,11.66989
2659,15.00000,-3.97386,10.66554
2660,15.00000,-5.17080,9.66118
2661,15.00000,-6.36774,8.65683
2662,15.00000,-7.56469,7.65247
2663,15.00000,-8.76163,6.64812
2664,15.00000,-9.95858,5.64376
2665,15.00000,-0.32139,13.61698
2666,15.00000,-1.32575,12.42003
2667,15.00000,-2.33011,11.22309
2668,15.00000,-3.33446,10.02614
2669,15.00000,-4.33882,8.82920
2670,15.00000,-5.34317,7.63226
2671,15.00000,-6.34753,6.43531
2672,15.00000,-7.35188,5.23837
2673,15.00000,-8.35624,4.04142
2674,15.00000,-0.25000,13.56699
2675,15.00000,-1.03125,12.21382
2676,15.00000,-1.81250,10.86066
2677,15.00000,-2.59375,9.50749
2678,15.00000,-3.37500,8.15433
2679,15.00000,-4.15625,6.80116
2680,15.00000,-4.93750,5.44800
2681,15.00000,-5.71875,4.09483
2682,15.00000,-6.50000,2.74167
2683,15.00000,-0.17101,13.53015
2684,15.00000,-0.70542,12.06188
2685,15.00000,-1.23982,10.59361
2686,15.00000,-1.77423,9.12534
2687,15.00000,-2.30864,7.65707
2688,15.00000,-2.84304,6.18881
2689,15.00000,-3.37745,4.72054
2690,15.00000,-3.91186,3.25227
2691,15.00000,-4.44626,1.78400
2692,15.00000,-0.08682,13.50760
2693,15.00000,-0.35815,11.96883
2694,15.00000,-0.62947,10.43007
2695,15.00000,-0.90080,8.89131
2696,15.00000,-1.17213,7.35255
2697,15.00000,-1.44345,5.81379
2698,15.00000,-1.71478,4.27502
2699,15.00000,-1.98610,2.73626
2700,15.00000,-2.25743,1.19750
2701,15.00000,-0.00000,13.50000
2702,15.00000,-0.00000,11.93750
2703,15.00000,-0.00000,10.37500
2704,15.00000,-0.00000,8.81250
2705,15.00000,-0.00000,7.25000
2706,15.00000,-0.00000,5.68750
2707,15.00000,-0.00000,4.12500
2708,15.00000,-0.00000,2.56250
2709,15.00000,-0.00000,1.00000
2710,15.00000,0.08682,13.50760
2711,15.00000,0.35815,11.96883
2712,15.00000,0.62947,10.43007
2713,15.00000,0.90080,8.89131
2714,15.00000,1.17213,7.35255
2715,15.00000,1.44345,5.81379
2716,15.00000,1.71478,4.27502
2717,15.00000,1.98610,2.73626
2718,15.00000,2.25743,1.19750
2719,15.00000,0.17101,13.53015
2720,15.00000,0.70542,12.06188
2721,15.00000,1.23982,10.59361
2722,15.00000,1.77423,9.12534
2723,15.00000,2.30864,7.65707
2724,15.00000,2.84304,6.18881
2725,15.00000,3.37745,4.72054
2726,15.00000,3.91186,3.25227
2727,15.00000,4.44626,1.78400
2728,15.00000,0.25000,13.56699
2729,15.00000,1.03125,12.21382
2730,15.00000,1.81250,10.86066
2731,15.00000,2.59375,9.50749
2732,15.00000,3.37500,8.15433
2733,15.00000,4.15625,6.80116
2734,15.00000,4.93750,5.44800
2735,15.00000,5.71875,4.09483
2736,15.00000,6.50000,2.74167
2737,15.00000,0.32139,13.61698
2738,15.00000,1.32575,12.42003
2739,15.00000,2.33011,11.22309
2740,15.00000,3.33446,10.02614
2741,15.00000,4.33882,8.82920
2742,15.00000,5.34317,7.63226
2743,15.00000,6.34753,6.43531
2744,15.00000,7.35188,5.23837
2745,15.00000,8.35624,4.04142
2746,15.00000,0.38302,13.67861
2747,15.00000,1.57997,12.67425
2748,15.00000,2.77691,11.66989
2749,15.00000,3.97386,10.66554
2750,15.00000,5.17080,9.66118
2751,15.00000,6.36774,8.65683
2752,15.00000,7.56469,7.65247
2753,15.00000,8.76163,6.64812
2754,15.00000,9.95858,5.64376
2755,15.00000,0.43301,13.75000
2756,15.00000,1.78618,12.96875
2757,15.00000,3.13934,12.18750
2758,15.00000,4.49251,11.40625
2759,15.00000,5.84567,10.62500
2760,15.00000,7.19884,9.84375
2761,15.00000,8.55200,9.06250
2762,15.00000,9.90517,8.28125
2763,15.00000,11.25833,7.50000
2764,15.00000,0.46985,13.82899
2765,15.00000,1.93812,13.29458
2766,15.00000,3.40639,12.76018
2767,15.00000,4.87466,12.22577
2768,15.00000,6.34293,11.69136
2769,15.00000,7.81119,11.15696
2770,15.00000,9.27946,10.62255
2771,15.00000,10.74773,10.08814
2772,15.00000,12.21600,9.55374
2773,15.00000,0.49240,13.91318
2774,15.00000,2.03117,13.64185
2775,15.00000,3.56993,13.37053
2776,15.00000,5.10869,13.09920
2777,15.00000,6.64745,12.82787
2778,15.00000,8.18621,12.55655
2779,15.00000,9.72498,12.28522
2780,15.00000,11.26374,12.01390
2781,15.00000,12.80250,11.74257
2782,15.00000,0.50000,14.00000
2783,15.00000,2.06250,14.00000
2784,15.00000,3.62500,14.00000
2785,15.00000,5.18750,14.00000
2786,15.00000,6.75000,14.00000
2787,15.00000,8.31250,14.00000
2788,15.00000,9.87500,14.00000
2789,15.00000,11.43750,14.00000
2790,15.00000,13.00000,14.00000
2791,20.00000,0.50000,14.00000
2792,20.00000,2.06250,14.00000
2793,20.00000,3.62500,14.00000
2794,20.00000,5.18750,14.00000
2795,20.00000,6.75000,14.00000
2796,20.00000,8.31250,14.00000
2797,20.00000,9.87500,14.00000
2798,20.00000,11.43750,14.00000
2799,20.00000,13.00000,14.00000
2800,20.00000,0.49240,14.08682
2801,20.00000,2.03117,14.35815
2802,20.00000,3.56993,14.62947
2803,20.00000,5.10869,14.90080
2804,20.00000,6.64745,15.17213
2805,20.00000,8.18621,15.44345
2806,20.00000,9.72498,15.71478
2807,20.00000,11.26374,15.98610
2808,20.00000,12.80250,16.25743
2809,20.00000,0.46985,14.17101
2810,20.00000,1.93812,14.70542
2811,20.00000,3.40639,15.23982
2812,20.00000,4.87466,15.77423
2813,20.00000,6.34293,16.30864
2814,20.00000,7.81119,16.84304
2815,20.00000,9.27946,17.37745
2816,20.00000,10.74773,17.91186
2817,20.00000,12.21600,18.44626
2818,20.00000,0.43301,14.25000
2819,20.00000,1.78618,15.03125
2820,20.00000,3.13934,15.81250
2821,20.00000,4.49251,16.59375
2822,20.00000,5.84567,17.37500
2823,20.00000,7.19884,18.15625
2824,20.00000,8.55200,18.93750
2825,20.00000,9.90517,19.71875
2826,20.00000,11.25833,20.50000
2827,20.00000,0.38302,14.32139
2828,20.00000,1.57997,15.32575
2829,20.00000,2.77691,16.33011
2830,20.00000,3.97386,17.33446
2831,20.00000,5.17080,18.33882
2832,20.00000,6.36774,19.34317
2833,20.00000,7.56469,20.34753
2834,20.00000,8.76163,21.35188
2835,20.00000,9.95858,22.35624
2836,20.00000,0.32139,14.38302
2837,20.00000,1.32575,15.57997
2838,20.00000,2.33011,16.77691
2839,20.00000,3.33446,17.97386
2840,20.00000,4.33882,19.17080
2841,20.00000,5.34317,20.36774
2842,20.00000,6.34753,21.56469
2843,20.00000,7.35188,22.76163
2844,20.00000,8.35624,23.95858
2845,20.00000,0.25000,14.43301
2846,20.00000,1.03125,15.78618
2847,20.00000,1.81250,17.13934
2848,20.00000,2.59375,18.49251
2849,20.00000,3.37500,19.84567
2850,20.00000,4.15625,21.19884
2851,20.00000,4.93750,22.55200
2852,20.00000,5.71875,23.90517
2853,20.00000,6.50000,25.25833
2854,20.00000,0.17101,14.46985
2855,20.00000,0.70542,15.93812
2856,20.00000,1.23982,17.40639
2857,20.00000,1.77423,18.87466
2858,20.00000,2.30864,20.34293
2859,20.00000,2.84304,21.81119
2860,20.00000,3.37745,23.27946
2861,20.00000,3.91186,24.74773
2862,20.00000,4.44626,26.21600
2863,20.00000,0.08682,14.49240
2864,20.00000,0.35815,16.03117
2865,20.00000,0.62947,17.56993
2866,20.00000,0.90080,19.10869
2867,20.00000,1.17213,20.64745
2868,20.00000,1.44345,22.18621
2869,20.00000,1.71478,23.72498
2870,20.00000,1.98610,25.26374
2871,20.00000,2.25743,26.80250
2872,20.00000,0.00000,14.50000
2873,20.00000,0.00000,16.06250
2874,20.00000,0.00000,17.62500
2875,20.00000,0.00000,19.18750
2876,20.00000,0.00000,20.75000
2877,20.00000,0.00000,22.31250
2878,20.00000,0.00000,23.87500
2879,20.00000,0.00000,25.43750
2880,20.00000,0.00000,27.00000
2881,20.00000,-0.08682,14.49240
2882,20.00000,-0.35815,16.03117
2883,20.00000,-0.62947,17.56993
2884,20.00000,-0.90080,19.10869
2885,20.00000,-1.17213,20.64745
2886,20.00000,-1.44345,22.18621
2887,20.00000,-1.71478,23.72498
2888,20.00000,-1.98610,25.26374
2889,20.00000,-2.25743,26.80250
2890,20.00000,-0.17101,14.46985
2891,20.00000,-0.70542,15.93812
2892,20.00000,-1.23982,17.40639
2893,20.00000,-1.77423,18.87466
2894,20.00000,-2.30864,20.34293
2895,20.00000,-2.84304,21.81119
2896,20.00000,-3.37745,23.27946
2897,20.00000,-3.91186,24.74773
2898,20.00000,-4.44626,26.21600
2899,20.00000,-0.25000,14.43301
2900,20.00000,-1.03125,15.78618
2901,20.00000,-1.81250,17.13934
2902,20.00000,-2.59375,18.49251
2903,20.00000,-3.37500,19.84567
2904,20.00000,-4.15625,21.19884
2905,20.00000,-4.93750,22.55200
2906,20.00000,-5.71875,23.90517
2907,20.00000,-6.50000,25.25833
2908,20.00000,-0.32139,14.38302
2909,20.00000,-1.32575,15.57997
2910,20.00000,-2.33011,16.77691
2911,20.00000,-3.33446,17.97386
2912,20.00000,-4.33882,19.17080
2913,20.00000,-5.34317,20.36774
2914,20.00000,-6.34753,21.56469
2915,20.00000,-7.35188,22.76163
2916,20.00000,-8.35624,23.95858
2917,20.00000,-0.38302,14.32139
2918,20.00000,-1.57997,15.32575
2919,20.00000,-2.77691,16.33011
2920,20.00000,-3.97386,17.33446
2921,20.00000,-5.17080,18.33882
2922,20.00000,-6.36774,19.34317
2923,20.00000,-7.56469,20.34753
2924,20.00000,-8.76163,21.35188
2925,20.00000,-9.95858,22.35624
2926,20.00000,-0.43301,14.25000
2927,20.00000,-1.78618,15.03125
2928,20.00000,-3.13934,15.81250
2929,20.00000,-4.49251,16.59375
2930,20.00000,-5.84567,17.37500
2931,20.00000,-7.19884,18.15625
2932,20.00000,-8.55200,18.93750
2933,20.00000,-9.90517,19.71875
2934,20.00000,-11.25833,20.50000
2935,20.00000,-0.46985,14.17101
2936,20.00000,-1.93812,14.70542
2937,20.00000,-3.40639,15.23982
2938,20.00000,-4.87466,15.77423
2939,20.00000,-6.34293,16.30864
2940,20.00000,-7.81119,16.84304
2941,20.00000,-9.27946,17.37745
2942,20.00000,-10.74773,17.91186
2943,20.00000,-12.21600,18.44626
2944,20.00000,-0.49240,14.08682
2945,20.00000,-2.03117,14.35815
2946,20.00000,-3.56993,14.62947
2947,20.00000,-5.10869,14.90080
2948,20.00000,-6.64745,15.17213
2949,20.00000,-8.18621,15.44345
2950,20.00000,-9.72498,15.71478
2951,20.00000,-11.26374,15.98610
2952,20.00000,-12.80250,16.25743
2953,20.00000,-0.50000,14.00000
2954,20.00000,-2.06250,14.00000
2955,20.00000,-3.62500,14.00000
2956,20.00000,-5.18750,14.00000
2957,20.00000,-6.75000,14.00000
2958,20.00000,-8.31250,14.00000
2959,20.00000,-9.87500,14.00000
2960,20.00000,-11.43750,14.00000
2961,20.00000,-13.00000,14.00000
2962,20.00000,-0.49240,13.91318
2963,20.00000,-2.03117,13.64185
2964,20.00000,-3.56993,13.37053
2965,20.00000,-5.10869,13.09920
2966,20.00000,-6.64745,12.82787
2967,20.00000,-8.18621,12.55655
2968,20.00000,-9.72498,12.28522
2969,20.00000,-11.26374,12.01390
2970,20.00000,-12.80250,11.74257
2971,20.00000,-0.46985,13.82899
2972,20.00000,-1.93812,13.29458
2973,20.00000,-3.40639,12.76018
2974,20.00000,-4.87466,12.22577
2975,20.00000,-6.34293,11.69136
2976,20.00000,-7.81119,11.15696
2977,20.00000,-9.27946,10.62255
2978,20.00000,-10.74773,10.08814
2979,20.00000,-12.21600,9.55374
2980,20.00000,-0.43301,13.75000
2981,20.00000,-1.78618,12.96875
2982,20.00000,-3.13934,12.18750
2983,20.00000,-4.49251,11.40625
2984,20.00000,-5.84567,10.62500
2985,20.00000,-7.19884,9.84375
2986,20.00000,-8.55200,9.06250
2987,20.00000,-9.90517,8.28125
2988,20.00000,-11.25833,7.50000
2989,20.00000,-0.38302,13.67861
2990,20.00000,-1.57997,12.67425
2991,20.00000,-2.77691,11.66989
2992,20.00000,-3.97386,10.66554
2993,20.00000,-5.17080,9.66118
2994,20.00000,-6.36774,8.65683
2995,20.00000,-7.56469,7.65247
2996,20.00000,-8.76163,6.64812
2997,20.00000,-9.95858,5.64376
2998,20.00000,-0.32139,13.61698
2999,20.00000,-1.32575,12.42003
3000,20.00000,-2.33011,11.22309
3001,20.00000,-3.33446,10.02614
3002,20.00000,-4.33882,8.82920
3003,20.00000,-5.34317,7.63226
3004,20.00000,-6.34753,6.43531
3005,20.00000,-7.35188,5.23837
3006,20.00000,-8.35624,4.04142
3007,20.00000,-0.25000,13.56699
3008,20.00000,-1.03125,12.21382
3009,20.00000,-1.81250,10.86066
3010,20.00000,-2.59375,9.50749
3011,20.00000,-3.37500,8.15433
3012,20.00000,-4.15625,6.80116
3013,20.00000,-4.93750,5.44800
3014,20.00000,-5.71875,4.09483
3015,20.00000,-6.50000,2.74167
3016,20.00000,-0.17101,13.53015
3017,20.00000,-0.70542,12.06188
3018,20.00000,-1.23982,10.59361
3019,20.00000,-1.77423,9.12534
3020,20.00000,-2.30864,7.65707
3021,20.00000,-2.84304,6.18881
3022,20.00000,-3.37745,4.72054
3023,20.00000,-3.91186,3.25227
3024,20.00000,-4.44626,1.78400
3025,20.00000,-0.08682,13.50760
3026,20.00000,-0.35815,11.96883
3027,20.00000,-0.62947,10.43007
3028,20.00000,-0.90080,8.89131
3029,20.00000,-1.17213,7.35255
3030,20.00000,-1.44345,5.81379
3031,20.00000,-1.71478,4.27502
3032,20.00000,-1.98610,2.73626
3033,20.00000,-2.25743,1.19750
3034,20.00000,-0.00000,13.50000
3035,20.00000,-0.00000,11.93750
3036,20.00000,-0.00000,10.37500
3037,20.00000,-0.00000,8.81250
3038,20.00000,-0.00000,7.25000
3039,20.00000,-0.00000,5.68750
3040,20.00000,-0.00000,4.12500
3041,20.00000,-0.00000,2.56250
3042,20.00000,-0.00000,1.00000
3043,20.00000,0.08682,13.50760
3044,20.00000,0.35815,11.96883
3045,20.00000,0.62947,10.43007
3046,20.00000,0.90080,8.89131
3047,20.00000,1.17213,7.35255
3048,20.00000,1.44345,5.81379
3049,20.00000,1.71478,4.27502
3050,20.00000,1.98610,2.73626
3051,20.00000,2.25743,1.19750
3052,20.00000,0.17101,13.53015
3053,20.00000,0.70542,12.06188
3054,20.00000,1.23982,10.59361
3055,20.00000,1.77423,9.12534
3056,20.00000,2.30864,7.65707
3057,20.00000,2.84304,6.18881
3058,20.00000,3.37745,4.72054
3059,20.00000,3.91186,3.25227
3060,20.00000,4.44626,1.78400
3061,20.00000,0.25000,13.56699
3062,20.00000,1.03125,12.21382
3063,20.00000,1.81250,10.86066
3064,20.00000,2.59375,9.50749
3065,20.00000,3.37500,8.15433
3066,20.00000,4.15625,6.80116
3067,20.00000,4.93750,5.44800
3068,20.00000,5.71875,4.09483
3069,20.00000,6.50000,2.74167
3070,20.00000,0.32139,13.61698
3071,20.00000,1.32575,12.42003
3072,20.00000,2.33011,11.22309
3073,20.00000,3.33446,10.02614
3074,20.00000,4.33882,8.82920
3075,20.00000,5.34317,7.63226
3076,20.00000,6.34753,6.43531
3077,20.00000,7.35188,5.23837
3078,20.00000,8.35624,4.04142
3079,20.00000,0.38302,13.67861
3080,20.00000,1.57997,12.67425
3081,20.00000,2.77691,11.66989
3082,20.00000,3.97386,10.66554
3083,20.00000,5.17080,9.66118
3084,20.00000,6.36774,8.65683
3085,20.00000,7.56469,7.65247
3086,20.00000,8.76163,6.64812
3087,20.00000,9.95858,5.64376
3088,20.00000,0.43301,13.75000
3089,20.00000,1.78618,12.96875
3090,20.00000,3.13934,12.18750
3091,20.00000,4.49251,11.40625
3092,20.00000,5.84567,10.62500
3093,20.00000,7.19884,9.84375
3094,20.00000,8.55200,9.06250
3095,20.00000,9.90517,8.28125
3096,20.00000,11.25833,7.50000
3097,20.00000,0.46985,13.82899
3098,20.00000,1.93812,13.29458
3099,20.00000,3.40639,12.76018
3100,20.00000,4.87466,12.22577
3101,20.00000,6.34293,11.69136
3102,20.00000,7.81119,11.15696
3103,20.00000,9.27946,10.62255
3104,20.00000,10.74773,10.08814
3105,20.00000,12.21600,9.55374
3106,20.00000,0.49240,13.91318
3107,20.00000,2.03117,13.64185
3108,20.00000,3.56993,13.37053
3109,20.00000,5.10869,13.09920
3110,20.00000,6.64745,12.82787
3111,20.00000,8.18621,12.55655
3112,20.00000,9.72498,12.28522
3113,20.00000,11.26374,12.01390
3114,20.00000,12.80250,11.74257
3115,20.00000,0.50000,14.00000
3116,20.00000,2.06250,14.00000
3117,20.00000,3.62500,14.00000
3118,20.00000,5.18750,14.00000
3119,20.00000,6.75000,14.00000
3120,20.00000,8.31250,14.00000
3121,20.00000,9.87500,14.00000
3122,20.00000,11.43750,14.00000
3123,20.00000,13.00000,14.00000
3124,25.00000,0.50000,14.00000
3125,25.00000,2.06250,14.00000
3126,25.00000,3.62500,14.00000
3127,25.00000,5.18750,14.00000
3128,25.00000,6.75000,14.00000
3129,25.00000,8.31250,14.00000
3130,25.00000,9.87500,14.00000
3131,25.00000,11.43750,14.00000
3132,25.00000,13.00000,14.00000
3133,25.00000,0.49240,14.08682
3134,25.00000,2.03117,14.35815
3135,25.00000,3.56993,14.62947
3136,25.00000,5.10869,14.90080
3137,25.00000,6.64745,15.17213
3138,25.00000,8.18621,15.44345
3139,25.00000,9.72498,15.71478
3140,25.00000,11.26374,15.98610
3141,25.00000,12.80250,16.25743
3142,25.00000,0.46985,14.17101
3143,25.00000,1.93812,14.70542
3144,25.00000,3.40639,15.23982
3145,25.00000,4.87466,15.77423
3146,25.00000,6.34293,16.30864
3147,25.00000,7.81119,16.84304
3148,25.00000,9.27946,17.37745
3149,25.00000,10.74773,17.91186
3150,25.00000,12.21600,18.44626
3151,25.00000,0.43301,14.25000
3152,25.00000,1.78618,15.03125
3153,25.00000,3.13934,15.81250
3154,25.00000,4.49251,16.59375
3155,25.00000,5.84567,17.37500
3156,25.00000,7.19884,18.15625
3157,25.00000,8.55200,18.93750
3158,25.00000,9.90517,19.71875
3159,25.00000,11.25833,20.50000
3160,25.00000,0.38302,14.32139
3161,25.00000,1.57997,15.32575
3162,25.00000,2.77691,16.33011
3163,25.00000,3.97386,17.33446
3164,25.00000,5.17080,18.33882
3165,25.00000,6.36774,19.34317
3166,25.00000,7.56469,20.34753
3167,25.00000,8.76163,21.35188
3168,25.00000,9.95858,22.35624
3169,25.00000,0.32139,14.38302
3170,25.00000,1.32575,15.57997
3171,25.00000,2.33011,16.77691
3172,25.00000,3.33446,17.97386
3173,25.00000,4.33882,19.17080
3174,25.00000,5.34317,20.36774
3175,25.00000,6.34753,21.56469
3176,25.00000,7.35188,22.76163
3177,25.00000,8.35624,23.95858
3178,25.00000,0.25000,14.43301
3179,25.00000,1.03125,15.78618
3180,25.00000,1.81250,17.13934
3181,25.00000,2.59375,18.49251
3182,25.00000,3.37500,19.84567
3183,25.00000,4.15625,21.19884
3184,25.00000,4.93750,22.55200
3185,25.00000,5.71875,23.90517
3186,25.00000,6.50000,25.25833
3187,25.00000,0.17101,14.46985
3188,25.00000,0.70542,15.93812
3189,25.00000,1.23982,17.40639
3190,25.00000,1.77423,18.87466
3191,25.00000,2.30864,20.34293
3192,25.00000,2.84304,21.81119
3193,25.00000,3.37745,23.27946
3194,25.00000,3.91186,24.74773
3195,25.00000,4.44626,26.21600
3196,25.00000,0.08682,14.49240
3197,25.00000,0.35815,16.03117
3198,25.00000,0.62947,17.56993
3199,25.00000,0.90080,19.10869
3200,25.00000,1.17213,20.64745
3201,25.00000,1.44345,22.18621
3202,25.00000,1.71478,23.72498
3203,25.00000,1.98610,25.26374
3204,25.00000,2.25743,26.80250
3205,25.00000,0.00000,14.50000
3206,25.00000,0.00000,16.06250
3207,25.00000,0.00000,17.62500
3208,25.00000,0.00000,19.18750
3209,25.00000,0.00000,20.75000
3210,25.00000,0.00000,22.31250
3211,25.00000,0.00000,23.87500
3212,25.00000,0.00000,25.43750
3213,25.00000,0.00000,27.00000
3214,25.00000,-0.08682,14.49240
3215,25.00000,-0.35815,16.03117
3216,25.00000,-0.62947,17.56993
3217,25.00000,-0.90080,19.10869
3218,25.00000,-1.17213,20.64745
3219,25.00000,-1.44345,22.18621
3220,25.00000,-1.71478,23.72498
3221,25.00000,-1.98610,25.26374
3222,25.00000,-2.25743,26.80250
3223,25.00000,-0.17101,14.46985
3224,25.00000,-0.70542,15.93812
3225,25.00000,-1.23982,17.40639
3226,25.00000,-1.77423,18.87466
3227,25.00000,-2.30864,20.34293
3228,25.00000,-2.84304,21.81119
3229,25.00000,-3.37745,23.27946
3230,25.00000,-3.91186,24.74773
3231,25.00000,-4.44626,26.21600
3232,25.00000,-0.25000,14.43301
3233,25.00000,-1.03125,15.78618
3234,25.00000,-1.81250,17.13934
3235,25.00000,-2.59375,18.49251
3236,25.00000,-3.37500,19.84567
3237,25.00000,-4.15625,21.19884
3238,25.00000,-4.93750,22.55200
3239,25.00000,-5.71875,23.90517
3240,25.00000,-6.50000,25.25833
3241,25.00000,-0.32139,14.38302
3242,25.00000,-1.32575,15.57997
3243,25.00000,-2.33011,16.77691
3244,25.00000,-3.33446,17.97386
3245,25.00000,-4.33882,19.17080
3246,25.00000,-5.34317,20.36774
3247,25.00000,-6.34753,21.56469
3248,25.00000,-7.35188,22.76163
3249,25.00000,-8.35624,23.95858
3250,25.00000,-0.38302,14.32139
3251,25.00000,-1.57997,15.32575
3252,25.00000,-2.77691,16.33011
3253,25.00000,-3.97386,17.33446
3254,25.00000,-5.17080,18.33882
3255,25.00000,-6.36774,19.34317
3256,25.00000,-7.56469,20.34753
3257,25.00000,-8.76163,21.35188
3258,25.00000,-9.95858,22.35624
3259,25.00000,-0.43301,14.25000
3260,25.00000,-1.78618,15.03125
3261,25.00000,-3.13934,15.81250
3262,25.00000,-4.49251,16.59375
3263,25.00000,-5.84567,17.37500
3264,25.00000,-7.19884,18.15625
3265,25.00000,-8.55200,18.93750
3266,25.00000,-9.90517,19.71875
3267,25.00000,-11.25833,20.50000
3268,25.00000,-0.46985,14.17101
3269,25.00000,-1.93812,14.70542
3270,25.00000,-3.40639,15.23982
3271,25.00000,-4.87466,15.77423
3272,25.00000,-6.34293,16.30864
3273,25.00000,-7.81119,16.84304
3274,25.00000,-9.27946,17.37745
3275,25.00000,-10.74773,17.91186
3276,25.00000,-12.21600,18.44626
3277,25.00000,-0.49240,14.08682
3278,25.00000,-2.03117,14.35815
3279,25.00000,-3.56993,14.62947
3280,25.00000,-5.10869,14.90080
3281,25.00000,-6.64745,15.17213
3282,25.00000,-8.18621,15.44345
3283,25.00000,-9.72498,15.71478
3284,25.00000,-11.26374,15.98610
3285,25.00000,-12.80250,16.25743
3286,25.00000,-0.50000,14.00000
3287,25.00000,-2.06250,14.00000
3288,25.00000,-3.62500,14.00000
3289,25.00000,-5.18750,14.00000
3290,25.00000,-6.75000,14.00000
3291,25.00000,-8.31250,14.00000
3292,25.00000,-9.87500,14.00000
3293,25.00000,-11.43750,14.00000
3294,25.00000,-13.00000,14.00000
3295,25.00000,-0.49240,13.91318
3296,25.00000,-2.03117,13.64185
3297,25.00000,-3.56993,13.37053
3298,25.00000,-5.10869,13.09920
3299,25.00000,-6.64745,12.82787
3300,25.00000,-8.18621,12.55655
3301,25.00000,-9.72498,12.28522
3302,25.00000,-11.26374,12.01390
3303,25.00000,-12.80250,11.74257
3304,25.00000,-0.46985,13.82899
3305,25.00000,-1.93812,13.29458
3306,25.00000,-3.40639,12.76018
3307,25.00000,-4.87466,12.22577
3308,25.00000,-6.34293,11.69136
3309,25.00000,-7.81119,11.15696
3310,25.00000,-9.27946,10.62255
3311,25.00000,-10.74773,10.08814
3312,25.00000,-12.21600,9.55374
3313,25.00000,-0.43301,13.75000
3314,25.00000,-1.78618,12.96875
3315,25.00000,-3.13934,12.18750
3316,25.00000,-4.49251,11.40625
3317,25.00000,-5.84567,10.62500
3318,25.00000,-7.19884,9.84375
3319,25.00000,-8.55200,9.06250
3320,25.00000,-9.90517,8.28125
3321,25.00000,-11.25833,7.50000
3322,25.00000,-0.38302,13.67861
3323,25.00000,-1.57997,12.67425
3324,25.00000,-2.77691,11.66989
3325,25.00000,-3.97386,10.66554
3326,25.00000,-5.17080,9.66118
3327,25.00000,-6.36774,8.65683
3328,25.00000,-7.56469,7.65247
3329,25.00000,-8.76163,6.64812
3330,25.00000,-9.95858,5.64376
3331,25.00000,-0.32139,13.61698
3332,25.00000,-1.32575,12.42003
3333,25.00000,-2.33011,11.22309
3334,25.00000,-3.33446,10.02614
3335,25.00000,-4.33882,8.82920
3336,25.00000,-5.34317,7.63226
3337,25.00000,-6.34753,6.43531
3338,25.00000,-7.35188,5.23837
3339,25.00000,-8.35624,4.04142
3340,25.00000,-0.25000,13.56699
3341,25.00000,-1.03125,12.21382
3342,25.00000,-1.81250,10.86066
3343,25.00000,-2.59375,9.50749
3344,25.00000,-3.37500,8.15433
3345,25.00000,-4.15625,6.80116
3346,25.00000,-4.93750,5.44800
3347,25.00000,-5.71875,4.09483
3348,25.00000,-6.50000,2.74167
3349,25.00000,-0.17101,13.53015
3350,25.00000,-0.70542,12.06188
3351,25.00000,-1.23982,10.59361
3352,25.00000,-1.77423,9.12534
3353,25.00000,-2.30864,7.65707
3354,25.00000,-2.84304,6.18881
3355,25.00000,-3.37745,4.72054
3356,25.00000,-3.91186,3.25227
3357,25.00000,-4.44626,1.78400
3358,25.00000,-0.08682,13.50760
3359,25.00000,-0.35815,11.96883
3360,25.00000,-0.62947,10.43007
3361,25.00000,-0.90080,8.89131
3362,25.00000,-1.17213,7.35255
3363,25.00000,-1.44345,5.81379
3364,25.00000,-1.71478,4.27502
3365,25.00000,-1.98610,2.73626
3366,25.00000,-2.25743,1.19750
3367,25.00000,-0.00000,13.50000
3368,25.00000,-0.00000,11.93750
3369,25.00000,-0.00000,10.37500
3370,25.00000,-0.00000,8.81250
3371,25.00000,-0.00000,7.25000
3372,25.00000,-0.00000,5.68750
3373,25.00000,-0.00000,4.12500
3374,25.00000,-0.00000,2.56250
3375,25.00000,-0.00000,1.00000
3376,25.00000,0.08682,13.50760
3377,25.00000,0.35815,11.96883
3378,25.00000,0.62947,10.43007
3379,25.00000,0.90080,8.89131
3380,25.00000,1.17213,7.35255
3381,25.00000,1.44345,5.81379
3382,25.00000,1.71478,4.27502
3383,25.00000,1.98610,2.73626
3384,25.00000,2.25743,1.19750
3385,25.00000,0.17101,13.53015
3386,25.00000,0.70542,12.06188
3387,25.00000,1.23982,10.59361
3388,25.00000,1.77423,9.12534
3389,25.00000,2.30864,7.65707
3390,25.00000,2.84304,6.18881
3391,25.00000,3.37745,4.72054
3392,25.00000,3.91186,3.25227
3393,25.00000,4.44626,1.78400
3394,25.00000,0.25000,13.56699
3395,25.00000,1.03125,12.21382
3396,25.00000,1.81250,10.86066
3397,25.00000,2.59375,9.50749
3398,25.00000,3.37500,8.15433
3399,25.00000,4.15625,6.80116
3400,25.00000,4.93750,5.44800
3401,25.00000,5.71875,4.09483
3402,25.00000,6.50000,2.74167
3403,25.00000,0.32139,13.61698
3404,25.00000,1.32575,12.42003
3405,25.00000,2.33011,11.22309
3406,25.00000,3.33446,10.02614
3407,25.00000,4.33882,8.82920
3408,25.00000,5.34317,7.63226
3409,25.00000,6.34753,6.43531
3410,25.00000,7.35188,5.23837
3411,25.00000,8.35624,4.04142
3412,25.00000,0.38302,13.67861
3413,25.00000,1.57997,12.67425
3414,25.00000,2.77691,11.66989
3415,25.00000,3.97386,10.66554
3416,25.00000,5.17080,9.66118
3417,25.00000,6.36774,8.65683
3418,25.00000,7.56469,7.65247
3419,25.00000,8.76163,6.64812
3420,25.00000,9.95858,5.64376
3421,25.00000,0.43301,13.75000
3422,25.00000,1.78618,12.96875
3423,25.00000,3.13934,12.18750
3424,25.00000,4.49251,11.40625
3425,25.00000,5.84567,10.62500
3426,25.00000,7.19884,9.84375
3427,25.00000,8.55200,9.06250
3428,25.00000,9.90517,8.28125
3429,25.00000,11.25833,7.50000
3430,25.00000,0.46985,13.82899
3431,25.00000,1.93812,13.29458
3432,25.00000,3.40639,12.76018
3433,25.00000,4.87466,12.22577
3434,25.00000,6.34293,11.69136
3435,25.00000,7.81119,11.15696
3436,25.00000,9.27946,10.62255
3437,25.00000,10.74773,10.08814
3438,25.00000,12.21600,9.55374
3439,25.00000,0.49240,13.91318
3440,25.00000,2.03117,13.64185
3441,25.00000,3.56993,13.37053
3442,25.00000,5.10869,13.09920
3443,25.00000,6.64745,12.82787
3444,25.00000,8.18621,12.55655
3445,25.00000,9.72498,12.28522
3446,25.00000,11.26374,12.01390
3447,25.00000,12.80250,11.74257
3448,25.00000,0.50000,14.00000
3449,25.00000,2.06250,14.00000
3450,25.00000,3.62500,14.00000
3451,25.00000,5.18750,14.00000
3452,25.00000,6.75000,14.00000
3453,25.00000,8.31250,14.00000
3454,25.00000,9.87500,14.00000
3455,25.00000,11.43750,14.00000
3456,25.00000,13.00000,14.00000
3457,30.00000,0.50000,14.00000
3458,30.00000,2.06250,14.00000
3459,30.00000,3.62500,14.00000
3460,30.00000,5.18750,14.00000
3461,30.00000,6.75000,14.00000
3462,30.00000,8.31250,14.00000
3463,30.00000,9.87500,14.00000
3464,30.00000,11.43750,14.00000
3465,30.00000,13.00000,14.00000
3466,30.00000,0.49240,14.08682
3467,30.00000,2.03117,14.35815
3468,30.00000,3.56993,14.62947
3469,30.00000,5.10869,14.90080
3470,30.00000,6.64745,15.17213
3471,30.00000,8.18621,15.44345
3472,30.00000,9.72498,15.71478
3473,30.00000,11.26374,15.98610
3474,30.00000,12.80250,16.25743
3475,30.00000,0.46985,14.17101
3476,30.00000,1.93812,14.70542
3477,30.00000,3.40639,15.23982
3478,30.00000,4.87466,15.77423
3479,30.00000,6.34293,16.30864
3480,30.00000,7.81119,16.84304
3481,30.00000,9.27946,17.37745
3482,30.00000,10.74773,17.91186
3483,30.00000,12.21600,18.44626
3484,30.00000,0.43301,14.25000
3485,30.00000,1.78618,15.03125
3486,30.00000,3.13934,15.81250
3487,30.00000,4.49251,16.59375
3488,30.00000,5.84567,17.37500
3489,30.00000,7.19884,18.15625
3490,30.00000,8.55200,18.93750
3491,30.00000,9.90517,19.71875
3492,30.00000,11.25833,20.50000
3493,30.00000,0.38302,14.32139
3494,30.00000,1.57997,15.32575
3495,30.00000,2.77691,16.33011
3496,30.00000,3.97386,17.33446
3497,30.00000,5.17080,18.33882
3498,30.00000,6.36774,19.34317
3499,30.00000,7.56469,20.34753
3500,30.00000,8.76163,21.35188
3501,30.00000,9.95858,22.35624
3502,30.00000,0.32139,14.38302
3503,30.00000,1.32575,15.57997
3504,30.00000,2.33011,16.77691
3505,30.00000,3.33446,17.97386
3506,30.00000,4.33882,19.17080
3507,30.00000,5.34317,20.36774
3508,30.00000,6.34753,21.56469
3509,30.00000,7.35188,22.76163
3510,30.00000,8.35624,23.95858
3511,30.00000,0.25000,14.43301
3512,30.00000,1.03125,15.78618
3513,30.00000,1.81250,17.13934
3514,30.00000,2.59375,18.49251
3515,30.00000,3.37500,19.84567
3516,30.00000,4.15625,21.19884
3517,30.00000,4.93750,22.55200
3518,30.00000,5.71875,23.90517
3519,30.00000,6.50000,25.25833
3520,30.00000,0.17101,14.46985
3521,30.00000,0.70542,15.93812
3522,30.00000,1.23982,17.40639
3523,30.00000,1.77423,18.87466
3524,30.00000,2.30864,20.34293
3525,30.00000,2.84304,21.81119
3526,30.00000,3.37745,23.27946
3527,30.00000,3.91186,24.74773
3528,30.00000,4.44626,26.21600
3529,30.00000,0.08682,14.49240
3530,30.00000,0.35815,16.03117
3531,30.00000,0.62947,17.56993
3532,30.00000,0.90080,19.10869
3533,30.00000,1.17213,20.64745
3534,30.00000,1.44345,22.18621
3535,30.00000,1.71478,23.72498
3536,30.00000,1.98610,25.26374
3537,30.00000,2.25743,26.80250
3538,30.00000,0.00000,14.50000
3539,30.00000,0.00000,16.06250
3540,30.00000,0.00000,17.62500
3541,30.00000,0.00000,19.18750
3542,30.00000,0.00000,20.75000
3543,30.00000,0.00000,22.31250
3544,30.00000,0.00000,23.87500
3545,30.00000,0.00000,25.43750
3546,30.00000,0.00000,27.00000
3547,30.00000,-0.08682,14.49240
3548,30.00000,-0.35815,16.03117
3549,30.00000,-0.62947,17.56993
3550,30.00000,-0.90080,19.10869
3551,30.00000,-1.17213,20.64745
3552,30.00000,-1.44345,22.18621
3553,30.00000,-1.71478,23.72498
3554,30.00000,-1.98610,25.26374
3555,30.00000,-2.25743,26.80250
3556,30.00000,-0.17101,14.46985
3557,30.00000,-0.70542,15.93812
3558,30.00000,-1.23982,17.40639
3559,30.00000,-1.77423,18.87466
3560,30.00000,-2.30864,20.34293
3561,30.00000,-2.84304,21.81119
3562,30.00000,-3.37745,23.27946
3563,30.00000,-3.91186,24.74773
3564,30.00000,-4.44626,26.21600
3565,30.00000,-0.25000,14.43301
3566,30.00000,-1.03125,15.78618
3567,30.00000,-1.81250,17.13934
3568,30.00000,-2.59375,18.49251
3569,30.00000,-3.37500,19.84567
3570,30.00000,-4.15625,21.19884
3571,30.00000,-4.93750,22.55200
3572,30.00000,-5.71875,23.90517
3573,30.00000,-6.50000,25.25833
3574,30.00000,-0.32139,14.38302
3575,30.00000,-1.32575,15.57997
3576,30.00000,-2.33011,16.77691
3577,30.00000,-3.33446,17.97386
3578,30.00000,-4.33882,19.17080
3579,30.00000,-5.34317,20.36774
3580,30.00000,-6.34753,21.56469
3581,30.00000,-7.35188,22.76163
3582,30.00000,-8.35624,23.95858
3583,30.00000,-0.38302,14.32139
3584,30.00000,-1.57997,15.32575
3585,30.00000,-2.77691,16.33011
3586,30.00000,-3.97386,17.33446
3587,30.00000,-5.17080,18.33882
3588,30.00000,-6.36774,19.34317
3589,30.00000,-7.56469,20.34753
3590,30.00000,-8.76163,21.35188
3591,30.00000,-9.95858,22.35624
3592,30.00000,-0.43301,14.25000
3593,30.00000,-1.78618,15.03125
3594,30.00000,-3.13934,15.81250
3595,30.00000,-4.49251,16.59375
3596,30.00000,-5.84567,17.37500
3597,30.00000,-7.19884,18.15625
3598,30.00000,-8.55200,18.93750
3599,30.00000,-9.90517,19.71875
3600,30.00000,-11.25833,20.50000
3601,30.00000,-0.46985,14.17101
3602,30.00000,-1.93812,14.70542
3603,30.00000,-3.40639,15.23982
3604,30.00000,-4.87466,15.77423
3605,30.00000,-6.34293,16.30864
3606,30.00000,-7.81119,16.84304
3607,30.00000,-9.27946,17.37745
3608,30.00000,-10.74773,17.91186
3609,30.00000,-12.21600,18.44626
3610,30.00000,-0.49240,14.08682
3611,30.00000,-2.03117,14.35815
3612,30.00000,-3.56993,14.62947
3613,30.00000,-5.10869,14.90080
3614,30.00000,-6.64745,15.17213
3615,30.00000,-8.18621,15.44345
3616,30.00000,-9.72498,15.71478
3617,30.00000,-11.26374,15.98610
3618,30.00000,-12.80250,16.25743
3619,30.00000,-0.50000,14.00000
3620,30.00000,-2.06250,14.00000
3621,30.00000,-3.62500,14.00000
3622,30.00000,-5.18750,14.00000
3623,30.00000,-6.75000,14.00000
3624,30.00000,-8.31250,14.00000
3625,30.00000,-9.87500,14.00000
3626,30.00000,-11.43750,14.00000
3627,30.00000,-13.00000,14.00000
3628,30.00000,-0.49240,13.91318
3629,30.00000,-2.03117,13.64185
3630,30.00000,-3.56993,13.37053
3631,30.00000,-5.10869,13.09920
3632,30.00000,-6.64745,12.82787
3633,30.00000,-8.18621,12.55655
3634,30.00000,-9.72498,12.28522
3635,30.00000,-11.26374,12.01390
3636,30.00000,-12.80250,11.74257
3637,30.00000,-0.46985,13.82899
3638,30.00000,-1.93812,13.29458
3639,30.00000,-3.40639,12.76018
3640,30.00000,-4.87466,12.22577
3641,30.00000,-6.34293,11.69136
3642,30.00000,-7.81119,11.15696
3643,30.00000,-9.27946,10.62255
3644,30.00000,-10.74773,10.08814
3645,30.00000,-12.21600,9.55374
3646,30.00000,-0.43301,13.75000
3647,30.00000,-1.78618,12.96875
3648,30.00000,-3.13934,12.18750
3649,30.00000,-4.49251,11.40625
3650,30.00000,-5.84567,10.62500
3651,30.00000,-7.19884,9.84375
3652,30.00000,-8.55200,9.06250
3653,30.00000,-9.90517,8.28125
3654,30.00000,-11.25833,7.50000
3655,30.00000,-0.38302,13.67861
3656,30.00000,-1.57997,12.67425
3657,30.00000,-2.77691,11.66989
3658,30.00000,-3.97386,10.66554
3659,30.00000,-5.17080,9.66118
3660,30.00000,-6.36774,8.65683
3661,30.00000,-7.56469,7.65247
3662,30.00000,-8.76163,6.64812
3663,30.00000,-9.95858,5.64376
3664,30.00000,-0.32139,13.61698
3665,30.00000,-1.32575,12.42003
3666,30.00000,-2.33011,11.22309
3667,30.00000,-3.33446,10.02614
3668,30.00000,-4.33882,8.82920
3669,30.00000,-5.34317,7.63226
3670,30.00000,-6.34753,6.43531
3671,30.00000,-7.35188,5.23837
3672,30.00000,-8.35624,4.04142
3673,30.00000,-0.25000,13.56699
3674,30.00000,-1.03125,12.21382
3675,30.00000,-1.81250,10.86066
3676,30.00000,-2.59375,9.50749
3677,30.00000,-3.37500,8.15433
3678,30.00000,-4.15625,6.80116
3679,30.00000,-4.93750,5.44800
3680,30.00000,-5.71875,4.09483
3681,30.00000,-6.50000,2.74167
3682,30.00000,-0.17101,13.53015
3683,30.00000,-0.70542,12.06188
3684,30.00000,-1.23982,10.59361
3685,30.00000,-1.77423,9.12534
3686,30.00000,-2.30864,7.65707
3687,30.00000,-2.84304,6.18881
3688,30.00000,-3.37745,4.72054
3689,30.00000,-3.91186,3.25227
3690,30.00000,-4.44626,1.78400
3691,30.00000,-0.08682,13.50760
3692,30.00000,-0.35815,11.96883
3693,30.00000,-0.62947,10.43007
3694,30.00000,-0.90080,8.89131
3695,30.00000,-1.17213,7.35255
3696,30.00000,-1.44345,5.81379
3697,30.00000,-1.71478,4.27502
3698,30.00000,-1.98610,2.73626
3699,30.00000,-2.25743,1.19750
3700,30.00000,-0.00000,13.50000
3701,30.00000,-0.00000,11.93750
3702,30.00000,-0.00000,10.37500
3703,30.00000,-0.00000,8.81250
3704,30.00000,-0.00000,7.25000
3705,30.00000,-0.00000,5.68750
3706,30.00000,-0.00000,4.12500
3707,30.00000,-0.00000,2.56250
3708,30.00000,-0.00000,1.00000
3709,30.00000,0.08682,13.50760
3710,30.00000,0.35815,11.96883
3711,30.00000,0.62947,10.43007
3712,30.00000,0.90080,8.89131
3713,30.00000,1.17213,7.35255
3714,30.00000,1.44345,5.81379
3715,30.00000,1.71478,4.27502
3716,30.00000,1.98610,2.73626
3717,30.00000,2.25743,1.19750
3718,30.00000,0.17101,13.53015
3719,30.00000,0.70542,12.06188
3720,30.00000,1.23982,10.59361
3721,30.00000,1.77423,9.12534
3722,30.00000,2.30864,7.65707
3723,30.00000,2.84304,6.18881
3724,30.00000,3.37745,4.72054
3725,30.00000,3.91186,3.25227
3726,30.00000,4.44626,1.78400
3727,30.00000,0.25000,13.56699
3728,30.00000,1.03125,12.21382
3729,30.00000,1.81250,10.86066
3730,30.00000,2.59375,9.50749
3731,30.00000,3.37500,8.15433
3732,30.00000,4.15625,6.80116
3733,30.00000,4.93750,5.44800
3734,30.00000,5.71875,4.09483
3735,30.00000,6.50000,2.74167
3736,30.00000,0.32139,13.61698
3737,30.00000,1.32575,12.42003
3738,30.00000,2.33011,11.22309
3739,30.00000,3.33446,10.02614
3740,30.00000,4.33882,8.82920
3741,30.00000,5.34317,7.63226
3742,30.00000,6.34753,6.43531
3743,30.00000,7.35188,5.23837
3744,30.00000,8.35624,4.04142
3745,30.00000,0.38302,13.67861
3746,30.00000,1.57997,12.67425
3747,30.00000,2.77691,11.66989
3748,30.00000,3.97386,10.66554
3749,30.00000,5.17080,9.66118
3750,30.00000,6.36774,8.65683
3751,30.00000,7.56469,7.65247
3752,30.00000,8.76163,6.64812
3753,30.00000,9.95858,5.64376
3754,30.00000,0.43301,13.75000
3755,30.00000,1.78618,12.96875
3756,30.00000,3.13934,12.18750
3757,30.00000,4.49251,11.40625
3758,30.00000,5.84567,10.62500
3759,30.00000,7.19884,9.84375
3760,30.00000,8.55200,9.06250
3761,30.00000,9.90517,8.28125
3762,30.00000,11.25833,7.50000
3763,30.00000,0.46985,13.82899
3764,30.00000,1.93812,13.29458
3765,30.00000,3.40639,12.76018
3766,30.00000,4.87466,12.22577
3767,30.00000,6.34293,11.69136
3768,30.00000,7.81119,11.15696
3769,30.00000,9.27946,10.62255
3770,30.00000,10.74773,10.08814
3771,30.00000,12.21600,9.55374
3772,30.00000,0.49240,13.91318
3773,30.00000,2.03117,13.64185
3774,30.00000,3.56993,13.37053
3775,30.00000,5.10869,13.09920
3776,30.00000,6.64745,12.82787
3777,30.00000,8.18621,12.55655
3778,30.00000,9.72498,12.28522
3779,30.00000,11.26374,12.01390
3780,30.00000,12.80250,11.74257
3781,30.00000,0.50000,14.00000
3782,30.00000,2.06250,14.00000
3783,30.00000,3.62500,14.00000
3784,30.00000,5.18750,14.00000
3785,30.00000,6.75000,14.00000
3786,30.00000,8.31250,14.00000
3787,30.00000,9.87500,14.00000
3788,30.00000,11.43750,14.00000
3789,30.00000,13.00000,14.00000
3790,35.00000,0.50000,14.00000
3791,35.00000,2.06250,14.00000
3792,35.00000,3.62500,14.00000
3793,35.00000,5.18750,14.00000
3794,35.00000,6.75000,14.00000
3795,35.00000,8.31250,14.00000
3796,35.00000,9.87500,14.00000
3797,35.00000,11.43750,14.00000
3798,35.00000,13.00000,14.00000
3799,35.00000,0.49240,14.08682
3800,35.00000,2.03117,14.35815
3801,35.00000,3.56993,14.62947
3802,35.00000,5.10869,14.90080
3803,35.00000,6.64745,15.17213
3804,35.00000,8.18621,15.44345
3805,35.00000,9.72498,15.71478
3806,35.00000,11.26374,15.98610
3807,35.00000,12.80250,16.25743
3808,35.00000,0.46985,14.17101
3809,35.00000,1.93812,14.70542
3810,35.00000,3.40639,15.23982
3811,35.00000,4.87466,15.77423
3812,35.00000,6.34293,16.30864
3813,35.00000,7.81119,16.84304
3814,35.00000,9.27946,17.37745
3815,35.00000,10.74773,17.91186
3816,35.00000,12.21600,18.44626
3817,35.00000,0.43301,14.25000
3818,35.00000,1.78618,15.03125
3819,35.00000,3.13934,15.81250
3820,35.00000,4.49251,16.59375
3821,35.00000,5.84567,17.37500
3822,35.00000,7.19884,18.15625
3823,35.00000,8.55200,18.93750
3824,35.00000,9.90517,19.71875
3825,35.00000,11.25833,20.50000
3826,35.00000,0.38302,14.32139
3827,35.00000,1.57997,15.32575
3828,35.00000,2.77691,16.33011
3829,35.00000,3.97386,17.33446
3830,35.00000,5.17080,18.33882
3831,35.00000,6.36774,19.34317
3832,35.00000,7.56469,20.34753
3833,35.00000,8.76163,21.35188
3834,35.00000,9.95858,22.35624
3835,35.00000,0.32139,14.38302
3836,35.00000,1.32575,15.57997
3837,35.00000,2.33011,16.77691
3838,35.00000,3.33446,17.97386
3839,35.00000,4.33882,19.17080
3840,35.00000,5.34317,20.36774
3841,35.00000,6.34753,21.56469
3842,35.00000,7.35188,22.76163
3843,35.00000,8.35624,23.95858
3844,35.00000,0.25000,14.43301
3845,35.00000,1.03125,15.78618
3846,35.00000,1.81250,17.13934
3847,35.00000,2.59375,18.49251
3848,35.00000,3.37500,19.84567
3849,35.00000,4.15625,21.19884
3850,35.00000,4.93750,22.55200
3851,35.00000,5.71875,23.90517
3852,35.00000,6.50000,25.25833
3853,35.00000,0.17101,14.46985
3854,35.00000,0.70542,15.93812
3855,35.00000,1.23982,17.40639
3856,35.00000,1.77423,18.87466
3857,35.00000,2.30864,20.34293
3858,35.00000,2.84304,21.81119
3859,35.00000,3.37745,23.27946
3860,35.00000,3.91186,24.74773
3861,35.00000,4.44626,26.21600
3862,35.00000,0.08682,14.49240
3863,35.00000,0.35815,16.03117
3864,35.00000,0.62947,17.56993
3865,35.00000,0.90080,19.10869
3866,35.00000,1.17213,20.64745
3867,35.00000,1.44345,22.18621
3868,35.00000,1.71478,23.72498
3869,35.00000,1.98610,25.26374
3870,35.00000,2.25743,26.80250
3871,35.00000,0.00000,14.50000
3872,35.00000,0.00000,16.06250
3873,35.00000,0.00000,17.62500
3874,35.00000,0.00000,19.18750
3875,35.00000,0.00000,20.75000
3876,35.00000,0.00000,22.31250
3877,35.00000,0.00000,23.87500
3878,35.00000,0.00000,25.43750
3879,35.00000,0.00000,27.00000
3880,35.00000,-0.08682,14.49240
3881,35.00000,-0.35815,16.03117
3882,35.00000,-0.62947,17.56993
3883,35.00000,-0.90080,19.10869
3884,35.00000,-1.17213,20.64745
3885,35.00000,-1.44345,22.18621
3886,35.00000,-1.71478,23.72498
3887,35.00000,-1.98610,25.26374
3888,35.00000,-2.25743,26.80250
3889,35.00000,-0.17101,14.46985
3890,35.00000,-0.70542,15.93812
3891,35.00000,-1.23982,17.40639
3892,35.00000,-1.77423,18.87466
3893,35.00000,-2.30864,20.34293
3894,35.00000,-2.84304,21.81119
3895,35.00000,-3.37745,23.27946
3896,35.00000,-3.91186,24.74773
3897,35.00000,-4.44626,26.21600
3898,35.00000,-0.25000,14.43301
3899,35.00000,-1.03125,15.78618
3900,35.00000,-1.81250,17.13934
3901,35.00000,-2.59375,18.49251
3902,35.00000,-3.37500,19.84567
3903,35.00000,-4.15625,21.19884
3904,35.00000,-4.93750,22.55200
3905,35.00000,-5.71875,23.90517
3906,35.00000,-6.50000,25.25833
3907,35.00000,-0.32139,14.38302
3908,35.00000,-1.32575,15.57997
3909,35.00000,-2.33011,16.77691
3910,35.00000,-3.33446,17.97386
3911,35.00000,-4.33882,19.17080
3912,35.00000,-5.34317,20.36774
3913,35.00000,-6.34753,21.56469
3914,35.00000,-7.35188,22.76163
3915,35.00000,-8.35624,23.95858
3916,35.00000,-0.38302,14.32139
3917,35.00000,-1.57997,15.32575
3918,35.00000,-2.77691,16.33011
3919,35.00000,-3.97386,17.33446
3920,35.00000,-5.17080,18.33882
3921,35.00000,-6.36774,19.34317
3922,35.00000,-7.56469,20.34753
3923,35.00000,-8.76163,21.35188
3924,35.00000,-9.95858,22.35624
3925,35.00000,-0.43301,14.25000
3926,35.00000,-1.78618,15.03125
3927,35.00000,-3.13934,15.81250
3928,35.00000,-4.49251,16.59375
3929,35.00000,-5.84567,17.37500
3930,35.00000,-7.19884,18.15625
3931,35.00000,-8.55200,18.93750
3932,35.00000,-9.90517,19.71875
3933,35.00000,-11.25833,20.50000
3934,35.00000,-0.46985,14.17101
3935,35.00000,-1.93812,14.70542
3936,35.00000,-3.40639,15.23982
3937,35.00000,-4.87466,15.77423
3938,35.00000,-6.34293,16.30864
3939,35.00000,-7.81119,16.84304
3940,35.00000,-9.27946,17.37745
3941,35.00000,-10.74773,17.91186
3942,35.00000,-12.21600,18.44626
3943,35.00000,-0.49240,14.08682
3944,35.00000,-2.03117,14.35815
3945,35.00000,-3.56993,14.62947
3946,35.00000,-5.10869,14.90080
3947,35.00000,-6.64745,15.17213
3948,35.00000,-8.18621,15.44345
3949,35.00000,-9.72498,15.71478
3950,35.00000,-11.26374,15.98610
3951,35.00000,-12.80250,16.25743
3952,35.00000,-0.50000,14.00000
3953,35.00000,-2.06250,14.00000
3954,35.00000,-3.62500,14.00000
3955,35.00000,-5.18750,14.00000
3956,35.00000,-6.75000,14.00000
3957,35.00000,-8.31250,14.00000
3958,35.00000,-9.87500,14.00000
3959,35.00000,-11.43750,14.00000
3960,35.00000,-13.00000,14.00000
3961,35.00000,-0.49240,13.91318
3962,35.00000,-2.03117,13.64185
3963,35.00000,-3.56993,13.37053
3964,35.00000,-5.10869,13.09920
3965,35.00000,-6.64745,12.82787
3966,35.00000,-8.18621,12.55655
3967,35.00000,-9.72498,12.28522
3968,35.00000,-11.26374,12.01390
3969,35.00000,-12.80250,11.74257
3970,35.00000,-0.46985,13.82899
3971,35.00000,-1.93812,13.29458
3972,35.00000,-3.40639,12.76018
3973,35.00000,-4.87466,12.22577
3974,35.00000,-6.34293,11.69136
3975,35.00000,-7.81119,11.15696
3976,35.00000,-9.27946,10.62255
3977,35.00000,-10.74773,10.08814
3978,35.00000,-12.21600,9.55374
3979,35.00000,-0.43301,13.75000
3980,35.00000,-1.78618,12.96875
3981,35.00000,-3.13934,12.18750
3982,35.00000,-4.49251,11.40625
3983,35.00000,-5.84567,10.62500
3984,35.00000,-7.19884,9.84375
3985,35.00000,-8.55200,9.06250
3986,35.00000,-9.90517,8.28125
3987,35.00000,-11.25833,7.50000
3988,35.00000,-0.38302,13.67861
3989,35.00000,-1.57997,12.67425
3990,35.00000,-2.77691,11.66989
3991,35.00000,-3.97386,10.66554
3992,35.00000,-5.17080,9.66118
3993,35.00000,-6.36774,8.65683
3994,35.00000,-7.56469,7.65247
3995,35.00000,-8.76163,6.64812
3996,35.00000,-9.95858,5.64376
3997,35.00000,-0.32139,13.61698
3998,35.00000,-1.32575,12.42003
3999,35.00000,-2.33011,11.22309
4000,35.00000,-3.33446,10.02614
4001,35.00000,-4.33882,8.82920
4002,35.00000,-5.34317,7.63226
4003,35.00000,-6.34753,6.43531
4004,35.00000,-7.35188,5.23837
4005,35.00000,-8.35624,4.04142
4006,35.00000,-0.25000,13.56699
4007,35.00000,-1.03125,12.21382
4008,35.00000,-1.81250,10.86066
4009,35.00000,-2.59375,9.50749
4010,35.00000,-3.37500,8.15433
4011,35.00000,-4.15625,6.80116
4012,35.00000,-4.93750,5.44800
4013,35.00000,-5.71875,4.09483
4014,35.00000,-6.50000,2.74167
4015,35.00000,-0.17101,13.53015
4016,35.00000,-0.70542,12.06188
4017,35.00000,-1.23982,10.59361
4018,35.00000,-1.77423,9.12534
4019,35.00000,-2.30864,7.65707
4020,35.00000,-2.84304,6.18881
4021,35.00000,-3.37745,4.72054
4022,35.00000,-3.91186,3.25227
4023,35.00000,-4.44626,1.78400
4024,35.00000,-0.08682,13.50760
4025,35.00000,-0.35815,11.96883
4026,35.00000,-0.62947,10.43007
4027,35.00000,-0.90080,8.89131
4028,35.00000,-1.17213,7.35255
4029,35.00000,-1.44345,5.81379
4030,35.00000,-1.71478,4.27502
4031,35.00000,-1.98610,2.73626
4032,35.00000,-2.25743,1.19750
4033,35.00000,-0.00000,13.50000
4034,35.00000,-0.00000,11.93750
4035,35.00000,-0.00000,10.37500
4036,35.00000,-0.00000,8.81250
4037,35.00000,-0.00000,7.25000
4038,35.00000,-0.00000,5.68750
4039,35.00000,-0.00000,4.12500
4040,35.00000,-0.00000,2.56250
4041,35.00000,-0.00000,1.00000
4042,35.00000,0.08682,13.50760
4043,35.00000,0.35815,11.96883
4044,35.00000,0.62947,10.43007
4045,35.00000,0.90080,8.89131
4046,35.00000,1.17213,7.35255
4047,35.00000,1.44345,5.81379
4048,35.00000,1.71478,4.27502
4049,35.00000,1.98610,2.73626
4050,35.00000,2.25743,1.19750
4051,35.00000,0.17101,13.53015
4052,35.00000,0.70542,12.06188
4053,35.00000,1.23982,10.59361
4054,35.00000,1.77423,9.12534
4055,35.00000,2.30864,7.65707
4056,35.00000,2.84304,6.18881
4057,35.00000,3.37745,4.72054
4058,35.00000,3.91186,3.25227
4059,35.00000,4.44626,1.78400
4060,35.00000,0.25000,13.56699
4061,35.00000,1.03125,12.21382
4062,35.00000,1.81250,10.86066
4063,35.00000,2.59375,9.50749
4064,35.00000,3.37500,8.15433
4065,35.00000,4.15625,6.80116
4066,35.00000,4.93750,5.44800
4067,35.00000,5.71875,4.09483
4068,35.00000,6.50000,2.74167
4069,35.00000,0.32139,13.61698
4070,35.00000,1.32575,12.42003
4071,35.00000,2.33011,11.22309
4072,35.00000,3.33446,10.02614
4073,35.00000,4.33882,8.82920
4074,35.00000,5.34317,7.63226
4075,35.00000,6.34753,6.43531
4076,35.00000,7.35188,5.23837
4077,35.00000,8.35624,4.04142
4078,35.00000,0.38302,13.67861
4079,35.00000,1.57997,12.67425
4080,35.00000,2.77691,11.66989
4081,35.00000,3.97386,10.66554
4082,35.00000,5.17080,9.66118
4083,35.00000,6.36774,8.65683
4084,35.00000,7.56469,7.65247
4085,35.00000,8.76163,6.64812
4086,35.00000,9.95858,5.64376
4087,35.00000,0.43301,13.75000
4088,35.00000,1.78618,12.96875
4089,35.00000,3.13934,12.18750
4090,35.00000,4.49251,11.40625
4091,35.00000,5.84567,10.62500
4092,35.00000,7.19884,9.84375
4093,35.00000,8.55200,9.06250
4094,35.00000,9.90517,8.28125
4095,35.00000,11.25833,7.50000
4096,35.00000,0.46985,13.82899
4097,35.00000,1.93812,13.29458
4098,35.00000,3.40639,12.76018
4099,35.00000,4.87466,12.22577
4100,35.00000,6.34293,11.69136
4101,35.00000,7.81119,11.15696
4102,35.00000,9.27946,10.62255
4103,35.00000,10.74773,10.08814
4104,35.00000,12.21600,9.55374
4105,35.00000,0.49240,13.91318
4106,35.00000,2.03117,13.64185
4107,35.00000,3.56993,13.37053
4108,35.00000,5.10869,13.09920
4109,35.00000,6.64745,12.82787
4110,35.00000,8.18621,12.55655
4111,35.00000,9.72498,12.28522
4112,35.00000,11.26374,12.01390
4113,35.00000,12.80250,11.74257
4114,35.00000,0.50000,14.00000
4115,35.00000,2.06250,14.00000
4116,35.00000,3.62500,14.00000
4117,35.00000,5.18750,14.00000
4118,35.00000,6.75000,14.00000
4119,35.00000,8.31250,14.00000
4120,35.00000,9.87500,14.00000
4121,35.00000,11.43750,14.00000
4122,35.00000,13.00000,14.00000
4123,40.00000,0.50000,14.00000
4124,40.00000,2.06250,14.00000
4125,40.00000,3.62500,14.00000
4126,40.00000,5.18750,14.00000
4127,40.00000,6.75000,14.00000
4128,40.00000,8.31250,14.00000
4129,40.00000,9.87500,14.00000
4130,40.00000,11.43750,14.00000
4131,40.00000,13.00000,14.00000
4132,40.00000,0.49240,14.08682
4133,40.00000,2.03117,14.35815
4134,40.00000,3.56993,14.62947
4135,40.00000,5.10869,14.90080
4136,40.00000,6.64745,15.17213
4137,40.00000,8.18621,15.44345
4138,40.00000,9.72498,15.71478
4139,40.00000,11.26374,15.98610
4140,40.00000,12.80250,16.25743
4141,40.00000,0.46985,14.17101
4142,40.00000,1.93812,14.70542
4143,40.00000,3.40639,15.23982
4144,40.00000,4.87466,15.77423
4145,40.00000,6.34293,16.30864
4146,40.00000,7.81119,16.84304
4147,40.00000,9.27946,17.37745
4148,40.00000,10.74773,17.91186
4149,40.00000,12.21600,18.44626
4150,40.00000,0.43301,14.25000
4151,40.00000,1.78618,15.03125
4152,40.00000,3.13934,15.81250
4153,40.00000,4.49251,16.59375
4154,40.00000,5.84567,17.37500
4155,40.00000,7.19884,18.15625
4156,40.00000,8.55200,18.93750
4157,40.00000,9.90517,19.71875
4158,40.00000,11.25833,20.50000
4159,40.00000,0.38302,14.32139
4160,40.00000,1.57997,15.32575
4161,40.00000,2.77691,16.33011
4162,40.00000,3.97386,17.33446
4163,40.00000,5.17080,18.33882
4164,40.00000,6.36774,19.34317
4165,40.00000,7.56469,20.34753
4166,40.00000,8.76163,21.35188
4167,40.00000,9.95858,22.35624
4168,40.00000,0.32139,14.38302
4169,40.00000,1.32575,15.57997
4170,40.00000,2.33011,16.77691
4171,40.00000,3.33446,17.97386
4172,40.00000,4.33882,19.17080
4173,40.00000,5.34317,20.36774
4174,40.00000,6.34753,21.56469
4175,40.00000,7.35188,22.76163
4176,40.00000,8.35624,23.95858
4177,40.00000,0.25000,14.43301
4178,40.00000,1.03125,15.78618
4179,40.00000,1.81250,17.13934
4180,40.00000,2.59375,18.49251
4181,40.00000,3.37500,19.84567
4182,40.00000,4.15625,21.19884
4183,40.00000,4.93750,22.55200
4184,40.00000,5.71875,23.90517
4185,40.00000,6.50000,25.25833
4186,40.00000,0.17101,14.46985
4187,40.00000,0.70542,15.93812
4188,40.00000,1.23982,17.40639
4189,40.00000,1.77423,18.87466
4190,40.00000,2.30864,20.34293
4191,40.00000,2.84304,21.81119
4192,40.00000,3.37745,23.27946
4193,40.00000,3.91186,24.74773
4194,40.00000,4.44626,26.21600
4195,40.00000,0.08682,14.49240
4196,40.00000,0.35815,16.03117
4197,40.00000,0.62947,17.56993
4198,40.00000,0.90080,19.10869
4199,40.00000,1.17213,20.64745
4200,40.00000,1.44345,22.18621
4201,40.00000,1.71478,23.72498
4202,40.00000,1.98610,25.26374
4203,40.00000,2.25743,26.80250
4204,40.00000,0.00000,14.50000
4205,40.00000,0.00000,16.06250
4206,40.00000,0.00000,17.62500
4207,40.00000,0.00000,19.18750
4208,40.00000,0.00000,20.75000
4209,40.00000,0.00000,22.31250
4210,40.00000,0.00000,23.87500
4211,40.00000,0.00000,25.43750
4212,40.00000,0.00000,27.00000
4213,40.00000,-0.08682,14.49240
4214,40.00000,-0.35815,16.03117
4215,40.00000,-0.62947,17.56993
4216,40.00000,-0.90080,19.10869
4217,40.00000,-1.17213,20.64745
4218,40.00000,-1.44345,22.18621
4219,40.00000,-1.71478,23.72498
4220,40.00000,-1.98610,25.26374
4221,40.00000,-2.25743,26.80250
4222,40.00000,-0.17101,14.46985
4223,40.00000,-0.70542,15.93812
4224,40.00000,-1.23982,17.40639
4225,40.00000,-1.77423,18.87466
4226,40.00000,-2.30864,20.34293
4227,40.00000,-2.84304,21.81119
4228,40.00000,-3.37745,23.27946
4229,40.00000,-3.91186,24.74773
4230,40.00000,-4.44626,26.21600
4231,40.00000,-0.25000,14.43301
4232,40.00000,-1.03125,15.78618
4233,40.00000,-1.81250,17.13934
4234,40.00000,-2.59375,18.49251
4235,40.00000,-3.37500,19.84567
4236,40.00000,-4.15625,21.19884
4237,40.00000,-4.93750,22.55200
4238,40.00000,-5.71875,23.90517
4239,40.00000,-6.50000,25.25833
4240,40.00000,-0.32139,14.38302
4241,40.00000,-1.32575,15.57997
4242,40.00000,-2.33011,16.77691
4243,40.00000,-3.33446,17.97386
4244,40.00000,-4.33882,19.17080
4245,40.00000,-5.34317,20.36774
4246,40.00000,-6.34753,21.56469
4247,40.00000,-7.35188,22.76163
4248,40.00000,-8.35624,23.95858
4249,40.00000,-0.38302,14.32139
4250,40.00000,-1.57997,15.32575
4251,40.00000,-2.77691,16.33011
4252,40.00000,-3.97386,17.33446
4253,40.00000,-5.17080,18.33882
4254,40.00000,-6.36774,19.34317
4255,40.00000,-7.56469,20.34753
4256,40.00000,-8.76163,21.35188
4257,40.00000,-9.95858,22.35624
4258,40.00000,-0.43301,14.25000
4259,40.00000,-1.78618,15.03125
4260,40.00000,-3.13934,15.81250
4261,40.00000,-4.49251,16.59375
4262,40.00000,-5.84567,17.37500
4263,40.00000,-7.19884,18.15625
4264,40.00000,-8.55200,18.93750
4265,40.00000,-9.90517,19.71875
4266,40.00000,-11.25833,20.50000
4267,40.00000,-0.46985,14.17101
4268,40.00000,-1.93812,14.70542
4269,40.00000,-3.40639,15.23982
4270,40.00000,-4.87466,15.77423
4271,40.00000,-6.34293,16.30864
4272,40.00000,-7.81119,16.84304
4273,40.00000,-9.27946,17.37745
4274,40.00000,-10.74773,17.91186
4275,40.00000,-12.21600,18.44626
4276,40.00000,-0.49240,14.08682
4277,40.00000,-2.03117,14.35815
4278,40.00000,-3.56993,14.62947
4279,40.00000,-5.10869,14.90080
4280,40.00000,-6.64745,15.17213
4281,40.00000,-8.18621,15.44345
4282,40.00000,-9.72498,15.71478
4283,40.00000,-11.26374,15.98610
4284,40.00000,-12.80250,16.25743
4285,40.00000,-0.50000,14.00000
4286,40.00000,-2.06250,14.00000
4287,40.00000,-3.62500,14.00000
4288,40.00000,-5.18750,14.00000
4289,40.00000,-6.75000,14.00000
4290,40.00000,-8.31250,14.00000
4291,40.00000,-9.87500,14.00000
4292,40.00000,-11.43750,14.00000
4293,40.00000,-13.00000,14.00000
4294,40.00000,-0.49240,13.91318
4295,40.00000,-2.03117,13.64185
4296,40.00000,-3.56993,13.37053
4297,40.00000,-5.10869,13.09920
4298,40.00000,-6.64745,12.82787
4299,40.00000,-8.18621,12.55655
4300,40.00000,-9.72498,12.28522
4301,40.00000,-11.26374,12.01390
4302,40.00000,-12.80250,11.74257
4303,40.00000,-0.46985,13.82899
4304,40.00000,-1.93812,13.29458
4305,40.00000,-3.40639,12.76018
4306,40.00000,-4.87466,12.22577
4307,40.00000,-6.34293,11.69136
4308,40.00000,-7.81119,11.15696
4309,40.00000,-9.27946,10.62255
4310,40.00000,-10.74773,10.08814
4311,40.00000,-12.21600,9.55374
4312,40.00000,-0.43301,13.75000
4313,40.00000,-1.78618,12.96875
4314,40.00000,-3.13934,12.18750
4315,40.00000,-4.49251,11.40625
4316,40.00000,-5.84567,10.62500
4317,40.00000,-7.19884,9.84375
4318,40.00000,-8.55200,9.06250
4319,40.00000,-9.90517,8.28125
4320,40.00000,-11.25833,7.50000
4321,40.00000,-0.38302,13.67861
4322,40.00000,-1.57997,12.67425
4323,40.00000,-2.77691,11.66989
4324,40.00000,-3.97386,10.66554
4325,40.00000,-5.17080,9.66118
4326,40.00000,-6.36774,8.65683
4327,40.00000,-7.56469,7.65247
4328,40.00000,-8.76163,6.64812
4329,40.00000,-9.95858,5.64376
4330,40.00000,-0.32139,13.61698
4331,40.00000,-1.32575,12.42003
4332,40.00000,-2.33011,11.22309
4333,40.00000,-3.33446,10.02614
4334,40.00000,-4.33882,8.82920
4335,40.00000,-5.34317,7.63226
4336,40.00000,-6.34753,6.43531
4337,40.00000,-7.35188,5.23837
4338,40.00000,-8.35624,4.04142
4339,40.00000,-0.25000,13.56699
4340,40.00000,-1.03125,12.21382
4341,40.00000,-1.81250,10.86066
4342,40.00000,-2.59375,9.50749
4343,40.00000,-3.37500,8.15433
4344,40.00000,-4.15625,6.80116
4345,40.00000,-4.93750,5.44800
4346,40.00000,-5.71875,4.09483
4347,40.00000,-6.50000,2.74167
4348,40.00000,-0.17101,13.53015
4349,40.00000,-0.70542,12.06188
4350,40.00000,-1.23982,10.59361
4351,40.00000,-1.77423,9.12534
4352,40.00000,-2.30864,7.65707
4353,40.00000,-2.84304,6.18881
4354,40.00000,-3.37745,4.72054
4355,40.00000,-3.91186,3.25227
4356,40.00000,-4.44626,1.78400
4357,40.00000,-0.08682,13.50760
4358,40.00000,-0.35815,11.96883
4359,40.00000,-0.62947,10.43007
4360,40.00000,-0.90080,8.89131
4361,40.00000,-1.17213,7.35255
4362,40.00000,-1.44345,5.81379
4363,40.00000,-1.71478,4.27502
4364,40.00000,-1.98610,2.73626
4365,40.00000,-2.25743,1.19750
4366,40.00000,-0.00000,13.50000
4367,40.00000,-0.00000,11.93750
4368,40.00000,-0.00000,10.37500
4369,40.00000,-0.00000,8.81250
4370,40.00000,-0.00000,7.25000
4371,40.00000,-0.00000,5.68750
4372,40.00000,-0.00000,4.12500
4373,40.00000,-0.00000,2.56250
4374,40.00000,-0.00000,1.00000
4375,40.00000,0.08682,13.50760
4376,40.00000,0.35815,11.96883
4377,40.00000,0.62947,10.43007
4378,40.00000,0.90080,8.89131
4379,40.00000,1.17213,7.35255
4380,40.00000,1.44345,5.81379
4381,40.00000,1.71478,4.27502
4382,40.00000,1.98610,2.73626
4383,40.00000,2.25743,1.19750
4384,40.00000,0.17101,13.53015
4385,40.00000,0.70542,12.06188
4386,40.00000,1.23982,10.59361
4387,40.00000,1.77423,9.12534
4388,40.00000,2.30864,7.65707
4389,40.00000,2.84304,6.18881
4390,40.00000,3.37745,4.72054
4391,40.00000,3.91186,3.25227
4392,40.00000,4.44626,1.78400
4393,40.00000,0.25000,13.56699
4394,40.00000,1.03125,12.21382
4395,40.00000,1.81250,10.86066
4396,40.00000,2.59375,9.50749
4397,40.00000,3.37500,8.15433
4398,40.00000,4.15625,6.80116
4399,40.00000,4.93750,5.44800
4400,40.00000,5.71875,4.09483
4401,40.00000,6.50000,2.74167
4402,40.00000,0.32139,13.61698
4403,40.00000,1.32575,12.42003
4404,40.00000,2.33011,11.22309
4405,40.00000,3.33446,10.02614
4406,40.00000,4.33882,8.82920
4407,40.00000,5.34317,7.63226
4408,40.00000,6.34753,6.43531
4409,40.00000,7.35188,5.23837
4410,40.00000,8.35624,4.04142
4411,40.00000,0.38302,13.67861
4412,40.00000,1.57997,12.67425
4413,40.00000,2.77691,11.66989
4414,40.00000,3.97386,10.66554
4415,40.00000,5.17080,9.66118
4416,40.00000,6.36774,8.65683
4417,40.00000,7.56469,7.65247
4418,40.00000,8.76163,6.64812
4419,40.00000,9.95858,5.64376
4420,40.00000,0.43301,13.75000
4421,40.00000,1.78618,12.96875
4422,40.00000,3.13934,12.18750
4423,40.00000,4.49251,11.40625
4424,40.00000,5.84567,10.62500
4425,40.00000,7.19884,9.84375
4426,40.00000,8.55200,9.06250
4427,40.00000,9.90517,8.28125
4428,40.00000,11.25833,7.50000
4429,40.00000,0.46985,13.82899
4430,40.00000,1.93812,13.29458
4431,40.00000,3.40639,12.76018
4432,40.00000,4.87466,12.22577
4433,40.00000,6.34293,11.69136
4434,40.00000,7.81119,11.15696
4435,40.00000,9.27946,10.62255
4436,40.00000,10.74773,10.08814
4437,40.00000,12.21600,9.55374
4438,40.00000,0.49240,13.91318
4439,40.00000,2.03117,13.64185
4440,40.00000,3.56993,13.37053
4441,40.00000,5.10869,13.09920
4442,40.00000,6.64745,12.82787
4443,40.00000,8.18621,12.55655
4444,40.00000,9.72498,12.28522
4445,40.00000,11.26374,12.01390
4446,40.00000,12.80250,11.74257
4447,40.00000,0.50000,14.00000
4448,40.00000,2.06250,14.00000
4449,40.00000,3.62500,14.00000
4450,40.00000,5.18750,14.00000
4451,40.00000,6.75000,14.00000
4452,40.00000,8.31250,14.00000
4453,40.00000,9.87500,14.00000
4454,40.00000,11.43750,14.00000
4455,40.00000,13.00000,14.00000
4456,45.00000,0.50000,14.00000
4457,45.00000,2.06250,14.00000
4458,45.00000,3.62500,14.00000
4459,45.00000,5.18750,14.00000
4460,45.00000,6.75000,14.00000
4461,45.00000,8.31250,14.00000
4462,45.00000,9.87500,14.00000
4463,45.00000,11.43750,14.00000
4464,45.00000,13.00000,14.00000
4465,45.00000,0.49240,14.08682
4466,45.00000,2.03117,14.35815
4467,45.00000,3.56993,14.62947
4468,45.00000,5.10869,14.90080
4469,45.00000,6.64745,15.17213
4470,45.00000,8.18621,15.44345
4471,45.00000,9.72498,15.71478
4472,45.00000,11.26374,15.98610
4473,45.00000,12.80250,16.25743
4474,45.00000,0.46985,14.17101
4475,45.00000,1.93812,14.70542
4476,45.00000,3.40639,15.23982
4477,45.00000,4.87466,15.77423
4478,45.00000,6.34293,16.30864
4479,45.00000,7.81119,16.84304
4480,45.00000,9.27946,17.37745
4481,45.00000,10.74773,17.91186
4482,45.00000,12.21600,18.44626
4483,45.00000,0.43301,14.25000
4484,45.00000,1.78618,15.03125
4485,45.00000,3.13934,15.81250
4486,45.00000,4.49251,16.59375
4487,45.00000,5.84567,17.37500
4488,45.00000,7.19884,18.15625
4489,45.00000,8.55200,18.93750
4490,45.00000,9.90517,19.71875
4491,45.00000,11.25833,20.50000
4492,45.00000,0.38302,14.32139
4493,45.00000,1.57997,15.32575
4494,45.00000,2.77691,16.33011
4495,45.00000,3.97386,17.33446
4496,45.00000,5.17080,18.33882
4497,45.00000,6.36774,19.34317
4498,45.00000,7.56469,20.34753
4499,45.00000,8.76163,21.35188
4500,45.00000,9.95858,22.35624
4501,45.00000,0.32139,14.38302
4502,45.00000,1.32575,15.57997
4503,45.00000,2.33011,16.77691
4504,45.00000,3.33446,17.97386
4505,45.00000,4.33882,19.17080
4506,45.00000,5.34317,20.36774
4507,45.00000,6.34753,21.56469
4508,45.00000,7.35188,22.76163
4509,45.00000,8.35624,23.95858
4510,45.00000,0.25000,14.43301
4511,45.00000,1.03125,15.78618
4512,45.00000,1.81250,17.13934
4513,45.00000,2.59375,18.49251
4514,45.00000,3.37500,19.84567
4515,45.00000,4.15625,21.19884
4516,45.00000,4.93750,22.55200
4517,45.00000,5.71875,23.90517
4518,45.00000,6.50000,25.25833
4519,45.00000,0.17101,14.46985
4520,45.00000,0.70542,15.93812
4521,45.00000,1.23982,17.40639
4522,45.00000,1.77423,18.87466
4523,45.00000,2.30864,20.34293
4524,45.00000,2.84304,21.81119
4525,45.00000,3.37745,23.27946
4526,45.00000,3.91186,24.74773
4527,45.00000,4.44626,26.21600
4528,45.00000,0.08682,14.49240
4529,45.00000,0.35815,16.03117
4530,45.00000,0.62947,17.56993
4531,45.00000,0.90080,19.10869
4532,45.00000,1.17213,20.64745
4533,45.00000,1.44345,22.18621
4534,45.00000,1.71478,23.72498
4535,45.00000,1.98610,25.26374
4536,45.00000,2.25743,26.80250
4537,45.00000,0.00000,14.50000
4538,45.00000,0.00000,16.06250
4539,45.00000,0.00000,17.62500
4540,45.00000,0.00000,19.18750
4541,45.00000,0.00000,20.75000
4542,45.00000,0.00000,22.31250
4543,45.00000,0.00000,23.87500
4544,45.00000,0.00000,25.43750
4545,45.00000,0.00000,27.00000
4546,45.00000,-0.08682,14.49240
4547,45.00000,-0.35815,16.03117
4548,45.00000,-0.62947,17.56993
4549,45.00000,-0.90080,19.10869
4550,45.00000,-1.17213,20.64745
4551,45.00000,-1.44345,22.18621
4552,45.00000,-1.71478,23.72498
4553,45.00000,-1.98610,25.26374
4554,45.00000,-2.25743,26.80250
4555,45.00000,-0.17101,14.46985
4556,45.00000,-0.70542,15.93812
4557,45.00000,-1.23982,17.40639
4558,45.00000,-1.77423,18.87466
4559,45.00000,-2.30864,20.34293
4560,45.00000,-2.84304,21.81119
4561,45.00000,-3.37745,23.27946
4562,45.00000,-3.91186,24.74773
4563,45.00000,-4.44626,26.21600
4564,45.00000,-0.25000,14.43301
4565,45.00000,-1.03125,15.78618
4566,45.00000,-1.81250,17.13934
4567,45.00000,-2.59375,18.49251
4568,45.00000,-3.37500,19.84567
4569,45.00000,-4.15625,21.19884
4570,45.00000,-4.93750,22.55200
4571,45.00000,-5.71875,23.90517
4572,45.00000,-6.50000,25.25833
4573,45.00000,-0.32139,14.38302
4574,45.00000,-1.32575,15.57997
4575,45.00000,-2.33011,16.77691
4576,45.00000,-3.33446,17.97386
4577,45.00000,-4.33882,19.17080
4578,45.00000,-5.34317,20.36774
4579,45.00000,-6.34753,21.56469
4580,45.00000,-7.35188,22.76163
4581,45.00000,-8.35624,23.95858
4582,45.00000,-0.38302,14.32139
4583,45.00000,-1.57997,15.32575
4584,45.00000,-2.77691,16.33011
4585,45.00000,-3.97386,17.33446
4586,45.00000,-5.17080,18.33882
4587,45.00000,-6.36774,19.34317
4588,45.00000,-7.56469,20.34753
4589,45.00000,-8.76163,21.35188
4590,45.00000,-9.95858,22.35624
4591,45.00000,-0.43301,14.25000
4592,45.00000,-1.78618,15.03125
4593,45.00000,-3.13934,15.81250
4594,45.00000,-4.49251,16.59375
4595,45.00000,-5.84567,17.37500
4596,45.00000,-7.19884,18.15625
4597,45.00000,-8.55200,18.93750
4598,45.00000,-9.90517,19.71875
4599,45.00000,-11.25833,20.50000
4600,45.00000,-0.46985,14.17101
4601,45.00000,-1.93812,14.70542
4602,45.00000,-3.40639,15.23982
4603,45.00000,-4.87466,15.77423
4604,45.00000,-6.34293,16.30864
4605,45.00000,-7.81119,16.84304
4606,45.00000,-9.27946,17.37745
4607,45.00000,-10.74773,17.91186
4608,45.00000,-12.21600,18.44626
4609,45.00000,-0.49240,14.08682
4610,45.00000,-2.03117,14.35815
4611,45.00000,-3.56993,14.62947
4612,45.00000,-5.10869,14.90080
4613,45.00000,-6.64745,15.17213
4614,45.00000,-8.18621,15.44345
4615,45.00000,-9.72498,15.71478
4616,45.00000,-11.26374,15.98610
4617,45.00000,-12.80250,16.25743
4618,45.00000,-0.50000,14.00000
4619,45.00000,-2.06250,14.00000
4620,45.00000,-3.62500,14.00000
4621,45.00000,-5.18750,14.00000
4622,45.00000,-6.75000,14.00000
4623,45.00000,-8.31250,14.00000
4624,45.00000,-9.87500,14.00000
4625,45.00000,-11.43750,14.00000
4626,45.00000,-13.00000,14.00000
4627,45.00000,-0.49240,13.91318
4628,45.00000,-2.03117,13.64185
4629,45.00000,-3.56993,13.37053
4630,45.00000,-5.10869,13.09920
4631,45.00000,-6.64745,12.82787
4632,45.00000,-8.18621,12.55655
4633,45.00000,-9.72498,12.28522
4634,45.00000,-11.26374,12.01390
4635,45.00000,-12.80250,11.74257
4636,45.00000,-0.46985,13.82899
4637,45.00000,-1.93812,13.29458
4638,45.00000,-3.40639,12.76018
4639,45.00000,-4.87466,12.22577
4640,45.00000,-6.34293,11.69136
4641,45.00000,-7.81119,11.15696
4642,45.00000,-9.27946,10.62255
4643,45.00000,-10.74773,10.08814
4644,45.00000,-12.21600,9.55374
4645,45.00000,-0.43301,13.75000
4646,45.00000,-1.78618,12.96875
4647,45.00000,-3.13934,12.18750
4648,45.00000,-4.49251,11.40625
4649,45.00000,-5.84567,10.62500
4650,45.00000,-7.19884,9.84375
4651,45.00000,-8.55200,9.06250
4652,45.00000,-9.90517,8.28125
4653,45.00000,-11.25833,7.50000
4654,45.00000,-0.38302,13.67861
4655,45.00000,-1.57997,12.67425
4656,45.00000,-2.77691,11.66989
4657,45.00000,-3.97386,10.66554
4658,45.00000,-5.17080,9.66118
4659,45.00000,-6.36774,8.65683
4660,45.00000,-7.56469,7.65247
4661,45.00000,-8.76163,6.64812
4662,45.00000,-9.95858,5.64376
4663,45.00000,-0.32139,13.61698
4664,45.00000,-1.32575,12.42003
4665,45.00000,-2.33011,11.22309
4666,45.00000,-3.33446,10.02614
4667,45.00000,-4.33882,8.82920
4668,45.00000,-5.34317,7.63226
4669,45.00000,-6.34753,6.43531
4670,45.00000,-7.35188,5.23837
4671,45.00000,-8.35624,4.04142
4672,45.00000,-0.25000,13.56699
4673,45.00000,-1.03125,12.21382
4674,45.00000,-1.81250,10.86066
4675,45.00000,-2.59375,9.50749
4676,45.00000,-3.37500,8.15433
4677,45.00000,-4.15625,6.80116
4678,45.00000,-4.93750,5.44800
4679,45.00000,-5.71875,4.09483
4680,45.00000,-6.50000,2.74167
4681,45.00000,-0.17101,13.53015
4682,45.00000,-0.70542,12.06188
4683,45.00000,-1.23982,10.59361
4684,45.00000,-1.77423,9.12534
4685,45.00000,-2.30864,7.65707
4686,45.00000,-2.84304,6.18881
4687,45.00000,-3.37745,4.72054
4688,45.00000,-3.91186,3.25227
4689,45.00000,-4.44626,1.78400
4690,45.00000,-0.08682,13.50760
4691,45.00000,-0.35815,11.96883
4692,45.00000,-0.62947,10.43007
4693,45.00000,-0.90080,8.89131
4694,45.00000,-1.17213,7.35255
4695,45.00000,-1.44345,5.81379
4696,45.00000,-1.71478,4.27502
4697,45.00000,-1.98610,2.73626
4698,45.00000,-2.25743,1.19750
4699,45.00000,-0.00000,13.50000
4700,45.00000,-0.00000,11.93750
4701,45.00000,-0.00000,10.37500
4702,45.00000,-0.00000,8.81250
4703,45.00000,-0.00000,7.25000
4704,45.00000,-0.00000,5.68750
4705,45.00000,-0.00000,4.12500
4706,45.00000,-0.00000,2.56250
4707,45.00000,-0.00000,1.00000
4708,45.00000,0.08682,13.50760
4709,45.00000,0.35815,11.96883
4710,45.00000,0.62947,10.43007
4711,45.00000,0.90080,8.89131
4712,45.00000,1.17213,7.35255
4713,45.00000,1.44345,5.81379
4714,45.00000,1.71478,4.27502
4715,45.00000,1.98610,2.73626
4716,45.00000,2.25743,1.19750
4717,45.00000,0.17101,13.53015
4718,45.00000,0.70542,12.06188
4719,45.00000,1.23982,10.59361
4720,45.00000,1.77423,9.12534
4721,45.00000,2.30864,7.65707
4722,45.00000,2.84304,6.18881
4723,45.00000,3.37745,4.72054
4724,45.00000,3.91186,3.25227
4725,45.00000,4.44626,1.78400
4726,45.00000,0.25000,13.56699
4727,45.00000,1.03125,12.21382
4728,45.00000,1.81250,10.86066
4729,45.00000,2.59375,9.50749
4730,45.00000,3.37500,8.15433
4731,45.00000,4.15625,6.80116
4732,45.00000,4.93750,5.44800
4733,45.00000,5.71875,4.09483
4734,45.00000,6.50000,2.74167
4735,45.00000,0.32139,13.61698
4736,45.00000,1.32575,12.42003
4737,45.00000,2.33011,11.22309
4738,45.00000,3.33446,10.02614
4739,45.00000,4.33882,8.82920
4740,45.00000,5.34317,7.63226
4741,45.00000,6.34753,6.43531
4742,45.00000,7.35188,5.23837
4743,45.00000,8.35624,4.04142
4744,45.00000,0.38302,13.67861
4745,45.00000,1.57997,12.67425
4746,45.00000,2.77691,11.66989
4747,45.00000,3.97386,10.66554
4748,45.00000,5.17080,9.66118
4749,45.00000,6.36774,8.65683
4750,45.00000,7.56469,7.65247
4751,45.00000,8.76163,6.64812
4752,45.00000,9.95858,5.64376
4753,45.00000,0.43301,13.75000
4754,45.00000,1.78618,12.96875
4755,45.00000,3.13934,12.18750
4756,45.00000,4.49251,11.40625
4757,45.00000,5.84567,10.62500
4758,45.00000,7.19884,9.84375
4759,45.00000,8.55200,9.06250
4760,45.00000,9.90517,8.28125
4761,45.00000,11.25833,7.50000
4762,45.00000,0.46985,13.82899
4763,45.00000,1.93812,13.29458
4764,45.00000,3.40639,12.76018
4765,45.00000,4.87466,12.22577
4766,45.00000,6.34293,11.69136
4767,45.00000,7.81119,11.15696
4768,45.00000,9.27946,10.62255
4769,45.00000,10.74773,10.08814
4770,45.00000,12.21600,9.55374
4771,45.00000,0.49240,13.91318
4772,45.00000,2.03117,13.64185
4773,45.00000,3.56993,13.37053
4774,45.00000,5.10869,13.09920
4775,45.00000,6.64745,12.82787
4776,45.00000,8.18621,12.55655
4777,45.00000,9.72498,12.28522
4778,45.00000,11.26374,12.01390
4779,45.00000,12.80250,11.74257
4780,45.00000,0.50000,14.00000
4781,45.00000,2.06250,14.00000
4782,45.00000,3.62500,14.00000
4783,45.00000,5.18750,14.00000
4784,45.00000,6.75000,14.00000
4785,45.00000,8.31250,14.00000
4786,45.00000,9.87500,14.00000
4787,45.00000,11.43750,14.00000
4788,45.00000,13.00000,14.00000
4789,50.00000,0.50000,14.00000
4790,50.00000,2.06250,14.00000
4791,50.00000,3.62500,14.00000
4792,50.00000,5.18750,14.00000
4793,50.00000,6.75000,14.00000
4794,50.00000,8.31250,14.00000
4795,50.00000,9.87500,14.00000
4796,50.00000,11.43750,14.00000
4797,50.00000,13.00000,14.00000
4798,50.00000,0.49240,14.08682
4799,50.00000,2.03117,14.35815
4800,50.00000,3.56993,14.62947
4801,50.00000,5.10869,14.90080
4802,50.00000,6.64745,15.17213
4803,50.00000,8.18621,15.44345
4804,50.00000,9.72498,15.71478
4805,50.00000,11.26374,15.98610
4806,50.00000,12.80250,16.25743
4807,50.00000,0.46985,14.17101
4808,50.00000,1.93812,14.70542
4809,50.00000,3.40639,15.23982
4810,50.00000,4.87466,15.77423
4811,50.00000,6.34293,16.30864
4812,50.00000,7.81119,16.84304
4813,50.00000,9.27946,17.37745
4814,50.00000,10.74773,17.91186
4815,50.00000,12.21600,18.44626
4816,50.00000,0.43301,14.25000
4817,50.00000,1.78618,15.03125
4818,50.00000,3.13934,15.81250
4819,50.00000,4.49251,16.59375
4820,50.00000,5.84567,17.37500
4821,50.00000,7.19884,18.15625
4822,50.00000,8.55200,18.93750
4823,50.00000,9.90517,19.71875
4824,50.00000,11.25833,20.50000
4825,50.00000,0.38302,14.32139
4826,50.00000,1.57997,15.32575
4827,50.00000,2.77691,16.33011
4828,50.00000,3.97386,17.33446
4829,50.00000,5.17080,18.33882
4830,50.00000,6.36774,19.34317
4831,50.00000,7.56469,20.34753
4832,50.00000,8.76163,21.35188
4833,50.00000,9.95858,22.35624
4834,50.00000,0.32139,14.38302
4835,50.00000,1.32575,15.57997
4836,50.00000,2.33011,16.77691
4837,50.00000,3.33446,17.97386
4838,50.00000,4.33882,19.17080
4839,50.00000,5.34317,20.36774
4840,50.00000,6.34753,21.56469
4841,50.00000,7.35188,22.76163
4842,50.00000,8.35624,23.95858
4843,50.00000,0.25000,14.43301
4844,50.00000,1.03125,15.78618
4845,50.00000,1.81250,17.13934
4846,50.00000,2.59375,18.49251
4847,50.00000,3.37500,19.84567
4848,50.00000,4.15625,21.19884
4849,50.00000,4.93750,22.55200
4850,50.00000,5.71875,23.90517
4851,50.00000,6.50000,25.25833
4852,50.00000,0.17101,14.46985
4853,50.00000,0.70542,15.93812
4854,50.00000,1.23982,17.40639
4855,50.00000,1.77423,18.87466
4856,50.00000,2.30864,20.34293
4857,50.00000,2.84304,21.81119
4858,50.00000,3.37745,23.27946
4859,50.00000,3.91186,24.74773
4860,50.00000,4.44626,26.21600
4861,50.00000,0.08682,14.49240
4862,50.00000,0.35815,16.03117
4863,50.00000,0.62947,17.56993
4864,50.00000,0.90080,19.10869
4865,50.00000,1.17213,20.64745
4866,50.00000,1.44345,22.18621
4867,50.00000,1.71478,23.72498
4868,50.00000,1.98610,25.26374
4869,50.00000,2.25743,26.80250
4870,50.00000,0.00000,14.50000
4871,50.00000,0.00000,16.06250
4872,50.00000,0.00000,17.62500
4873,50.00000,0.00000,19.18750
4874,50.00000,0.00000,20.75000
4875,50.00000,0.00000,22.31250
4876,50.00000,0.00000,23.87500
4877,50.00000,0.00000,25.43750
4878,50.00000,0.00000,27.00000
4879,50.00000,-0.08682,14.49240
4880,50.00000,-0.35815,16.03117
4881,50.00000,-0.62947,17.56993
4882,50.00000,-0.90080,19.10869
4883,50.00000,-1.17213,20.64745
4884,50.00000,-1.44345,22.18621
4885,50.00000,-1.71478,23.72498
4886,50.00000,-1.98610,25.26374
4887,50.00000,-2.25743,26.80250
4888,50.00000,-0.17101,14.46985
4889,50.00000,-0.70542,15.93812
4890,50.00000,-1.23982,17.40639
4891,50.00000,-1.77423,18.87466
4892,50.00000,-2.30864,20.34293
4893,50.00000,-2.84304,21.81119
4894,50.00000,-3.37745,23.27946
4895,50.00000,-3.91186,24.74773
4896,50.00000,-4.44626,26.21600
4897,50.00000,-0.25000,14.43301
4898,50.00000,-1.03125,15.78618
4899,50.00000,-1.81250,17.13934
4900,50.00000,-2.59375,18.49251
4901,50.00000,-3.37500,19.84567
4902,50.00000,-4.15625,21.19884
4903,50.00000,-4.93750,22.55200
4904,50.00000,-5.71875,23.90517
4905,50.00000,-6.50000,25.25833
4906,50.00000,-0.32139,14.38302
4907,50.00000,-1.32575,15.57997
4908,50.00000,-2.33011,16.77691
4909,50.00000,-3.33446,17.97386
4910,50.00000,-4.33882,19.17080
4911,50.00000,-5.34317,20.36774
4912,50.00000,-6.34753,21.56469
4913,50.00000,-7.35188,22.76163
4914,50.00000,-8.35624,23.95858
4915,50.00000,-0.38302,14.32139
4916,50.00000,-1.57997,15.32575
4917,50.00000,-2.77691,16.33011
4918,50.00000,-3.97386,17.33446
4919,50.00000,-5.17080,18.33882
4920,50.00000,-6.36774,19.34317
4921,50.00000,-7.56469,20.34753
4922,50.00000,-8.76163,21.35188
4923,50.00000,-9.95858,22.35624
4924,50.00000,-0.43301,14.25000
4925,50.00000,-1.78618,15.03125
4926,50.00000,-3.13934,15.81250
4927,50.00000,-4.49251,16.59375
4928,50.00000,-5.84567,17.37500
4929,50.00000,-7.19884,18.15625
4930,50.00000,-8.55200,18.93750
4931,50.00000,-9.90517,19.71875
4932,50.00000,-11.25833,20.50000
4933,50.00000,-0.46985,14.17101
4934,50.00000,-1.93812,14.70542
4935,50.00000,-3.40639,15.23982
4936,50.00000,-4.87466,15.77423
4937,50.00000,-6.34293,16.30864
4938,50.00000,-7.81119,16.84304
4939,50.00000,-9.27946,17.37745
4940,50.00000,-10.74773,17.91186
4941,50.00000,-12.21600,18.44626
4942,50.00000,-0.49240,14.08682
4943,50.00000,-2.03117,14.35815
4944,50.00000,-3.56993,14.62947
4945,50.00000,-5.10869,14.90080
4946,50.00000,-6.64745,15.17213
4947,50.00000,-8.18621,15.44345
4948,50.00000,-9.72498,15.71478
4949,50.00000,-11.26374,15.98610
4950,50.00000,-12.80250,16.25743
4951,50.00000,-0.50000,14.00000
4952,50.00000,-2.06250,14.00000
4953,50.00000,-3.62500,14.00000
4954,50.00000,-5.18750,14.00000
4955,50.00000,-6.75000,14.00000
4956,50.00000,-8.31250,14.00000
4957,50.00000,-9.87500,14.00000
4958,50.00000,-11.43750,14.00000
4959,50.00000,-13.00000,14.00000
4960,50.00000,-0.49240,13.91318
4961,50.00000,-2.03117,13.64185
4962,50.00000,-3.56993,13.37053
4963,50.00000,-5.10869,13.09920
4964,50.00000,-6.64745,12.82787
4965,50.00000,-8.18621,12.55655
4966,50.00000,-9.72498,12.28522
4967,50.00000,-11.26374,12.01390
4968,50.00000,-12.80250,11.74257
4969,50.00000,-0.46985,13.82899
4970,50.00000,-1.93812,13.29458
4971,50.00000,-3.40639,12.76018
4972,50.00000,-4.87466,12.22577
4973,50.00000,-6.34293,11.69136
4974,50.00000,-7.81119,11.15696
4975,50.00000,-9.27946,10.62255
4976,50.00000,-10.74773,10.08814
4977,50.00000,-12.21600,9.55374
4978,50.00000,-0.43301,13.75000
4979,50.00000,-1.78618,12.96875
4980,50.00000,-3.13934,12.18750
4981,50.00000,-4.49251,11.40625
4982,50.00000,-5.84567,10.62500
4983,50.00000,-7.19884,9.84375
4984,50.00000,-8.55200,9.06250
4985,50.00000,-9.90517,8.28125
4986,50.00000,-11.25833,7.50000
4987,50.00000,-0.38302,13.67861
4988,50.00000,-1.57997,12.67425
4989,50.00000,-2.77691,11.66989
4990,50.00000,-3.97386,10.66554
4991,50.00000,-5.17080,9.66118
4992,50.00000,-6.36774,8.65683
4993,50.00000,-7.56469,7.65247
4994,50.00000,-8.76163,6.64812
4995,50.00000,-9.95858,5.64376
4996,50.00000,-0.32139,13.61698
4997,50.00000,-1.32575,12.42003
4998,50.00000,-2.33011,11.22309
4999,50.00000,-3.33446,10.02614
5000,50.00000,-4.33882,8.82920
5001,50.00000,-5.34317,7.63226
5002,50.00000,-6.34753,6.43531
5003,50.00000,-7.35188,5.23837
5004,50.00000,-8.35624,4.04142
5005,50.00000,-0.25000,13.56699
5006,50.00000,-1.03125,12.21382
5007,50.00000,-1.81250,10.86066
5008,50.00000,-2.59375,9.50749
5009,50.00000,-3.37500,8.15433
5010,50.00000,-4.15625,6.80116
5011,50.00000,-4.93750,5.44800
5012,50.00000,-5.71875,4.09483
5013,50.00000,-6.50000,2.74167
5014,50.00000,-0.17101,13.53015
5015,50.00000,-0.70542,12.06188
5016,50.00000,-1.23982,10.59361
5017,50.00000,-1.77423,9.12534
5018,50.00000,-2.30864,7.65707
5019,50.00000,-2.84304,6.18881
5020,50.00000,-3.37745,4.72054
5021,50.00000,-3.91186,3.25227
5022,50.00000,-4.44626,1.78400
5023,50.00000,-0.08682,13.50760
5024,50.00000,-0.35815,11.96883
5025,50.00000,-0.62947,10.43007
5026,50.00000,-0.90080,8.89131
5027,50.00000,-1.17213,7.35255
5028,50.00000,-1.44345,5.81379
5029,50.00000,-1.71478,4.27502
5030,50.00000,-1.98610,2.73626
5031,50.00000,-2.25743,1.19750
5032,50.00000,-0.00000,13.50000
5033,50.00000,-0.00000,11.93750
5034,50.00000,-0.00000,10.37500
5035,50.00000,-0.00000,8.81250
5036,50.00000,-0.00000,7.25000
5037,50.00000,-0.00000,5.68750
5038,50.00000,-0.00000,4.12500
5039,50.00000,-0.00000,2.56250
5040,50.00000,-0.00000,1.00000
5041,50.00000,0.08682,13.50760
5042,50.00000,0.35815,11.96883
5043,50.00000,0.62947,10.43007
5044,50.00000,0.90080,8.89131
5045,50.00000,1.17213,7.35255
5046,50.00000,1.44345,5.81379
5047,50.00000,1.71478,4.27502
5048,50.00000,1.98610,2.73626
5049,50.00000,2.25743,1.19750
5050,50.00000,0.17101,13.53015
5051,50.00000,0.70542,12.06188
5052,50.00000,1.23982,10.59361
5053,50.00000,1.77423,9.12534
5054,50.00000,2.30864,7.65707
5055,50.00000,2.84304,6.18881
5056,50.00000,3.37745,4.72054
5057,50.00000,3.91186,3.25227
5058,50.00000,4.44626,1.78400
5059,50.00000,0.25000,13.56699
5060,50.00000,1.03125,12.21382
5061,50.00000,1.81250,10.86066
5062,50.00000,2.59375,9.50749
5063,50.00000,3.37500,8.15433
5064,50.00000,4.15625,6.80116
5065,50.00000,4.93750,5.44800
5066,50.00000,5.71875,4.09483
5067,50.00000,6.50000,2.74167
5068,50.00000,0.32139,13.61698
5069,50.00000,1.32575,12.42003
5070,50.00000,2.33011,11.22309
5071,50.00000,3.33446,10.02614
5072,50.00000,4.33882,8.82920
5073,50.00000,5.34317,7.63226
5074,50.00000,6.34753,6.43531
5075,50.00000,7.35188,5.23837
5076,50.00000,8.35624,4.04142
5077,50.00000,0.38302,13.67861
5078,50.00000,1.57997,12.67425
5079,50.00000,2.77691,11.66989
5080,50.00000,3.97386,10.66554
5081,50.00000,5.17080,9.66118
5082,50.00000,6.36774,8.65683
5083,50.00000,7.56469,7.65247
5084,50.00000,8.76163,6.64812
5085,50.00000,9.95858,5.64376
5086,50.00000,0.43301,13.75000
5087,50.00000,1.78618,12.96875
5088,50.00000,3.13934,12.18750
5089,50.00000,4.49251,11.40625
5090,50.00000,5.84567,10.62500
5091,50.00000,7.19884,9.84375
5092,50.00000,8.55200,9.06250
5093,50.00000,9.90517,8.28125
5094,50.00000,11.25833,7.50000
5095,50.00000,0.46985,13.82899
5096,50.00000,1.93812,13.29458
5097,50.00000,3.40639,12.76018
5098,50.00000,4.87466,12.22577
5099,50.00000,6.34293,11.69136
5100,50.00000,7.81119,11.15696
5101,50.00000,9.27946,10.62255
5102,50.00000,10.74773,10.08814
5103,50.00000,12.21600,9.55374
5104,50.00000,0.49240,13.91318
5105,50.00000,2.03117,13.64185
5106,50.00000,3.56993,13.37053
5107,50.00000,5.10869,13.09920
5108,50.00000,6.64745,12.82787
5109,50.00000,8.18621,12.55655
5110,50.00000,9.72498,12.28522
5111,50.00000,11.26374,12.01390
5112,50.00000,12.80250,11.74257
5113,50.00000,0.50000,14.00000
5114,50.00000,2.06250,14.00000
5115,50.00000,3.62500,14.00000
5116,50.00000,5.18750,14.00000
5117,50.00000,6.75000,14.00000
5118,50.00000,8.31250,14.00000
5119,50.00000,9.87500,14.00000
5120,50.00000,11.43750,14.00000
5121,50.00000,13.00000,14.00000
5122,55.00000,0.50000,14.00000
5123,55.00000,2.06250,14.00000
5124,55.00000,3.62500,14.00000
5125,55.00000,5.18750,14.00000
5126,55.00000,6.75000,14.00000
5127,55.00000,8.31250,14.00000
5128,55.00000,9.87500,14.00000
5129,55.00000,11.43750,14.00000
5130,55.00000,13.00000,14.00000
5131,55.00000,0.49240,14.08682
5132,55.00000,2.03117,14.35815
5133,55.00000,3.56993,14.62947
5134,55.00000,5.10869,14.90080
5135,55.00000,6.64745,15.17213
5136,55.00000,8.18621,15.44345
5137,55.00000,9.72498,15.71478
5138,55.00000,11.26374,15.98610
5139,55.00000,12.80250,16.25743
5140,55.00000,0.46985,14.17101
5141,55.00000,1.93812,14.70542
5142,55.00000,3.40639,15.23982
5143,55.00000,4.87466,15.77423
5144,55.00000,6.34293,16.30864
5145,55.00000,7.81119,16.84304
5146,55.00000,9.27946,17.37745
5147,55.00000,10.74773,17.91186
5148,55.00000,12.21600,18.44626
5149,55.00000,0.43301,14.25000
5150,55.00000,1.78618,15.03125
5151,55.00000,3.13934,15.81250
5152,55.00000,4.49251,16.59375
5153,55.00000,5.84567,17.37500
5154,55.00000,7.19884,18.15625
5155,55.00000,8.55200,18.93750
5156,55.00000,9.90517,19.71875
5157,55.00000,11.25833,20.50000
5158,55.00000,0.38302,14.32139
5159,55.00000,1.57997,15.32575
5160,55.00000,2.77691,16.33011
5161,55.00000,3.97386,17.33446
5162,55.00000,5.17080,18.33882
5163,55.00000,6.36774,19.34317
5164,55.00000,7.56469,20.34753
5165,55.00000,8.76163,21.35188
5166,55.00000,9.95858,22.35624
5167,55.00000,0.32139,14.38302
5168,55.00000,1.32575,15.57997
5169,55.00000,2.33011,16.77691
5170,55.00000,3.33446,17.97386
5171,55.00000,4.33882,19.17080
5172,55.00000,5.34317,20.36774
5173,55.00000,6.34753,21.56469
5174,55.00000,7.35188,22.76163
5175,55.00000,8.35624,23.95858
5176,55.00000,0.25000,14.43301
5177,55.00000,1.03125,15.78618
5178,55.00000,1.81250,17.13934
5179,55.00000,2.59375,18.49251
5180,55.00000,3.37500,19.84567
5181,55.00000,4.15625,21.19884
5182,55.00000,4.93750,22.55200
5183,55.00000,5.71875,23.90517
5184,55.00000,6.50000,25.25833
5185,55.00000,0.17101,14.46985
5186,55.00000,0.70542,15.93812
5187,55.00000,1.23982,17.40639
5188,55.00000,1.77423,18.87466
5189,55.00000,2.30864,20.34293
5190,55.00000,2.84304,21.81119
5191,55.00000,3.37745,23.27946
5192,55.00000,3.91186,24.74773
5193,55.00000,4.44626,26.21600
5194,55.00000,0.08682,14.49240
5195,55.00000,0.35815,16.03117
5196,55.00000,0.62947,17.56993
5197,55.00000,0.90080,19.10869
5198,55.00000,1.17213,20.64745
5199,55.00000,1.44345,22.18621
5200,55.00000,1.71478,23.72498
5201,55.00000,1.98610,25.26374
5202,55.00000,2.25743,26.80250
5203,55.00000,0.00000,14.50000
5204,55.00000,0.00000,16.06250
5205,55.00000,0.00000,17.62500
5206,55.00000,0.00000,19.18750
5207,55.00000,0.00000,20.75000
5208,55.00000,0.00000,22.31250
5209,55.00000,0.00000,23.87500
5210,55.00000,0.00000,25.43750
5211,55.00000,0.00000,27.00000
5212,55.00000,-0.08682,14.49240
5213,55.00000,-0.35815,16.03117
5214,55.00000,-0.62947,17.56993
5215,55.00000,-0.90080,19.10869
5216,55.00000,-1.17213,20.64745
5217,55.00000,-1.44345,22.18621
5218,55.00000,-1.71478,23.72498
5219,55.00000,-1.98610,25.26374
5220,55.00000,-2.25743,26.80250
5221,55.00000,-0.17101,14.46985
5222,55.00000,-0.70542,15.93812
5223,55.00000,-1.23982,17.40639
5224,55.00000,-1.77423,18.87466
5225,55.00000,-2.30864,20.34293
5226,55.00000,-2.84304,21.81119
5227,55.00000,-3.37745,23.27946
5228,55.00000,-3.91186,24.74773
5229,55.00000,-4.44626,26.21600
5230,55.00000,-0.25000,14.43301
5231,55.00000,-1.03125,15.78618
5232,55.00000,-1.81250,17.13934
5233,55.00000,-2.59375,18.49251
5234,55.00000,-3.37500,19.84567
5235,55.00000,-4.15625,21.19884
5236,55.00000,-4.93750,22.55200
5237,55.00000,-5.71875,23.90517
5238,55.00000,-6.50000,25.25833
5239,55.00000,-0.32139,14.38302
5240,55.00000,-1.32575,15.57997
5241,55.00000,-2.33011,16.77691
5242,55.00000,-3.33446,17.97386
5243,55.00000,-4.33882,19.17080
5244,55.00000,-5.34317,20.36774
5245,55.00000,-6.34753,21.56469
5246,55.00000,-7.35188,22.76163
5247,55.00000,-8.35624,23.95858
5248,55.00000,-0.38302,14.32139
5249,55.00000,-1.57997,15.32575
5250,55.00000,-2.77691,16.33011
5251,55.00000,-3.97386,17.33446
5252,55.00000,-5.17080,18.33882
5253,55.00000,-6.36774,19.34317
5254,55.00000,-7.56469,20.34753
5255,55.00000,-8.76163,21.35188
5256,55.00000,-9.95858,22.35624
5257,55.00000,-0.43301,14.25000
5258,55.00000,-1.78618,15.03125
5259,55.00000,-3.13934,15.81250
5260,55.00000,-4.49251,16.59375
5261,55.00000,-5.84567,17.37500
5262,55.00000,-7.19884,18.15625
5263,55.00000,-8.55200,18.93750
5264,55.00000,-9.90517,19.71875
5265,55.00000,-11.25833,20.50000
5266,55.00000,-0.46985,14.17101
5267,55.00000,-1.93812,14.70542
5268,55.00000,-3.40639,15.23982
5269,55.00000,-4.87466,15.77423
5270,55.00000,-6.34293,16.30864
5271,55.00000,-7.81119,16.84304
5272,55.00000,-9.27946,17.37745
5273,55.00000,-10.74773,17.91186
5274,55.00000,-12.21600,18.44626
5275,55.00000,-0.49240,14.08682
5276,55.00000,-2.03117,14.35815
5277,55.00000,-3.56993,14.62947
5278,55.00000,-5.10869,14.90080
5279,55.00000,-6.64745,15.17213
5280,55.00000,-8.18621,15.44345
5281,55.00000,-9.72498,15.71478
5282,55.00000,-11.26374,15.98610
5283,55.00000,-12.80250,16.25743
5284,55.00000,-0.50000,14.00000
5285,55.00000,-2.06250,14.00000
5286,55.00000,-3.62500,14.00000
5287,55.00000,-5.18750,14.00000
5288,55.00000,-6.75000,14.00000
5289,55.00000,-8.31250,14.00000
5290,55.00000,-9.87500,14.00000
5291,55.00000,-11.43750,14.00000
5292,55.00000,-13.00000,14.00000
5293,55.00000,-0.49240,13.91318
5294,55.00000,-2.03117,13.64185
5295,55.00000,-3.56993,13.37053
5296,55.00000,-5.10869,13.09920
5297,55.00000,-6.64745,12.82787
5298,55.00000,-8.18621,12.55655
5299,55.00000,-9.72498,12.28522
5300,55.00000,-11.26374,12.01390
5301,55.00000,-12.80250,11.74257
5302,55.00000,-0.46985,13.82899
5303,55.00000,-1.93812,13.29458
5304,55.00000,-3.40639,12.76018
5305,55.00000,-4.87466,12.22577
5306,55.00000,-6.34293,11.69136
5307,55.00000,-7.81119,11.15696
5308,55.00000,-9.27946,10.62255
5309,55.00000,-10.74773,10.08814
5310,55.00000,-12.21600,9.55374
5311,55.00000,-0.43301,13.75000
5312,55.00000,-1.78618,12.96875
5313,55.00000,-3.13934,12.18750
5314,55.00000,-4.49251,11.40625
5315,55.00000,-5.84567,10.62500
5316,55.00000,-7.19884,9.84375
5317,55.00000,-8.55200,9.06250
5318,55.00000,-9.90517,8.28125
5319,55.00000,-11.25833,7.50000
5320,55.00000,-0.38302,13.67861
5321,55.00000,-1.57997,12.67425
5322,55.00000,-2.77691,11.66989
5323,55.00000,-3.97386,10.66554
5324,55.00000,-5.17080,9.66118
5325,55.00000,-6.36774,8.65683
5326,55.00000,-7.56469,7.65247
5327,55.00000,-8.76163,6.64812
5328,55.00000,-9.95858,5.64376
5329,55.00000,-0.32139,13.61698
5330,55.00000,-1.32575,12.42003
5331,55.00000,-2.33011,11.22309
5332,55.00000,-3.33446,10.02614
5333,55.00000,-4.33882,8.82920
5334,55.00000,-5.34317,7.63226
5335,55.00000,-6.34753,6.43531
5336,55.00000,-7.35188,5.23837
5337,55.00000,-8.35624,4.04142
5338,55.00000,-0.25000,13.56699
5339,55.00000,-1.03125,12.21382
5340,55.00000,-1.81250,10.86066
5341,55.00000,-2.59375,9.50749
5342,55.00000,-3.37500,8.15433
5343,55.00000,-4.15625,6.80116
5344,55.00000,-4.93750,5.44800
5345,55.00000,-5.71875,4.09483
5346,55.00000,-6.50000,2.74167
5347,55.00000,-0.17101,13.53015
5348,55.00000,-0.70542,12.06188
5349,55.00000,-1.23982,10.59361
5350,55.00000,-1.77423,9.12534
5351,55.00000,-2.30864,7.65707
5352,55.00000,-2.84304,6.18881
5353,55.00000,-3.37745,4.72054
5354,55.00000,-3.91186,3.25227
5355,55.00000,-4.44626,1.78400
5356,55.00000,-0.08682,13.50760
5357,55.00000,-0.35815,11.96883
5358,55.00000,-0.62947,10.43007
5359,55.00000,-0.90080,8.89131
5360,55.00000,-1.17213,7.35255
5361,55.00000,-1.44345,5.81379
5362,55.00000,-1.71478,4.27502
5363,55.00000,-1.98610,2.73626
5364,55.00000,-2.25743,1.19750
5365,55.00000,-0.00000,13.50000
5366,55.00000,-0.00000,11.93750
5367,55.00000,-0.00000,10.37500
5368,55.00000,-0.00000,8.81250
5369,55.00000,-0.00000,7.25000
5370,55.00000,-0.00000,5.68750
5371,55.00000,-0.00000,4.12500
5372,55.00000,-0.00000,2.56250
5373,55.00000,-0.00000,1.00000
5374,55.00000,0.08682,13.50760
5375,55.00000,0.35815,11.96883
5376,55.00000,0.62947,10.43007
5377,55.00000,0.90080,8.89131
5378,55.00000,1.17213,7.35255
5379,55.00000,1.44345,5.81379
5380,55.00000,1.71478,4.27502
5381,55.00000,1.98610,2.73626
5382,55.00000,2.25743,1.19750
5383,55.00000,0.17101,13.53015
5384,55.00000,0.70542,12.06188
5385,55.00000,1.23982,10.59361
5386,55.00000,1.77423,9.12534
5387,55.00000,2.30864,7.65707
5388,55.00000,2.84304,6.18881
5389,55.00000,3.37745,4.72054
5390,55.00000,3.91186,3.25227
5391,55.00000,4.44626,1.78400
5392,55.00000,0.25000,13.56699
5393,55.00000,1.03125,12.21382
5394,55.00000,1.81250,10.86066
5395,55.00000,2.59375,9.50749
5396,55.00000,3.37500,8.15433
5397,55.00000,4.15625,6.80116
5398,55.00000,4.93750,5.44800
5399,55.00000,5.71875,4.09483
5400,55.00000,6.50000,2.74167
5401,55.00000,0.32139,13.61698
5402,55.00000,1.32575,12.42003
5403,55.00000,2.33011,11.22309
5404,55.00000,3.33446,10.02614
5405,55.00000,4.33882,8.82920
5406,55.00000,5.34317,7.63226
5407,55.00000,6.34753,6.43531
5408,55.00000,7.35188,5.23837
5409,55.00000,8.35624,4.04142
5410,55.00000,0.38302,13.67861
5411,55.00000,1.57997,12.67425
5412,55.00000,2.77691,11.66989
5413,55.00000,3.97386,10.66554
5414,55.00000,5.17080,9.66118
5415,55.00000,6.36774,8.65683
5416,55.00000,7.56469,7.65247
5417,55.00000,8.76163,6.64812
5418,55.00000,9.95858,5.64376
5419,55.00000,0.43301,13.75000
5420,55.00000,1.78618,12.96875
5421,55.00000,3.13934,12.18750
5422,55.00000,4.49251,11.40625
5423,55.00000,5.84567,10.62500
5424,55.00000,7.19884,9.84375
5425,55.00000,8.55200,9.06250
5426,55.00000,9.90517,8.28125
5427,55.00000,11.25833,7.50000
5428,55.00000,0.46985,13.82899
5429,55.00000,1.93812,13.29458
5430,55.00000,3.40639,12.76018
5431,55.00000,4.87466,12.22577
5432,55.00000,6.34293,11.69136
5433,55.00000,7.81119,11.15696
5434,55.00000,9.27946,10.62255
5435,55.00000,10.74773,10.08814
5436,55.00000,12.21600,9.55374
5437,55.00000,0.49240,13.91318
5438,55.00000,2.03117,13.64185
5439,55.00000,3.56993,13.37053
5440,55.00000,5.10869,13.09920
5441,55.00000,6.64745,12.82787
5442,55.00000,8.18621,12.55655
5443,55.00000,9.72498,12.28522
5444,55.00000,11.26374,12.01390
5445,55.00000,12.80250,11.74257
5446,55.00000,0.50000,14.00000
5447,55.00000,2.06250,14.00000
5448,55.00000,3.62500,14.00000
5449,55.00000,5.18750,14.00000
5450,55.00000,6.75000,14.00000
5451,55.00000,8.31250,14.00000
5452,55.00000,9.87500,14.00000
5453,55.00000,11.43750,14.00000
5454,55.00000,13.00000,14.00000
5455,60.00000,0.50000,14.00000
5456,60.00000,2.06250,14.00000
5457,60.00000,3.62500,14.00000
5458,60.00000,5.18750,14.00000
5459,60.00000,6.75000,14.00000
5460,60.00000,8.31250,14.00000
5461,60.00000,9.87500,14.00000
5462,60.00000,11.43750,14.00000
5463,60.00000,13.00000,14.00000
5464,60.00000,0.49240,14.08682
5465,60.00000,2.03117,14.35815
5466,60.00000,3.56993,14.62947
5467,60.00000,5.10869,14.90080
5468,60.00000,6.64745,15.17213
5469,60.00000,8.18621,15.44345
5470,60.00000,9.72498,15.71478
5471,60.00000,11.26374,15.98610
5472,60.00000,12.80250,16.25743
5473,60.00000,0.46985,14.17101
5474,60.00000,1.93812,14.70542
5475,60.00000,3.40639,15.23982
5476,60.00000,4.87466,15.77423
5477,60.00000,6.34293,16.30864
5478,60.00000,7.81119,16.84304
5479,60.00000,9.27946,17.37745
5480,60.00000,10.74773,17.91186
5481,60.00000,12.21600,18.44626
5482,60.00000,0.43301,14.25000
5483,60.00000,1.78618,15.03125
5484,60.00000,3.13934,15.81250
5485,60.00000,4.49251,16.59375
5486,60.00000,5.84567,17.37500
5487,60.00000,7.19884,18.15625
5488,60.00000,8.55200,18.93750
5489,60.00000,9.90517,19.71875
5490,60.00000,11.25833,20.50000
5491,60.00000,0.38302,14.32139
5492,60.00000,1.57997,15.32575
5493,60.00000,2.77691,16.33011
5494,60.00000,3.97386,17.33446
5495,60.00000,5.17080,18.33882
5496,60.00000,6.36774,19.34317
5497,60.00000,7.56469,20.34753
5498,60.00000,8.76163,21.35188
5499,60.00000,9.95858,22.35624
5500,60.00000,0.32139,14.38302
5501,60.00000,1.32575,15.57997
5502,60.00000,2.33011,16.77691
5503,60.00000,3.33446,17.97386
5504,60.00000,4.33882,19.17080
5505,60.00000,5.34317,20.36774
5506,60.00000,6.34753,21.56469
5507,60.00000,7.35188,22.76163
5508,60.00000,8.35624,23.95858
5509,60.00000,0.25000,14.43301
5510,60.00000,1.03125,15.78618
5511,60.00000,1.81250,17.13934
5512,60.00000,2.59375,18.49251
5513,60.00000,3.37500,19.84567
5514,60.00000,4.15625,21.19884
5515,60.00000,4.93750,22.55200
5516,60.00000,5.71875,23.90517
5517,60.00000,6.50000,25.25833
5518,60.00000,0.17101,14.46985
5519,60.00000,0.70542,15.93812
5520,60.00000,1.23982,17.40639
5521,60.00000,1.77423,18.87466
5522,60.00000,2.30864,20.34293
5523,60.00000,2.84304,21.81119
5524,60.00000,3.37745,23.27946
5525,60.00000,3.91186,24.74773
5526,60.00000,4.44626,26.21600
5527,60.00000,0.08682,14.49240
5528,60.00000,0.35815,16.03117
5529,60.00000,0.62947,17.56993
5530,60.00000,0.90080,19.10869
5531,60.00000,1.17213,20.64745
5532,60.00000,1.44345,22.18621
5533,60.00000,1.71478,23.72498
5534,60.00000,1.98610,25.26374
5535,60.00000,2.25743,26.80250
5536,60.00000,0.00000,14.50000
5537,60.00000,0.00000,16.06250
5538,60.00000,0.00000,17.62500
5539,60.00000,0.00000,19.18750
5540,60.00000,0.00000,20.75000
5541,60.00000,0.00000,22.31250
5542,60.00000,0.00000,23.87500
5543,60.00000,0.00000,25.43750
5544,60.00000,0.00000,27.00000
5545,60.00000,-0.08682,14.49240
5546,60.00000,-0.35815,16.03117
5547,60.00000,-0.62947,17.56993
5548,60.00000,-0.90080,19.10869
5549,60.00000,-1.17213,20.64745
5550,60.00000,-1.44345,22.18621
5551,60.00000,-1.71478,23.72498
5552,60.00000,-1.98610,25.26374
5553,60.00000,-2.25743,26.80250
5554,60.00000,-0.17101,14.46985
5555,60.00000,-0.70542,15.93812
5556,60.00000,-1.23982,17.40639
5557,60.00000,-1.77423,18.87466
5558,60.00000,-2.30864,20.34293
5559,60.00000,-2.84304,21.81119
5560,60.00000,-3.37745,23.27946
5561,60.00000,-3.91186,24.74773
5562,60.00000,-4.44626,26.21600
5563,60.00000,-0.25000,14.43301
5564,60.00000,-1.03125,15.78618
5565,60.00000,-1.81250,17.13934
5566,60.00000,-2.59375,18.49251
5567,60.00000,-3.37500,19.84567
5568,60.00000,-4.15625,21.19884
5569,60.00000,-4.93750,22.55200
5570,60.00000,-5.71875,23.90517
5571,60.00000,-6.50000,25.25833
5572,60.00000,-0.32139,14.38302
5573,60.00000,-1.32575,15.57997
5574,60.00000,-2.33011,16.77691
5575,60.00000,-3.33446,17.97386
5576,60.00000,-4.33882,19.17080
5577,60.00000,-5.34317,20.36774
5578,60.00000,-6.34753,21.56469
5579,60.00000,-7.35188,22.76163
5580,60.00000,-8.35624,23.95858
5581,60.00000,-0.38302,14.32139
5582,60.00000,-1.57997,15.32575
5583,60.00000,-2.77691,16.33011
5584,60.00000,-3.97386,17.33446
5585,60.00000,-5.17080,18.33882
5586,60.00000,-6.36774,19.34317
5587,60.00000,-7.56469,20.34753
5588,60.00000,-8.76163,21.35188
5589,60.00000,-9.95858,22.35624
5590,60.00000,-0.43301,14.25000
5591,60.00000,-1.78618,15.03125
5592,60.00000,-3.13934,15.81250
5593,60.00000,-4.49251,16.59375
5594,60.00000,-5.84567,17.37500
5595,60.00000,-7.19884,18.15625
5596,60.00000,-8.55200,18.93750
5597,60.00000,-9.90517,19.71875
5598,60.00000,-11.25833,20.50000
5599,60.00000,-0.46985,14.17101
5600,60.00000,-1.93812,14.70542
5601,60.00000,-3.40639,15.23982
5602,60.00000,-4.87466,15.77423
5603,60.00000,-6.34293,16.30864
5604,60.00000,-7.81119,16.84304
5605,60.00000,-9.27946,17.37745
5606,60.00000,-10.74773,17.91186
5607,60.00000,-12.21600,18.44626
5608,60.00000,-0.49240,14.08682
5609,60.00000,-2.03117,14.35815
5610,60.00000,-3.56993,14.62947
5611,60.00000,-5.10869,14.90080
5612,60.00000,-6.64745,15.17213
5613,60.00000,-8.18621,15.44345
5614,60.00000,-9.72498,15.71478
5615,60.00000,-11.26374,15.98610
5616,60.00000,-12.80250,16.25743
5617,60.00000,-0.50000,14.00000
5618,60.00000,-2.06250,14.00000
5619,60.00000,-3.62500,14.00000
5620,60.00000,-5.18750,14.00000
5621,60.00000,-6.75000,14.00000
5622,60.00000,-8.31250,14.00000
5623,60.00000,-9.87500,14.00000
5624,60.00000,-11.43750,14.00000
5625,60.00000,-13.00000,14.00000
5626,60.00000,-0.49240,13.91318
5627,60.00000,-2.03117,13.64185
5628,60.00000,-3.56993,13.37053
5629,60.00000,-5.10869,13.09920
5630,60.00000,-6.64745,12.82787
5631,60.00000,-8.18621,12.55655
5632,60.00000,-9.72498,12.28522
5633,60.00000,-11.26374,12.01390
5634,60.00000,-12.80250,11.74257
5635,60.00000,-0.46985,13.82899
5636,60.00000,-1.93812,13.29458
5637,60.00000,-3.40639,12.76018
5638,60.00000,-4.87466,12.22577
5639,60.00000,-6.34293,11.69136
5640,60.00000,-7.81119,11.15696
5641,60.00000,-9.27946,10.62255
5642,60.00000,-10.74773,10.08814
5643,60.00000,-12.21600,9.55374
5644,60.00000,-0.43301,13.75000
5645,60.00000,-1.78618,12.96875
5646,60.00000,-3.13934,12.18750
5647,60.00000,-4.49251,11.40625
5648,60.00000,-5.84567,10.62500
5649,60.00000,-7.19884,9.84375
5650,60.00000,-8.55200,9.06250
5651,60.00000,-9.90517,8.28125
5652,60.00000,-11.25833,7.50000
5653,60.00000,-0.38302,13.67861
5654,60.00000,-1.57997,12.67425
5655,60.00000,-2.77691,11.66989
5656,60.00000,-3.97386,10.66554
5657,60.00000,-5.17080,9.66118
5658,60.00000,-6.36774,8.65683
5659,60.00000,-7.56469,7.65247
5660,60.00000,-8.76163,6.64812
5661,60.00000,-9.95858,5.64376
5662,60.00000,-0.32139,13.61698
5663,60.00000,-1.32575,12.42003
5664,60.00000,-2.33011,11.22309
5665,60.00000,-3.33446,10.02614
5666,60.00000,-4.33882,8.82920
5667,60.00000,-5.34317,7.63226
5668,60.00000,-6.34753,6.43531
5669,60.00000,-7.35188,5.23837
5670,60.00000,-8.35624,4.04142
5671,60.00000,-0.25000,13.56699
5672,60.00000,-1.03125,12.21382
5673,60.00000,-1.81250,10.86066
5674,60.00000,-2.59375,9.50749
5675,60.00000,-3.37500,8.15433
5676,60.00000,-4.15625,6.80116
5677,60.00000,-4.93750,5.44800
5678,60.00000,-5.71875,4.09483
5679,60.00000,-6.50000,2.74167
5680,60.00000,-0.17101,13.53015
5681,60.00000,-0.70542,12.06188
5682,60.00000,-1.23982,10.59361
5683,60.00000,-1.77423,9.12534
5684,60.00000,-2.30864,7.65707
5685,60.00000,-2.84304,6.18881
5686,60.00000,-3.37745,4.72054
5687,60.00000,-3.91186,3.25227
5688,60.00000,-4.44626,1.78400
5689,60.00000,-0.08682,13.50760
5690,60.00000,-0.35815,11.96883
5691,60.00000,-0.62947,10.43007
5692,60.00000,-0.90080,8.89131
5693,60.00000,-1.17213,7.35255
5694,60.00000,-1.44345,5.81379
5695,60.00000,-1.71478,4.27502
5696,60.00000,-1.98610,2.73626
5697,60.00000,-2.25743,1.19750
5698,60.00000,-0.00000,13.50000
5699,60.00000,-0.00000,11.93750
5700,60.00000,-0.00000,10.37500
5701,60.00000,-0.00000,8.81250
5702,60.00000,-0.00000,7.25000
5703,60.00000,-0.00000,5.68750
5704,60.00000,-0.00000,4.12500
5705,60.00000,-0.00000,2.56250
5706,60.00000,-0.00000,1.00000
5707,60.00000,0.08682,13.50760
5708,60.00000,0.35815,11.96883
5709,60.00000,0.62947,10.43007
5710,60.00000,0.90080,8.89131
5711,60.00000,1.17213,7.35255
5712,60.00000,1.44345,5.81379
5713,60.00000,1.71478,4.27502
5714,60.00000,1.98610,2.73626
5715,60.00000,2.25743,1.19750
5716,60.00000,0.17101,13.53015
5717,60.00000,0.70542,12.06188
5718,60.00000,1.23982,10.59361
5719,60.00000,1.77423,9.12534
5720,60.00000,2.30864,7.65707
5721,60.00000,2.84304,6.18881
5722,60.00000,3.37745,4.72054
5723,60.00000,3.91186,3.25227
5724,60.00000,4.44626,1.78400
5725,60.00000,0.25000,13.56699
5726,60.00000,1.03125,12.21382
5727,60.00000,1.81250,10.86066
5728,60.00000,2.59375,9.50749
5729,60.00000,3.37500,8.15433
5730,60.00000,4.15625,6.80116
5731,60.00000,4.93750,5.44800
5732,60.00000,5.71875,4.09483
5733,60.00000,6.50000,2.74167
5734,60.00000,0.32139,13.61698
5735,60.00000,1.32575,12.42003
5736,60.00000,2.33011,11.22309
5737,60.00000,3.33446,10.02614
5738,60.00000,4.33882,8.82920
5739,60.00000,5.34317,7.63226
5740,60.00000,6.34753,6.43531
5741,60.00000,7.35188,5.23837
5742,60.00000,8.35624,4.04142
5743,60.00000,0.38302,13.67861
5744,60.00000,1.57997,12.67425
5745,60.00000,2.77691,11.66989
5746,60.00000,3.97386,10.66554
5747,60.00000,5.17080,9.66118
5748,60.00000,6.36774,8.65683
5749,60.00000,7.56469,7.65247
5750,60.00000,8.76163,6.64812
5751,60.00000,9.95858,5.64376
5752,60.00000,0.43301,13.75000
5753,60.00000,1.78618,12.96875
5754,60.00000,3.13934,12.18750
5755,60.00000,4.49251,11.40625
5756,60.00000,5.84567,10.62500
5757,60.00000,7.19884,9.84375
5758,60.00000,8.55200,9.06250
5759,60.00000,9.90517,8.28125
5760,60.00000,11.25833,7.50000
5761,60.00000,0.46985,13.82899
5762,60.00000,1.93812,13.29458
5763,60.00000,3.40639,12.76018
5764,60.00000,4.87466,12.22577
5765,60.00000,6.34293,11.69136
5766,60.00000,7.81119,11.15696
5767,60.00000,9.27946,10.62255
5768,60.00000,10.74773,10.08814
5769,60.00000,12.21600,9.55374
5770,60.00000,0.49240,13.91318
5771,60.00000,2.03117,13.64185
5772,60.00000,3.56993,13.37053
5773,60.00000,5.10869,13.09920
5774,60.00000,6.64745,12.82787
5775,60.00000,8.18621,12.55655
5776,60.00000,9.72498,12.28522
5777,60.00000,11.26374,12.01390
5778,60.00000,12.80250,11.74257
5779,60.00000,0.50000,14.00000
5780,60.00000,2.06250,14.00000
5781,60.00000,3.62500,14.00000
5782,60.00000,5.18750,14.00000
5783,60.00000,6.75000,14.00000
5784,60.00000,8.31250,14.00000
5785,60.00000,9.87500,14.00000
5786,60.00000,11.43750,14.00000
5787,60.00000,13.00000,14.00000
5788,65.00000,0.50000,14.00000
5789,65.00000,2.06250,14.00000
5790,65.00000,3.62500,14.00000
5791,65.00000,5.18750,14.00000
5792,65.00000,6.75000,14.00000
5793,65.00000,8.31250,14.00000
5794,65.00000,9.87500,14.00000
5795,65.00000,11.43750,14.00000
5796,65.00000,13.00000,14.00000
5797,65.00000,0.49240,14.08682
5798,65.00000,2.03117,14.35815
5799,65.00000,3.56993,14.62947
5800,65.00000,5.10869,14.90080
5801,65.00000,6.64745,15.17213
5802,65.00000,8.18621,15.44345
5803,65.00000,9.72498,15.71478
5804,65.00000,11.26374,15.98610
5805,65.00000,12.80250,16.25743
5806,65.00000,0.46985,14.17101
5807,65.00000,1.93812,14.70542
5808,65.00000,3.40639,15.23982
5809,65.00000,4.87466,15.77423
5810,65.00000,6.34293,16.30864
5811,65.00000,7.81119,16.84304
5812,65.00000,9.27946,17.37745
5813,65.00000,10.74773,17.91186
5814,65.00000,12.21600,18.44626
5815,65.00000,0.43301,14.25000
5816,65.00000,1.78618,15.03125
5817,65.00000,3.13934,15.81250
5818,65.00000,4.49251,16.59375
5819,65.00000,5.84567,17.37500
5820,65.00000,7.19884,18.15625
5821,65.00000,8.55200,18.93750
5822,65.00000,9.90517,19.71875
5823,65.00000,11.25833,20.50000
5824,65.00000,0.38302,14.32139
5825,65.00000,1.57997,15.32575
5826,65.00000,2.77691,16.33011
5827,65.00000,3.97386,17.33446
5828,65.00000,5.17080,18.33882
5829,65.00000,6.36774,19.34317
5830,65.00000,7.56469,20.34753
5831,65.00000,8.76163,21.35188
5832,65.00000,9.95858,22.35624
5833,65.00000,0.32139,14.38302
5834,65.00000,1.32575,15.57997
5835,65.00000,2.33011,16.77691
5836,65.00000,3.33446,17.97386
5837,65.00000,4.33882,19.17080
5838,65.00000,5.34317,20.36774
5839,65.00000,6.34753,21.56469
5840,65.00000,7.35188,22.76163
5841,65.00000,8.35624,23.95858
5842,65.00000,0.25000,14.43301
5843,65.00000,1.03125,15.78618
5844,65.00000,1.81250,17.13934
5845,65.00000,2.59375,18.49251
5846,65.00000,3.37500,19.84567
5847,65.00000,4.15625,21.19884
5848,65.00000,4.93750,22.55200
5849,65.00000,5.71875,23.90517
5850,65.00000,6.50000,25.25833
5851,65.00000,0.17101,14.46985
5852,65.00000,0.70542,15.93812
5853,65.00000,1.23982,17.40639
5854,65.00000,1.77423,18.87466
5855,65.00000,2.30864,20.34293
5856,65.00000,2.84304,21.81119
5857,65.00000,3.37745,23.27946
5858,65.00000,3.91186,24.74773
5859,65.00000,4.44626,26.21600
5860,65.00000,0.08682,14.49240
5861,65.00000,0.35815,16.03117
5862,65.00000,0.62947,17.56993
5863,65.00000,0.90080,19.10869
5864,65.00000,1.17213,20.64745
5865,65.00000,1.44345,22.18621
5866,65.00000,1.71478,23.72498
5867,65.00000,1.98610,25.26374
5868,65.00000,2.25743,26.80250
5869,65.00000,0.00000,14.50000
5870,65.00000,0.00000,16.06250
5871,65.00000,0.00000,17.62500
5872,65.00000,0.00000,19.18750
5873,65.00000,0.00000,20.75000
5874,65.00000,0.00000,22.31250
5875,65.00000,0.00000,23.87500
5876,65.00000,0.00000,25.43750
5877,65.00000,0.00000,27.00000
5878,65.00000,-0.08682,14.49240
5879,65.00000,-0.35815,16.03117
5880,65.00000,-0.62947,17.56993
5881,65.00000,-0.90080,19.10869
5882,65.00000,-1.17213,20.64745
5883,65.00000,-1.44345,22.18621
5884,65.00000,-1.71478,23.72498
5885,65.00000,-1.98610,25.26374
5886,65.00000,-2.25743,26.80250
5887,65.00000,-0.17101,14.46985
5888,65.00000,-0.70542,15.93812
5889,65.00000,-1.23982,17.40639
5890,65.00000,-1.77423,18.87466
5891,65.00000,-2.30864,20.34293
5892,65.00000,-2.84304,21.81119
5893,65.00000,-3.37745,23.27946
5894,65.00000,-3.91186,24.74773
5895,65.00000,-4.44626,26.21600
5896,65.00000,-0.25000,14.43301
5897,65.00000,-1.03125,15.78618
5898,65.00000,-1.81250,17.13934
5899,65.00000,-2.59375,18.49251
5900,65.00000,-3.37500,19.84567
5901,65.00000,-4.15625,21.19884
5902,65.00000,-4.93750,22.55200
5903,65.00000,-5.71875,23.90517
5904,65.00000,-6.50000,25.25833
5905,65.00000,-0.32139,14.38302
5906,65.00000,-1.32575,15.57997
5907,65.00000,-2.33011,16.77691
5908,65.00000,-3.33446,17.97386
5909,65.00000,-4.33882,19.17080
5910,65.00000,-5.34317,20.36774
5911,65.00000,-6.34753,21.56469
5912,65.00000,-7.35188,22.76163
5913,65.00000,-8.35624,23.95858
5914,65.00000,-0.38302,14.32139
5915,65.00000,-1.57997,15.32575
5916,65.00000,-2.77691,16.33011
5917,65.00000,-3.97386,17.33446
5918,65.00000,-5.17080,18.33882
5919,65.00000,-6.36774,19.34317
5920,65.00000,-7.56469,20.34753
5921,65.00000,-8.76163,21.35188
5922,65.00000,-9.95858,22.35624
5923,65.00000,-0.43301,14.25000
5924,65.00000,-1.78618,15.03125
5925,65.00000,-3.13934,15.81250
5926,65.00000,-4.49251,16.59375
5927,65.00000,-5.84567,17.37500
5928,65.00000,-7.19884,18.15625
5929,65.00000,-8.55200,18.93750
5930,65.00000,-9.90517,19.71875
5931,65.00000,-11.25833,20.50000
5932,65.00000,-0.46985,14.17101
5933,65.00000,-1.93812,14.70542
5934,65.00000,-3.40639,15.23982
5935,65.00000,-4.87466,15.77423
5936,65.00000,-6.34293,16.30864
5937,65.00000,-7.81119,16.84304
5938,65.00000,-9.27946,17.37745
5939,65.00000,-10.74773,17.91186
5940,65.00000,-12.21600,18.44626
5941,65.00000,-0.49240,14.08682
5942,65.00000,-2.03117,14.35815
5943,65.00000,-3.56993,14.62947
5944,65.00000,-5.10869,14.90080
5945,65.00000,-6.64745,15.17213
5946,65.00000,-8.18621,15.44345
5947,65.00000,-9.72498,15.71478
5948,65.00000,-11.26374,15.98610
5949,65.00000,-12.80250,16.25743
5950,65.00000,-0.50000,14.00000
5951,65.00000,-2.06250,14.00000
5952,65.00000,-3.62500,14.00000
5953,65.00000,-5.18750,14.00000
5954,65.00000,-6.75000,14.00000
5955,65.00000,-8.31250,14.00000
5956,65.00000,-9.87500,14.00000
5957,65.00000,-11.43750,14.00000
5958,65.00000,-13.00000,14.00000
5959,65.00000,-0.49240,13.91318
5960,65.00000,-2.03117,13.64185
5961,65.00000,-3.56993,13.37053
5962,65.00000,-5.10869,13.09920
5963,65.00000,-6.64745,12.82787
5964,65.00000,-8.18621,12.55655
5965,65.00000,-9.72498,12.28522
5966,65.00000,-11.26374,12.01390
5967,65.00000,-12.80250,11.74257
5968,65.00000,-0.46985,13.82899
5969,65.00000,-1.93812,13.29458
5970,65.00000,-3.40639,12.76018
5971,65.00000,-4.87466,12.22577
5972,65.00000,-6.34293,11.69136
5973,65.00000,-7.81119,11.15696
5974,65.00000,-9.27946,10.62255
5975,65.00000,-10.74773,10.08814
5976,65.00000,-12.21600,9.55374
5977,65.00000,-0.43301,13.75000
5978,65.00000,-1.78618,12.96875
5979,65.00000,-3.13934,12.18750
5980,65.00000,-4.49251,11.40625
5981,65.00000,-5.84567,10.62500
5982,65.00000,-7.19884,9.84375
5983,65.00000,-8.55200,9.06250
5984,65.00000,-9.90517,8.28125
5985,65.00000,-11.25833,7.50000
5986,65.00000,-0.38302,13.67861
5987,65.00000,-1.57997,12.67425
5988,65.00000,-2.77691,11.66989
5989,65.00000,-3.97386,10.66554
5990,65.00000,-5.17080,9.66118
5991,65.00000,-6.36774,8.65683
5992,65.00000,-7.56469,7.65247
5993,65.00000,-8.76163,6.64812
5994,65.00000,-9.95858,5.64376
5995,65.00000,-0.32139,13.61698
5996,65.00000,-1.32575,12.42003
5997,65.00000,-2.33011,11.22309
5998,65.00000,-3.33446,10.02614
5999,65.00000,-4.33882,8.82920
6000,65.00000,-5.34317,7.63226
6001,65.00000,-6.34753,6.43531
6002,65.00000,-7.35188,5.23837
6003,65.00000,-8.35624,4.04142
6004,65.00000,-0.25000,13.56699
6005,65.00000,-1.03125,12.21382
6006,65.00000,-1.81250,10.86066
6007,65.00000,-2.59375,9.50749
6008,65.00000,-3.37500,8.15433
6009,65.00000,-4.15625,6.80116
6010,65.00000,-4.93750,5.44800
6011,65.00000,-5.71875,4.09483
6012,65.00000,-6.50000,2.74167
6013,65.00000,-0.17101,13.53015
6014,65.00000,-0.70542,12.06188
6015,65.00000,-1.23982,10.59361
6016,65.00000,-1.77423,9.12534
6017,65.00000,-2.30864,7.65707
6018,65.00000,-2.84304,6.18881
6019,65.00000,-3.37745,4.72054
6020,65.00000,-3.91186,3.25227
6021,65.00000,-4.44626,1.78400
6022,65.00000,-0.08682,13.50760
6023,65.00000,-0.35815,11.96883
6024,65.00000,-0.62947,10.43007
6025,65.00000,-0.90080,8.89131
6026,65.00000,-1.17213,7.35255
6027,65.00000,-1.44345,5.81379
6028,65.00000,-1.71478,4.27502
6029,65.00000,-1.98610,2.73626
6030,65.00000,-2.25743,1.19750
6031,65.00000,-0.00000,13.50000
6032,65.00000,-0.00000,11.93750
6033,65.00000,-0.00000,10.37500
6034,65.00000,-0.00000,8.81250
6035,65.00000,-0.00000,7.25000
6036,65.00000,-0.00000,5.68750
6037,65.00000,-0.00000,4.12500
6038,65.00000,-0.00000,2.56250
6039,65.00000,-0.00000,1.00000
6040,65.00000,0.08682,13.50760
6041,65.00000,0.35815,11.96883
6042,65.00000,0.62947,10.43007
6043,65.00000,0.90080,8.89131
6044,65.00000,1.17213,7.35255
6045,65.00000,1.44345,5.81379
6046,65.00000,1.71478,4.27502
6047,65.00000,1.98610,2.73626
6048,65.00000,2.25743,1.19750
6049,65.00000,0.17101,13.53015
6050,65.00000,0.70542,12.06188
6051,65.00000,1.23982,10.59361
6052,65.00000,1.77423,9.12534
6053,65.00000,2.30864,7.65707
6054,65.00000,2.84304,6.18881
6055,65.00000,3.37745,4.72054
6056,65.00000,3.91186,3.25227
6057,65.00000,4.44626,1.78400
6058,65.00000,0.25000,13.56699
6059,65.00000,1.03125,12.21382
6060,65.00000,1.81250,10.86066
6061,65.00000,2.59375,9.50749
6062,65.00000,3.37500,8.15433
6063,65.00000,4.15625,6.80116
6064,65.00000,4.93750,5.44800
6065,65.00000,5.71875,4.09483
6066,65.00000,6.50000,2.74167
6067,65.00000,0.32139,13.61698
6068,65.00000,1.32575,12.42003
6069,65.00000,2.33011,11.22309
6070,65.00000,3.33446,10.02614
6071,65.00000,4.33882,8.82920
6072,65.00000,5.34317,7.63226
6073,65.00000,6.34753,6.43531
6074,65.00000,7.35188,5.23837
6075,65.00000,8.35624,4.04142
6076,65.00000,0.38302,13.67861
6077,65.00000,1.57997,12.67425
6078,65.00000,2.77691,11.66989
6079,65.00000,3.97386,10.66554
6080,65.00000,5.17080,9.66118
6081,65.00000,6.36774,8.65683
6082,65.00000,7.56469,7.65247
6083,65.00000,8.76163,6.64812
6084,65.00000,9.95858,5.64376
6085,65.00000,0.43301,13.75000
6086,65.00000,1.78618,12.96875
6087,65.00000,3.13934,12.18750
6088,65.00000,4.49251,11.40625
6089,65.00000,5.84567,10.62500
6090,65.00000,7.19884,9.84375
6091,65.00000,8.55200,9.06250
6092,65.00000,9.90517,8.28125
6093,65.00000,11.25833,7.50000
6094,65.00000,0.46985,13.82899
6095,65.00000,1.93812,13.29458
6096,65.00000,3.40639,12.76018
6097,65.00000,4.87466,12.22577
6098,65.00000,6.34293,11.69136
6099,65.00000,7.81119,11.15696
6100,65.00000,9.27946,10.62255
6101,65.00000,10.74773,10.08814
6102,65.00000,12.21600,9.55374
6103,65.00000,0.49240,13.91318
6104,65.00000,2.03117,13.64185
6105,65.00000,3.56993,13.37053
6106,65.00000,5.10869,13.09920
6107,65.00000,6.64745,12.82787
6108,65.00000,8.18621,12.55655
6109,65.00000,9.72498,12.28522
6110,65.00000,11.26374,12.01390
6111,65.00000,12.80250,11.74257
6112,65.00000,0.50000,14.00000
6113,65.00000,2.06250,14.00000
6114,65.00000,3.62500,14.00000
6115,65.00000,5.18750,14.00000
6116,65.00000,6.75000,14.00000
6117,65.00000,8.31250,14.00000
6118,65.00000,9.87500,14.00000
6119,65.00000,11.43750,14.00000
6120,65.00000,13.00000,14.00000
6121,70.00000,0.50000,14.00000
6122,70.00000,2.06250,14.00000
6123,70.00000,3.62500,14.00000
6124,70.00000,5.18750,14.00000
6125,70.00000,6.75000,14.00000
6126,70.00000,8.31250,14.00000
6127,70.00000,9.87500,14.00000
6128,70.00000,11.43750,14.00000
6129,70.00000,13.00000,14.00000
6130,70.00000,0.49240,14.08682
6131,70.00000,2.03117,14.35815
6132,70.00000,3.56993,14.62947
6133,70.00000,5.10869,14.90080
6134,70.00000,6.64745,15.17213
6135,70.00000,8.18621,15.44345
6136,70.00000,9.72498,15.71478
6137,70.00000,11.26374,15.98610
6138,70.00000,12.80250,16.25743
6139,70.00000,0.46985,14.17101
6140,70.00000,1.93812,14.70542
6141,70.00000,3.40639,15.23982
6142,70.00000,4.87466,15.77423
6143,70.00000,6.34293,16.30864
6144,70.00000,7.81119,16.84304
6145,70.00000,9.27946,17.37745
6146,70.00000,10.74773,17.91186
6147,70.00000,12.21600,18.44626
6148,70.00000,0.43301,14.25000
6149,70.00000,1.78618,15.03125
6150,70.00000,3.13934,15.81250
6151,70.00000,4.49251,16.59375
6152,70.00000,5.84567,17.37500
6153,70.00000,7.19884,18.15625
6154,70.00000,8.55200,18.93750
6155,70.00000,9.90517,19.71875
6156,70.00000,11.25833,20.50000
6157,70.00000,0.38302,14.32139
6158,70.00000,1.57997,15.32575
6159,70.00000,2.77691,16.33011
6160,70.00000,3.97386,17.33446
6161,70.00000,5.17080,18.33882
6162,70.00000,6.36774,19.34317
6163,70.00000,7.56469,20.34753
6164,70.00000,8.76163,21.35188
6165,70.00000,9.95858,22.35624
6166,70.00000,0.32139,14.38302
6167,70.00000,1.32575,15.57997
6168,70.00000,2.33011,16.77691
6169,70.00000,3.33446,17.97386
6170,70.00000,4.33882,19.17080
6171,70.00000,5.34317,20.36774
6172,70.00000,6.34753,21.56469
6173,70.00000,7.35188,22.76163
6174,70.00000,8.35624,23.95858
6175,70.00000,0.25000,14.43301
6176,70.00000,1.03125,15.78618
6177,70.00000,1.81250,17.13934
6178,70.00000,2.59375,18.49251
6179,70.00000,3.37500,19.84567
6180,70.00000,4.15625,21.19884
6181,70.00000,4.93750,22.55200
6182,70.00000,5.71875,23.90517
6183,70.00000,6.50000,25.25833
6184,70.00000,0.17101,14.46985
6185,70.00000,0.70542,15.93812
6186,70.00000,1.23982,17.40639
6187,70.00000,1.77423,18.87466
6188,70.00000,2.30864,20.34293
6189,70.00000,2.84304,21.81119
6190,70.00000,3.37745,23.27946
6191,70.00000,3.91186,24.74773
6192,70.00000,4.44626,26.21600
6193,70.00000,0.08682,14.49240
6194,70.00000,0.35815,16.03117
6195,70.00000,0.62947,17.56993
6196,70.00000,0.90080,19.10869
6197,70.00000,1.17213,20.64745
6198,70.00000,1.44345,22.18621
6199,70.00000,1.71478,23.72498
6200,70.00000,1.98610,25.26374
6201,70.00000,2.25743,26.80250
6202,70.00000,0.00000,14.50000
6203,70.00000,0.00000,16.06250
6204,70.00000,0.00000,17.62500
6205,70.00000,0.00000,19.18750
6206,70.00000,0.00000,20.75000
6207,70.00000,0.00000,22.31250
6208,70.00000,0.00000,23.87500
6209,70.00000,0.00000,25.43750
6210,70.00000,0.00000,27.00000
6211,70.00000,-0.08682,14.49240
6212,70.00000,-0.35815,16.03117
6213,70.00000,-0.62947,17.56993
6214,70.00000,-0.90080,19.10869
6215,70.00000,-1.17213,20.64745
6216,70.00000,-1.44345,22.18621
6217,70.00000,-1.71478,23.72498
6218,70.00000,-1.98610,25.26374
6219,70.00000,-2.25743,26.80250
6220,70.00000,-0.17101,14.46985
6221,70.00000,-0.70542,15.93812
6222,70.00000,-1.23982,17.40639
6223,70.00000,-1.77423,18.87466
6224,70.00000,-2.30864,20.34293
6225,70.00000,-2.84304,21.81119
6226,70.00000,-3.37745,23.27946
6227,70.00000,-3.91186,24.74773
6228,70.00000,-4.44626,26.21600
6229,70.00000,-0.25000,14.43301
6230,70.00000,-1.03125,15.78618
6231,70.00000,-1.81250,17.13934
6232,70.00000,-2.59375,18.49251
6233,70.00000,-3.37500,19.84567
6234,70.00000,-4.15625,21.19884
6235,70.00000,-4.93750,22.55200
6236,70.00000,-5.71875,23.90517
6237,70.00000,-6.50000,25.25833
6238,70.00000,-0.32139,14.38302
6239,70.00000,-1.32575,15.57997
6240,70.00000,-2.33011,16.77691
6241,70.00000,-3.33446,17.97386
6242,70.00000,-4.33882,19.17080
6243,70.00000,-5.34317,20.36774
6244,70.00000,-6.34753,21.56469
6245,70.00000,-7.35188,22.76163
6246,70.00000,-8.35624,23.95858
6247,70.00000,-0.38302,14.32139
6248,70.00000,-1.57997,15.32575
6249,70.00000,-2.77691,16.33011
6250,70.00000,-3.97386,17.33446
6251,70.00000,-5.17080,18.33882
6252,70.00000,-6.36774,19.34317
6253,70.00000,-7.56469,20.34753
6254,70.00000,-8.76163,21.35188
6255,70.00000,-9.95858,22.35624
6256,70.00000,-0.43301,14.25000
6257,70.00000,-1.78618,15.03125
6258,70.00000,-3.13934,15.81250
6259,70.00000,-4.49251,16.59375
6260,70.00000,-5.84567,17.37500
6261,70.00000,-7.19884,18.15625
6262,70.00000,-8.55200,18.93750
6263,70.00000,-9.90517,19.71875
6264,70.00000,-11.25833,20.50000
6265,70.00000,-0.46985,14.17101
6266,70.00000,-1.93812,14.70542
6267,70.00000,-3.40639,15.23982
6268,70.00000,-4.87466,15.77423
6269,70.00000,-6.34293,16.30864
6270,70.00000,-7.81119,16.84304
6271,70.00000,-9.27946,17.37745
6272,70.00000,-10.74773,17.91186
6273,70.00000,-12.21600,18.44626
6274,70.00000,-0.49240,14.08682
6275,70.00000,-2.03117,14.35815
6276,70.00000,-3.56993,14.62947
6277,70.00000,-5.10869,14.90080
6278,70.00000,-6.64745,15.17213
6279,70.00000,-8.18621,15.44345
6280,70.00000,-9.72498,15.71478
6281,70.00000,-11.26374,15.98610
6282,70.00000,-12.80250,16.25743
6283,70.00000,-0.50000,14.00000
6284,70.00000,-2.06250,14.00000
6285,70.00000,-3.62500,14.00000
6286,70.00000,-5.18750,14.00000
6287,70.00000,-6.75000,14.00000
6288,70.00000,-8.31250,14.00000
6289,70.00000,-9.87500,14.00000
6290,70.00000,-11.43750,14.00000
6291,70.00000,-13.00000,14.00000
6292,70.00000,-0.49240,13.91318
6293,70.00000,-2.03117,13.64185
6294,70.00000,-3.56993,13.37053
6295,70.00000,-5.10869,13.09920
6296,70.00000,-6.64745,12.82787
6297,70.00000,-8.18621,12.55655
6298,70.00000,-9.72498,12.28522
6299,70.00000,-11.26374,12.01390
6300,70.00000,-12.80250,11.74257
6301,70.00000,-0.46985,13.82899
6302,70.00000,-1.93812,13.29458
6303,70.00000,-3.40639,12.76018
6304,70.00000,-4.87466,12.22577
6305,70.00000,-6.34293,11.69136
6306,70.00000,-7.81119,11.15696
6307,70.00000,-9.27946,10.62255
6308,70.00000,-10.74773,10.08814
6309,70.00000,-12.21600,9.55374
6310,70.00000,-0.43301,13.75000
6311,70.00000,-1.78618,12.96875
6312,70.00000,-3.13934,12.18750
6313,70.00000,-4.49251,11.40625
6314,70.00000,-5.84567,10.62500
6315,70.00000,-7.19884,9.84375
6316,70.00000,-8.55200,9.06250
6317,70.00000,-9.90517,8.28125
6318,70.00000,-11.25833,7.50000
6319,70.00000,-0.38302,13.67861
6320,70.00000,-1.57997,12.67425
6321,70.00000,-2.77691,11.66989
6322,70.00000,-3.97386,10.66554
6323,70.00000,-5.17080,9.66118
6324,70.00000,-6.36774,8.65683
6325,70.00000,-7.56469,7.65247
6326,70.00000,-8.76163,6.64812
6327,70.00000,-9.95858,5.64376
6328,70.00000,-0.32139,13.61698
6329,70.00000,-1.32575,12.42003
6330,70.00000,-2.33011,11.22309
6331,70.00000,-3.33446,10.02614
6332,70.00000,-4.33882,8.82920
6333,70.00000,-5.34317,7.63226
6334,70.00000,-6.34753,6.43531
6335,70.00000,-7.35188,5.23837
6336,70.00000,-8.35624,4.04142
6337,70.00000,-0.25000,13.56699
6338,70.00000,-1.03125,12.21382
6339,70.00000,-1.81250,10.86066
6340,70.00000,-2.59375,9.50749
6341,70.00000,-3.37500,8.15433
6342,70.00000,-4.15625,6.80116
6343,70.00000,-4.93750,5.44800
6344,70.00000,-5.71875,4.09483
6345,70.00000,-6.50000,2.74167
6346,70.00000,-0.17101,13.53015
6347,70.00000,-0.70542,12.06188
6348,70.00000,-1.23982,10.59361
6349,70.00000,-1.77423,9.12534
6350,70.00000,-2.30864,7.65707
6351,70.00000,-2.84304,6.18881
6352,70.00000,-3.37745,4.72054
6353,70.00000,-3.91186,3.25227
6354,70.00000,-4.44626,1.78400
6355,70.00000,-0.08682,13.50760
6356,70.00000,-0.35815,11.96883
6357,70.00000,-0.62947,10.43007
6358,70.00000,-0.90080,8.89131
6359,70.00000,-1.17213,7.35255
6360,70.00000,-1.44345,5.81379
6361,70.00000,-1.71478,4.27502
6362,70.00000,-1.98610,2.73626
6363,70.00000,-2.25743,1.19750
6364,70.00000,-0.00000,13.50000
6365,70.00000,-0.00000,11.93750
6366,70.00000,-0.00000,10.37500
6367,70.00000,-0.00000,8.81250
6368,70.00000,-0.00000,7.25000
6369,70.00000,-0.00000,5.68750
6370,70.00000,-0.00000,4.12500
6371,70.00000,-0.00000,2.56250
6372,70.00000,-0.00000,1.00000
6373,70.00000,0.08682,13.50760
6374,70.00000,0.35815,11.96883
6375,70.00000,0.62947,10.43007
6376,70.00000,0.90080,8.89131
6377,70.00000,1.17213,7.35255
6378,70.00000,1.44345,5.81379
6379,70.00000,1.71478,4.27502
6380,70.00000,1.98610,2.73626
6381,70.00000,2.25743,1.19750
6382,70.00000,0.17101,13.53015
6383,70.00000,0.70542,12.06188
6384,70.00000,1.23982,10.59361
6385,70.00000,1.77423,9.12534
6386,70.00000,2.30864,7.65707
6387,70.00000,2.84304,6.18881
6388,70.00000,3.37745,4.72054
6389,70.00000,3.91186,3.25227
6390,70.00000,4.44626,1.78400
6391,70.00000,0.25000,13.56699
6392,70.00000,1.03125,12.21382
6393,70.00000,1.81250,10.86066
6394,70.00000,2.59375,9.50749
6395,70.00000,3.37500,8.15433
6396,70.00000,4.15625,6.80116
6397,70.00000,4.93750,5.44800
6398,70.00000,5.71875,4.09483
6399,70.00000,6.50000,2.74167
6400,70.00000,0.32139,13.61698
6401,70.00000,1.32575,12.42003
6402,70.00000,2.33011,11.22309
6403,70.00000,3.33446,10.02614
6404,70.00000,4.33882,8.82920
6405,70.00000,5.34317,7.63226
6406,70.00000,6.34753,6.43531
6407,70.00000,7.35188,5.23837
6408,70.00000,8.35624,4.04142
6409,70.00000,0.38302,13.67861
6410,70.00000,1.57997,12.67425
6411,70.00000,2.77691,11.66989
6412,70.00000,3.97386,10.66554
6413,70.00000,5.17080,9.66118
6414,70.00000,6.36774,8.65683
6415,70.00000,7.56469,7.65247
6416,70.00000,8.76163,6.64812
6417,70.00000,9.95858,5.64376
6418,70.00000,0.43301,13.75000
6419,70.00000,1.78618,12.96875
6420,70.00000,3.13934,12.18750
6421,70.00000,4.49251,11.40625
6422,70.00000,5.84567,10.62500
6423,70.00000,7.19884,9.84375
6424,70.00000,8.55200,9.06250
6425,70.00000,9.90517,8.28125
6426,70.00000,11.25833,7.50000
6427,70.00000,0.46985,13.82899
6428,70.00000,1.93812,13.29458
6429,70.00000,3.40639,12.76018
6430,70.00000,4.87466,12.22577
6431,70.00000,6.34293,11.69136
6432,70.00000,7.81119,11.15696
6433,70.00000,9.27946,10.62255
6434,70.00000,10.74773,10.08814
6435,70.00000,12.21600,9.55374
6436,70.00000,0.49240,13.91318
6437,70.00000,2.03117,13.64185
6438,70.00000,3.56993,13.37053
6439,70.00000,5.10869,13.09920
6440,70.00000,6.64745,12.82787
6441,70.00000,8.18621,12.55655
6442,70.00000,9.72498,12.28522
6443,70.00000,11.26374,12.01390
6444,70.00000,12.80250,11.74257
6445,70.00000,0.50000,14.00000
6446,70.00000,2.06250,14.00000
6447,70.00000,3.62500,14.00000
6448,70.00000,5.18750,14.00000
6449,70.00000,6.75000,14.00000
6450,70.00000,8.31250,14.00000
6451,70.00000,9.87500,14.00000
6452,70.00000,11.43750,14.00000
6453,70.00000,13.00000,14.00000
6454,75.00000,0.50000,14.00000
6455,75.00000,2.06250,14.00000
6456,75.00000,3.62500,14.00000
6457,75.00000,5.18750,14.00000
6458,75.00000,6.75000,14.00000
6459,75.00000,8.31250,14.00000
6460,75.00000,9.87500,14.00000
6461,75.00000,11.43750,14.00000
6462,75.00000,13.00000,14.00000
6463,75.00000,0.49240,14.08682
6464,75.00000,2.03117,14.35815
6465,75.00000,3.56993,14.62947
6466,75.00000,5.10869,14.90080
6467,75.00000,6.64745,15.17213
6468,75.00000,8.18621,15.44345
6469,75.00000,9.72498,15.71478
6470,75.00000,11.26374,15.98610
6471,75.00000,12.80250,16.25743
6472,75.00000,0.46985,14.17101
6473,75.00000,1.93812,14.70542
6474,75.00000,3.40639,15.23982
6475,75.00000,4.87466,15.77423
6476,75.00000,6.34293,16.30864
6477,75.00000,7.81119,16.84304
6478,75.00000,9.27946,17.37745
6479,75.00000,10.74773,17.91186
6480,75.00000,12.21600,18.44626
6481,75.00000,0.43301,14.25000
6482,75.00000,1.78618,15.03125
6483,75.00000,3.13934,15.81250
6484,75.00000,4.49251,16.59375
6485,75.00000,5.84567,17.37500
6486,75.00000,7.19884,18.15625
6487,75.00000,8.55200,18.93750
6488,75.00000,9.90517,19.71875
6489,75.00000,11.25833,20.50000
6490,75.00000,0.38302,14.32139
6491,75.00000,1.57997,15.32575
6492,75.00000,2.77691,16.33011
6493,75.00000,3.97386,17.33446
6494,75.00000,5.17080,18.33882
6495,75.00000,6.36774,19.34317
6496,75.00000,7.56469,20.34753
6497,75.00000,8.76163,21.35188
6498,75.00000,9.95858,22.35624
6499,75.00000,0.32139,14.38302
6500,75.00000,1.32575,15.57997
6501,75.00000,2.33011,16.77691
6502,75.00000,3.33446,17.97386
6503,75.00000,4.33882,19.17080
6504,75.00000,5.34317,20.36774
6505,75.00000,6.34753,21.56469
6506,75.00000,7.35188,22.76163
6507,75.00000,8.35624,23.95858
6508,75.00000,0.25000,14.43301
6509,75.00000,1.03125,15.78618
6510,75.00000,1.81250,17.13934
6511,75.00000,2.59375,18.49251
6512,75.00000,3.37500,19.84567
6513,75.00000,4.15625,21.19884
6514,75.00000,4.93750,22.55200
6515,75.00000,5.71875,23.90517
6516,75.00000,6.50000,25.25833
6517,75.00000,0.17101,14.46985
6518,75.00000,0.70542,15.93812
6519,75.00000,1.23982,17.40639
6520,75.00000,1.77423,18.87466
6521,75.00000,2.30864,20.34293
6522,75.00000,2.84304,21.81119
6523,75.00000,3.37745,23.27946
6524,75.00000,3.91186,24.74773
6525,75.00000,4.44626,26.21600
6526,75.00000,0.08682,14.49240
6527,75.00000,0.35815,16.03117
6528,75.00000,0.62947,17.56993
6529,75.00000,0.90080,19.10869
6530,75.00000,1.17213,20.64745
6531,75.00000,1.44345,22.18621
6532,75.00000,1.71478,23.72498
6533,75.00000,1.98610,25.26374
6534,75.00000,2.25743,26.80250
6535,75.00000,0.00000,14.50000
6536,75.00000,0.00000,16.06250
6537,75.00000,0.00000,17.62500
6538,75.00000,0.00000,19.18750
6539,75.00000,0.00000,20.75000
6540,75.00000,0.00000,22.31250
6541,75.00000,0.00000,23.87500
6542,75.00000,0.00000,25.43750
6543,75.00000,0.00000,27.00000
6544,75.00000,-0.08682,14.49240
6545,75.00000,-0.35815,16.03117
6546,75.00000,-0.62947,17.56993
6547,75.00000,-0.90080,19.10869
6548,75.00000,-1.17213,20.64745
6549,75.00000,-1.44345,22.18621
6550,75.00000,-1.71478,23.72498
6551,75.00000,-1.98610,25.26374
6552,75.00000,-2.25743,26.80250
6553,75.00000,-0.17101,14.46985
6554,75.00000,-0.70542,15.93812
6555,75.00000,-1.23982,17.40639
6556,75.00000,-1.77423,18.87466
6557,75.00000,-2.30864,20.34293
6558,75.00000,-2.84304,21.81119
6559,75.00000,-3.37745,23.27946
6560,75.00000,-3.91186,24.74773
6561,75.00000,-4.44626,26.21600
6562,75.00000,-0.25000,14.43301
6563,75.00000,-1.03125,15.78618
6564,75.00000,-1.81250,17.13934
6565,75.00000,-2.59375,18.49251
6566,75.00000,-3.37500,19.84567
6567,75.00000,-4.15625,21.19884
6568,75.00000,-4.93750,22.55200
6569,75.00000,-5.71875,23.90517
6570,75.00000,-6.50000,25.25833
6571,75.00000,-0.32139,14.38302
6572,75.00000,-1.32575,15.57997
6573,75.00000,-2.33011,16.77691
6574,75.00000,-3.33446,17.97386
6575,75.00000,-4.33882,19.17080
6576,75.00000,-5.34317,20.36774
6577,75.00000,-6.34753,21.56469
6578,75.00000,-7.35188,22.76163
6579,75.00000,-8.35624,23.95858
6580,75.00000,-0.38302,14.32139
6581,75.00000,-1.57997,15.32575
6582,75.00000,-2.77691,16.33011
6583,75.00000,-3.97386,17.33446
6584,75.00000,-5.17080,18.33882
6585,75.00000,-6.36774,19.34317
6586,75.00000,-7.56469,20.34753
6587,75.00000,-8.76163,21.35188
6588,75.00000,-9.95858,22.35624
6589,75.00000,-0.43301,14.25000
6590,75.00000,-1.78618,15.03125
6591,75.00000,-3.13934,15.81250
6592,75.00000,-4.49251,16.59375
6593,75.00000,-5.84567,17.37500
6594,75.00000,-7.19884,18.15625
6595,75.00000,-8.55200,18.93750
6596,75.00000,-9.90517,19.71875
6597,75.00000,-11.25833,20.50000
6598,75.00000,-0.46985,14.17101
6599,75.00000,-1.93812,14.70542
6600,75.00000,-3.40639,15.23982
6601,75.00000,-4.87466,15.77423
6602,75.00000,-6.34293,16.30864
6603,75.00000,-7.81119,16.84304
6604,75.00000,-9.27946,17.37745
6605,75.00000,-10.74773,17.91186
6606,75.00000,-12.21600,18.44626
6607,75.00000,-0.49240,14.08682
6608,75.00000,-2.03117,14.35815
6609,75.00000,-3.56993,14.62947
6610,75.00000,-5.10869,14.90080
6611,75.00000,-6.64745,15.17213
6612,75.00000,-8.18621,15.44345
6613,75.00000,-9.72498,15.71478
6614,75.00000,-11.26374,15.98610
6615,75.00000,-12.80250,16.25743
6616,75.00000,-0.50000,14.00000
6617,75.00000,-2.06250,14.00000
6618,75.00000,-3.62500,14.00000
6619,75.00000,-5.18750,14.00000
6620,75.00000,-6.75000,14.00000
6621,75.00000,-8.31250,14.00000
6622,75.00000,-9.87500,14.00000
6623,75.00000,-11.43750,14.00000
6624,75.00000,-13.00000,14.00000
6625,75.00000,-0.49240,13.91318
6626,75.00000,-2.03117,13.64185
6627,75.00000,-3.56993,13.37053
6628,75.00000,-5.10869,13.09920
6629,75.00000,-6.64745,12.82787
6630,75.00000,-8.18621,12.55655
6631,75.00000,-9.72498,12.28522
6632,75.00000,-11.26374,12.01390
6633,75.00000,-12.80250,11.74257
6634,75.00000,-0.46985,13.82899
6635,75.00000,-1.93812,13.29458
6636,75.00000,-3.40639,12.76018
6637,75.00000,-4.87466,12.22577
6638,75.00000,-6.34293,11.69136
6639,75.00000,-7.81119,11.15696
6640,75.00000,-9.27946,10.62255
6641,75.00000,-10.74773,10.08814
6642,75.00000,-12.21600,9.55374
6643,75.00000,-0.43301,13.75000
6644,75.00000,-1.78618,12.96875
6645,75.00000,-3.13934,12.18750
6646,75.00000,-4.49251,11.40625
6647,75.00000,-5.84567,10.62500
6648,75.00000,-7.19884,9.84375
6649,75.00000,-8.55200,9.06250
6650,75.00000,-9.90517,8.28125
6651,75.00000,-11.25833,7.50000
6652,75.00000,-0.38302,13.67861
6653,75.00000,-1.57997,12.67425
6654,75.00000,-2.77691,11.66989
6655,75.00000,-3.97386,10.66554
6656,75.00000,-5.17080,9.66118
6657,75.00000,-6.36774,8.65683
6658,75.00000,-7.56469,7.65247
6659,75.00000,-8.76163,6.64812
6660,75.00000,-9.95858,5.64376
6661,75.00000,-0.32139,13.61698
6662,75.00000,-1.32575,12.42003
6663,75.00000,-2.33011,11.22309
6664,75.00000,-3.33446,10.02614
6665,75.00000,-4.33882,8.82920
6666,75.00000,-5.34317,7.63226
6667,75.00000,-6.34753,6.43531
6668,75.00000,-7.35188,5.23837
6669,75.00000,-8.35624,4.04142
6670,75.00000,-0.25000,13.56699
6671,75.00000,-1.03125,12.21382
6672,75.00000,-1.81250,10.86066
6673,75.00000,-2.59375,9.50749
6674,75.00000,-3.37500,8.15433
6675,75.00000,-4.15625,6.80116
6676,75.00000,-4.93750,5.44800
6677,75.00000,-5.71875,4.09483
6678,75.00000,-6.50000,2.74167
6679,75.00000,-0.17101,13.53015
6680,75.00000,-0.70542,12.06188
6681,75.00000,-1.23982,10.59361
6682,75.00000,-1.77423,9.12534
6683,75.00000,-2.30864,7.65707
6684,75.00000,-2.84304,6.18881
6685,75.00000,-3.37745,4.72054
6686,75.00000,-3.91186,3.25227
6687,75.00000,-4.44626,1.78400
6688,75.00000,-0.08682,13.50760
6689,75.00000,-0.35815,11.96883
6690,75.00000,-0.62947,10.43007
6691,75.00000,-0.90080,8.89131
6692,75.00000,-1.17213,7.35255
6693,75.00000,-1.44345,5.81379
6694,75.00000,-1.71478,4.27502
6695,75.00000,-1.98610,2.73626
6696,75.00000,-2.25743,1.19750
6697,75.00000,-0.00000,13.50000
6698,75.00000,-0.00000,11.93750
6699,75.00000,-0.00000,10.37500
6700,75.00000,-0.00000,8.81250
6701,75.00000,-0.00000,7.25000
6702,75.00000,-0.00000,5.68750
6703,75.00000,-0.00000,4.12500
6704,75.00000,-0.00000,2.56250
6705,75.00000,-0.00000,1.00000
6706,75.00000,0.08682,13.50760
6707,75.00000,0.35815,11.96883
6708,75.00000,0.62947,10.43007
6709,75.00000,0.90080,8.89131
6710,75.00000,1.17213,7.35255
6711,75.00000,1.44345,5.81379
6712,75.00000,1.71478,4.27502
6713,75.00000,1.98610,2.73626
6714,75.00000,2.25743,1.19750
6715,75.00000,0.17101,13.53015
6716,75.00000,0.70542,12.06188
6717,75.00000,1.23982,10.59361
6718,75.00000,1.77423,9.12534
6719,75.00000,2.30864,7.65707
6720,75.00000,2.84304,6.18881
6721,75.00000,3.37745,4.72054
6722,75.00000,3.91186,3.25227
6723,75.00000,4.44626,1.78400
6724,75.00000,0.25000,13.56699
6725,75.00000,1.03125,12.21382
6726,75.00000,1.81250,10.86066
6727,75.00000,2.59375,9.50749
6728,75.00000,3.37500,8.15433
6729,75.00000,4.15625,6.80116
6730,75.00000,4.93750,5.44800
6731,75.00000,5.71875,4.09483
6732,75.00000,6.50000,2.74167
6733,75.00000,0.32139,13.61698
6734,75.00000,1.32575,12.42003
6735,75.00000,2.33011,11.22309
6736,75.00000,3.33446,10.02614
6737,75.00000,4.33882,8.82920
6738,75.00000,5.34317,7.63226
6739,75.00000,6.34753,6.43531
6740,75.00000,7.35188,5.23837
6741,75.00000,8.35624,4.04142
6742,75.00000,0.38302,13.67861
6743,75.00000,1.57997,12.67425
6744,75.00000,2.77691,11.66989
6745,75.00000,3.97386,10.66554
6746,75.00000,5.17080,9.66118
6747,75.00000,6.36774,8.65683
6748,75.00000,7.56469,7.65247
6749,75.00000,8.76163,6.64812
6750,75.00000,9.95858,5.64376
6751,75.00000,0.43301,13.75000
6752,75.00000,1.78618,12.96875
6753,75.00000,3.13934,12.18750
6754,75.00000,4.49251,11.40625
6755,75.00000,5.84567,10.62500
6756,75.00000,7.19884,9.84375
6757,75.00000,8.55200,9.06250
6758,75.00000,9.90517,8.28125
6759,75.00000,11.25833,7.50000
6760,75.00000,0.46985,13.82899
6761,75.00000,1.93812,13.29458
6762,75.00000,3.40639,12.76018
6763,75.00000,4.87466,12.22577
6764,75.00000,6.34293,11.69136
6765,75.00000,7.81119,11.15696
6766,75.00000,9.27946,10.62255
6767,75.00000,10.74773,10.08814
6768,75.00000,12.21600,9.55374
6769,75.00000,0.49240,13.91318
6770,75.00000,2.03117,13.64185
6771,75.00000,3.56993,13.37053
6772,75.00000,5.10869,13.09920
6773,75.00000,6.64745,12.82787
6774,75.00000,8.18621,12.55655
6775,75.00000,9.72498,12.28522
6776,75.00000,11.26374,12.01390
6777,75.00000,12.80250,11.74257
6778,75.00000,0.50000,14.00000
6779,75.00000,2.06250,14.00000
6780,75.00000,3.62500,14.00000
6781,75.00000,5.18750,14.00000
6782,75.00000,6.75000,14.00000
6783,75.00000,8.31250,14.00000
6784,75.00000,9.87500,14.00000
6785,75.00000,11.43750,14.00000
6786,75.00000,13.00000,14.00000
6787,80.00000,0.50000,14.00000
6788,80.00000,2.06250,14.00000
6789,80.00000,3.62500,14.00000
6790,80.00000,5.18750,14.00000
6791,80.00000,6.75000,14.00000
6792,80.00000,8.31250,14.00000
6793,80.00000,9.87500,14.00000
6794,80.00000,11.43750,14.00000
6795,80.00000,13.00000,14.00000
6796,80.00000,0.49240,14.08682
6797,80.00000,2.03117,14.35815
6798,80.00000,3.56993,14.62947
6799,80.00000,5.10869,14.90080
6800,80.00000,6.64745,15.17213
6801,80.00000,8.18621,15.44345
6802,80.00000,9.72498,15.71478
6803,80.00000,11.26374,15.98610
6804,80.00000,12.80250,16.25743
6805,80.00000,0.46985,14.17101
6806,80.00000,1.93812,14.70542
6807,80.00000,3.40639,15.23982
6808,80.00000,4.87466,15.77423
6809,80.00000,6.34293,16.30864
6810,80.00000,7.81119,16.84304
6811,80.00000,9.27946,17.37745
6812,80.00000,10.74773,17.91186
6813,80.00000,12.21600,18.44626
6814,80.00000,0.43301,14.25000
6815,80.00000,1.78618,15.03125
6816,80.00000,3.13934,15.81250
6817,80.00000,4.49251,16.59375
6818,80.00000,5.84567,17.37500
6819,80.00000,7.19884,18.15625
6820,80.00000,8.55200,18.93750
6821,80.00000,9.90517,19.71875
6822,80.00000,11.25833,20.50000
6823,80.00000,0.38302,14.32139
6824,80.00000,1.57997,15.32575
6825,80.00000,2.77691,16.33011
6826,80.00000,3.97386,17.33446
6827,80.00000,5.17080,18.33882
6828,80.00000,6.36774,19.34317
6829,80.00000,7.56469,20.34753
6830,80.00000,8.76163,21.35188
6831,80.00000,9.95858,22.35624
6832,80.00000,0.32139,14.38302
6833,80.00000,1.32575,15.57997
6834,80.00000,2.33011,16.77691
6835,80.00000,3.33446,17.97386
6836,80.00000,4.33882,19.17080
6837,80.00000,5.34317,20.36774
6838,80.00000,6.34753,21.56469
6839,80.00000,7.35188,22.76163
6840,80.00000,8.35624,23.95858
6841,80.00000,0.25000,14.43301
6842,80.00000,1.03125,15.78618
6843,80.00000,1.81250,17.13934
6844,80.00000,2.59375,18.49251
6845,80.00000,3.37500,19.84567
6846,80.00000,4.15625,21.19884
6847,80.00000,4.93750,22.55200
6848,80.00000,5.71875,23.90517
6849,80.00000,6.50000,25.25833
6850,80.00000,0.17101,14.46985
6851,80.00000,0.70542,15.93812
6852,80.00000,1.23982,17.40639
6853,80.00000,1.77423,18.87466
6854,80.00000,2.30864,20.34293
6855,80.00000,2.84304,21.81119
6856,80.00000,3.37745,23.27946
6857,80.00000,3.91186,24.74773
6858,80.00000,4.44626,26.21600
6859,80.00000,0.08682,14.49240
6860,80.00000,0.35815,16.03117
6861,80.00000,0.62947,17.56993
6862,80.00000,0.90080,19.10869
6863,80.00000,1.17213,20.64745
6864,80.00000,1.44345,22.18621
6865,80.00000,1.71478,23.72498
6866,80.00000,1.98610,25.26374
6867,80.00000,2.25743,26.80250
6868,80.00000,0.00000,14.50000
6869,80.00000,0.00000,16.06250
6870,80.00000,0.00000,17.62500
6871,80.00000,0.00000,19.18750
6872,80.00000,0.00000,20.75000
6873,80.00000,0.00000,22.31250
6874,80.00000,0.00000,23.87500
6875,80.00000,0.00000,25.43750
6876,80.00000,0.00000,27.00000
6877,80.00000,-0.08682,14.49240
6878,80.00000,-0.35815,16.03117
6879,80.00000,-0.62947,17.56993
6880,80.00000,-0.90080,19.10869
6881,80.00000,-1.17213,20.64745
6882,80.00000,-1.44345,22.18621
6883,80.00000,-1.71478,23.72498
6884,80.00000,-1.98610,25.26374
6885,80.00000,-2.25743,26.80250
6886,80.00000,-0.17101,14.46985
6887,80.00000,-0.70542,15.93812
6888,80.00000,-1.23982,17.40639
6889,80.00000,-1.77423,18.87466
6890,80.00000,-2.30864,20.34293
6891,80.00000,-2.84304,21.81119
6892,80.00000,-3.37745,23.27946
6893,80.00000,-3.91186,24.74773
6894,80.00000,-4.44626,26.21600
6895,80.00000,-0.25000,14.43301
6896,80.00000,-1.03125,15.78618
6897,80.00000,-1.81250,17.13934
6898,80.00000,-2.59375,18.49251
6899,80.00000,-3.37500,19.84567
6900,80.00000,-4.15625,21.19884
6901,80.00000,-4.93750,22.55200
6902,80.00000,-5.71875,23.90517
6903,80.00000,-6.50000,25.25833
6904,80.00000,-0.32139,14.38302
6905,80.00000,-1.32575,15.57997
6906,80.00000,-2.33011,16.77691
6907,80.00000,-3.33446,17.97386
6908,80.00000,-4.33882,19.17080
6909,80.00000,-5.34317,20.36774
6910,80.00000,-6.34753,21.56469
6911,80.00000,-7.35188,22.76163
6912,80.00000,-8.35624,23.95858
6913,80.00000,-0.38302,14.32139
6914,80.00000,-1.57997,15.32575
6915,80.00000,-2.77691,16.33011
6916,80.00000,-3.97386,17.33446
6917,80.00000,-5.17080,18.33882
6918,80.00000,-6.36774,19.34317
6919,80.00000,-7.56469,20.34753
6920,80.00000,-8.76163,21.35188
6921,80.00000,-9.95858,22.35624
6922,80.00000,-0.43301,14.25000
6923,80.00000,-1.78618,15.03125
6924,80.00000,-3.13934,15.81250
6925,80.00000,-4.49251,16.59375
6926,80.00000,-5.84567,17.37500
6927,80.00000,-7.19884,18.15625
6928,80.00000,-8.55200,18.93750
6929,80.00000,-9.90517,19.71875
6930,80.00000,-11.25833,20.50000
6931,80.00000,-0.46985,14.17101
6932,80.00000,-1.93812,14.70542
6933,80.00000,-3.40639,15.23982
6934,80.00000,-4.87466,15.77423
6935,80.00000,-6.34293,16.30864
6936,80.00000,-7.81119,16.84304
6937,80.00000,-9.27946,17.37745
6938,80.00000,-10.74773,17.91186
6939,80.00000,-12.21600,18.44626
6940,80.00000,-0.49240,14.08682
6941,80.00000,-2.03117,14.35815
6942,80.00000,-3.56993,14.62947
6943,80.00000,-5.10869,14.90080
6944,80.00000,-6.64745,15.17213
6945,80.00000,-8.18621,15.44345
6946,80.00000,-9.72498,15.71478
6947,80.00000,-11.26374,15.98610
6948,80.00000,-12.80250,16.25743
6949,80.00000,-0.50000,14.00000
6950,80.00000,-2.06250,14.00000
6951,80.00000,-3.62500,14.00000
6952,80.00000,-5.18750,14.00000
6953,80.00000,-6.75000,14.00000
6954,80.00000,-8.31250,14.00000
6955,80.00000,-9.87500,14.00000
6956,80.00000,-11.43750,14.00000
6957,80.00000,-13.00000,14.00000
6958,80.00000,-0.49240,13.91318
6959,80.00000,-2.03117,13.64185
6960,80.00000,-3.56993,13.37053
6961,80.00000,-5.10869,13.09920
6962,80.00000,-6.64745,12.82787
6963,80.00000,-8.18621,12.55655
6964,80.00000,-9.72498,12.28522
6965,80.00000,-11.26374,12.01390
6966,80.00000,-12.80250,11.74257
6967,80.00000,-0.46985,13.82899
6968,80.00000,-1.93812,13.29458
6969,80.00000,-3.40639,12.76018
6970,80.00000,-4.87466,12.22577
6971,80.00000,-6.34293,11.69136
6972,80.00000,-7.81119,11.15696
6973,80.00000,-9.27946,10.62255
6974,80.00000,-10.74773,10.08814
6975,80.00000,-12.21600,9.55374
6976,80.00000,-0.43301,13.75000
6977,80.00000,-1.78618,12.96875
6978,80.00000,-3.13934,12.18750
6979,80.00000,-4.49251,11.40625
6980,80.00000,-5.84567,10.62500
6981,80.00000,-7.19884,9.84375
6982,80.00000,-8.55200,9.06250
6983,80.00000,-9.90517,8.28125
6984,80.00000,-11.25833,7.50000
6985,80.00000,-0.38302,13.67861
6986,80.00000,-1.57997,12.67425
6987,80.00000,-2.77691,11.66989
6988,80.00000,-3.97386,10.66554
6989,80.00000,-5.17080,9.66118
6990,80.00000,-6.36774,8.65683
6991,80.00000,-7.56469,7.65247
6992,80.00000,-8.76163,6.64812
6993,80.00000,-9.95858,5.64376
6994,80.00000,-0.32139,13.61698
6995,80.00000,-1.32575,12.42003
6996,80.00000,-2.33011,11.22309
6997,80.00000,-3.33446,10.02614
6998,80.00000,-4.33882,8.82920
6999,80.00000,-5.34317,7.63226
7000,80.00000,-6.34753,6.43531
7001,80.00000,-7.35188,5.23837
7002,80.00000,-8.35624,4.04142
7003,80.00000,-0.25000,13.56699
7004,80.00000,-1.03125,12.21382
7005,80.00000,-1.81250,10.86066
7006,80.00000,-2.59375,9.50749
7007,80.00000,-3.37500,8.15433
7008,80.00000,-4.15625,6.80116
7009,80.00000,-4.93750,5.44800
7010,80.00000,-5.71875,4.09483
7011,80.00000,-6.50000,2.74167
7012,80.00000,-0.17101,13.53015
7013,80.00000,-0.70542,12.06188
7014,80.00000,-1.23982,10.59361
7015,80.00000,-1.77423,9.12534
7016,80.00000,-2.30864,7.65707
7017,80.00000,-2.84304,6.18881
7018,80.00000,-3.37745,4.72054
7019,80.00000,-3.91186,3.25227
7020,80.00000,-4.44626,1.78400
7021,80.00000,-0.08682,13.50760
7022,80.00000,-0.35815,11.96883
7023,80.00000,-0.62947,10.43007
7024,80.00000,-0.90080,8.89131
7025,80.00000,-1.17213,7.35255
7026,80.00000,-1.44345,5.81379
7027,80.00000,-1.71478,4.27502
7028,80.00000,-1.98610,2.73626
7029,80.00000,-2.25743,1.19750
7030,80.00000,-0.00000,13.50000
7031,80.00000,-0.00000,11.93750
7032,80.00000,-0.00000,10.37500
7033,80.00000,-0.00000,8.81250
7034,80.00000,-0.00000,7.25000
7035,80.00000,-0.00000,5.68750
7036,80.00000,-0.00000,4.12500
7037,80.00000,-0.00000,2.56250
7038,80.00000,-0.00000,1.00000
7039,80.00000,0.08682,13.50760
7040,80.00000,0.35815,11.96883
7041,80.00000,0.62947,10.43007
7042,80.00000,0.90080,8.89131
7043,80.00000,1.17213,7.35255
7044,80.00000,1.44345,5.81379
7045,80.00000,1.71478,4.27502
7046,80.00000,1.98610,2.73626
7047,80.00000,2.25743,1.19750
7048,80.00000,0.17101,13.53015
7049,80.00000,0.70542,12.06188
7050,80.00000,1.23982,10.59361
7051,80.00000,1.77423,9.12534
7052,80.00000,2.30864,7.65707
7053,80.00000,2.84304,6.18881
7054,80.00000,3.37745,4.72054
7055,80.00000,3.91186,3.25227
7056,80.00000,4.44626,1.78400
7057,80.00000,0.25000,13.56699
7058,80.00000,1.03125,12.21382
7059,80.00000,1.81250,10.86066
7060,80.00000,2.59375,9.50749
7061,80.00000,3.37500,8.15433
7062,80.00000,4.15625,6.80116
7063,80.00000,4.93750,5.44800
7064,80.00000,5.71875,4.09483
7065,80.00000,6.50000,2.74167
7066,80.00000,0.32139,13.61698
7067,80.00000,1.32575,12.42003
7068,80.00000,2.33011,11.22309
7069,80.00000,3.33446,10.02614
7070,80.00000,4.33882,8.82920
7071,80.00000,5.34317,7.63226
7072,80.00000,6.34753,6.43531
7073,80.00000,7.35188,5.23837
7074,80.00000,8.35624,4.04142
7075,80.00000,0.38302,13.67861
7076,80.00000,1.57997,12.67425
7077,80.00000,2.77691,11.66989
7078,80.00000,3.97386,10.66554
7079,80.00000,5.17080,9.66118
7080,80.00000,6.36774,8.65683
7081,80.00000,7.56469,7.65247
7082,80.00000,8.76163,6.64812
7083,80.00000,9.95858,5.64376
7084,80.00000,0.43301,13.75000
7085,80.00000,1.78618,12.96875
7086,80.00000,3.13934,12.18750
7087,80.00000,4.49251,11.40625
7088,80.00000,5.84567,10.62500
7089,80.00000,7.19884,9.84375
7090,80.00000,8.55200,9.06250
7091,80.00000,9.90517,8.28125
7092,80.00000,11.25833,7.50000
7093,80.00000,0.46985,13.82899
7094,80.00000,1.93812,13.29458
7095,80.00000,3.40639,12.76018
7096,80.00000,4.87466,12.22577
7097,80.00000,6.34293,11.69136
7098,80.00000,7.81119,11.15696
7099,80.00000,9.27946,10.62255
7100,80.00000,10.74773,10.08814
7101,80.00000,12.21600,9.55374
7102,80.00000,0.49240,13.91318
7103,80.00000,2.03117,13.64185
7104,80.00000,3.56993,13.37053
7105,80.00000,5.10869,13.09920
7106,80.00000,6.64745,12.82787
7107,80.00000,8.18621,12.55655
7108,80.00000,9.72498,12.28522
7109,80.00000,11.26374,12.01390
7110,80.00000,12.80250,11.74257
7111,80.00000,0.50000,14.00000
7112,80.00000,2.06250,14.00000
7113,80.00000,3.62500,14.00000
7114,80.00000,5.18750,14.00000
7115,80.00000,6.75000,14.00000
7116,80.00000,8.31250,14.00000
7117,80.00000,9.87500,14.00000
7118,80.00000,11.43750,14.00000
7119,80.00000,13.00000,14.00000
7120,85.00000,0.50000,14.00000
7121,85.00000,2.06250,14.00000
7122,85.00000,3.62500,14.00000
7123,85.00000,5.18750,14.00000
7124,85.00000,6.75000,14.00000
7125,85.00000,8.31250,14.00000
7126,85.00000,9.87500,14.00000
7127,85.00000,11.43750,14.00000
7128,85.00000,13.00000,14.00000
7129,85.00000,0.49240,14.08682
7130,85.00000,2.03117,14.35815
7131,85.00000,3.56993,14.62947
7132,85.00000,5.10869,14.90080
7133,85.00000,6.64745,15.17213
7134,85.00000,8.18621,15.44345
7135,85.00000,9.72498,15.71478
7136,85.00000,11.26374,15.98610
7137,85.00000,12.80250,16.25743
7138,85.00000,0.46985,14.17101
7139,85.00000,1.93812,14.70542
7140,85.00000,3.40639,15.23982
7141,85.00000,4.87466,15.77423
7142,85.00000,6.34293,16.30864
7143,85.00000,7.81119,16.84304
7144,85.00000,9.27946,17.37745
7145,85.00000,10.74773,17.91186
7146,85.00000,12.21600,18.44626
7147,85.00000,0.43301,14.25000
7148,85.00000,1.78618,15.03125
7149,85.00000,3.13934,15.81250
7150,85.00000,4.49251,16.59375
7151,85.00000,5.84567,17.37500
7152,85.00000,7.19884,18.15625
7153,85.00000,8.55200,18.93750
7154,85.00000,9.90517,19.71875
7155,85.00000,11.25833,20.50000
7156,85.00000,0.38302,14.32139
7157,85.00000,1.57997,15.32575
7158,85.00000,2.77691,16.33011
7159,85.00000,3.97386,17.33446
7160,85.00000,5.17080,18.33882
7161,85.00000,6.36774,19.34317
7162,85.00000,7.56469,20.34753
7163,85.00000,8.76163,21.35188
7164,85.00000,9.95858,22.35624
7165,85.00000,0.32139,14.38302
7166,85.00000,1.32575,15.57997
7167,85.00000,2.33011,16.77691
7168,85.00000,3.33446,17.97386
7169,85.00000,4.33882,19.17080
7170,85.00000,5.34317,20.36774
7171,85.00000,6.34753,21.56469
7172,85.00000,7.35188,22.76163
7173,85.00000,8.35624,23.95858
7174,85.00000,0.25000,14.43301
7175,85.00000,1.03125,15.78618
7176,85.00000,1.81250,17.13934
7177,85.00000,2.59375,18.49251
7178,85.00000,3.37500,19.84567
7179,85.00000,4.15625,21.19884
7180,85.00000,4.93750,22.55200
7181,85.00000,5.71875,23.90517
7182,85.00000,6.50000,25.25833
7183,85.00000,0.17101,14.46985
7184,85.00000,0.70542,15.93812
7185,85.00000,1.23982,17.40639
7186,85.00000,1.77423,18.87466
7187,85.00000,2.30864,20.34293
7188,85.00000,2.84304,21.81119
7189,85.00000,3.37745,23.27946
7190,85.00000,3.91186,24.74773
7191,85.00000,4.44626,26.21600
7192,85.00000,0.08682,14.49240
7193,85.00000,0.35815,16.03117
7194,85.00000,0.62947,17.56993
7195,85.00000,0.90080,19.10869
7196,85.00000,1.17213,20.64745
7197,85.00000,1.44345,22.18621
7198,85.00000,1.71478,23.72498
7199,85.00000,1.98610,25.26374
7200,85.00000,2.25743,26.80250
7201,85.00000,0.00000,14.50000
7202,85.00000,0.00000,16.06250
7203,85.00000,0.00000,17.62500
7204,85.00000,0.00000,19.18750
7205,85.00000,0.00000,20.75000
7206,85.00000,0.00000,22.31250
7207,85.00000,0.00000,23.87500
7208,85.00000,0.00000,25.43750
7209,85.00000,0.00000,27.00000
7210,85.00000,-0.08682,14.49240
7211,85.00000,-0.35815,16.03117
7212,85.00000,-0.62947,17.56993
7213,85.00000,-0.90080,19.10869
7214,85.00000,-1.17213,20.64745
7215,85.00000,-1.44345,22.18621
7216,85.00000,-1.71478,23.72498
7217,85.00000,-1.98610,25.26374
7218,85.00000,-2.25743,26.80250
7219,85.00000,-0.17101,14.46985
7220,85.00000,-0.70542,15.93812
7221,85.00000,-1.23982,17.40639
7222,85.00000,-1.77423,18.87466
7223,85.00000,-2.30864,20.34293
7224,85.00000,-2.84304,21.81119
7225,85.00000,-3.37745,23.27946
7226,85.00000,-3.91186,24.74773
7227,85.00000,-4.44626,26.21600
7228,85.00000,-0.25000,14.43301
7229,85.00000,-1.03125,15.78618
7230,85.00000,-1.81250,17.13934
7231,85.00000,-2.59375,18.49251
7232,85.00000,-3.37500,19.84567
7233,85.00000,-4.15625,21.19884
7234,85.00000,-4.93750,22.55200
7235,85.00000,-5.71875,23.90517
7236,85.00000,-6.50000,25.25833
7237,85.00000,-0.32139,14.38302
7238,85.00000,-1.32575,15.57997
7239,85.00000,-2.33011,16.77691
7240,85.00000,-3.33446,17.97386
7241,85.00000,-4.33882,19.17080
7242,85.00000,-5.34317,20.36774
7243,85.00000,-6.34753,21.56469
7244,85.00000,-7.35188,22.76163
7245,85.00000,-8.35624,23.95858
7246,85.00000,-0.38302,14.32139
7247,85.00000,-1.57997,15.32575
7248,85.00000,-2.77691,16.33011
7249,85.00000,-3.97386,17.33446
7250,85.00000,-5.17080,18.33882
7251,85.00000,-6.36774,19.34317
7252,85.00000,-7.56469,20.34753
7253,85.00000,-8.76163,21.35188
7254,85.00000,-9.95858,22.35624
7255,85.00000,-0.43301,14.25000
7256,85.00000,-1.78618,15.03125
7257,85.00000,-3.13934,15.81250
7258,85.00000,-4.49251,16.59375
7259,85.00000,-5.84567,17.37500
7260,85.00000,-7.19884,18.15625
7261,85.00000,-8.55200,18.93750
7262,85.00000,-9.90517,19.71875
7263,85.00000,-11.25833,20.50000
7264,85.00000,-0.46985,14.17101
7265,85.00000,-1.93812,14.70542
7266,85.00000,-3.40639,15.23982
7267,85.00000,-4.87466,15.77423
7268,85.00000,-6.34293,16.30864
7269,85.00000,-7.81119,16.84304
7270,85.00000,-9.27946,17.37745
7271,85.00000,-10.74773,17.91186
7272,85.00000,-12.21600,18.44626
7273,85.00000,-0.49240,14.08682
7274,85.00000,-2.03117,14.35815
7275,85.00000,-3.56993,14.62947
7276,85.00000,-5.10869,14.90080
7277,85.00000,-6.64745,15.17213
7278,85.00000,-8.18621,15.44345
7279,85.00000,-9.72498,15.71478
7280,85.00000,-11.26374,15.98610
7281,85.00000,-12.80250,16.25743
7282,85.00000,-0.50000,14.00000
7283,85.00000,-2.06250,14.00000
7284,85.00000,-3.62500,14.00000
7285,85.00000,-5.18750,14.00000
7286,85.00000,-6.75000,14.00000
7287,85.00000,-8.31250,14.00000
7288,85.00000,-9.87500,14.00000
7289,85.00000,-11.43750,14.00000
7290,85.00000,-13.00000,14.00000
7291,85.00000,-0.49240,13.91318
7292,85.00000,-2.03117,13.64185
7293,85.00000,-3.56993,13.37053
7294,85.00000,-5.10869,13.09920
7295,85.00000,-6.64745,12.82787
7296,85.00000,-8.18621,12.55655
7297,85.00000,-9.72498,12.28522
7298,85.00000,-11.26374,12.01390
7299,85.00000,-12.80250,11.74257
7300,85.00000,-0.46985,13.82899
7301,85.00000,-1.93812,13.29458
7302,85.00000,-3.40639,12.76018
7303,85.00000,-4.87466,12.22577
7304,85.00000,-6.34293,11.69136
7305,85.00000,-7.81119,11.15696
7306,85.00000,-9.27946,10.62255
7307,85.00000,-10.74773,10.08814
7308,85.00000,-12.21600,9.55374
7309,85.00000,-0.43301,13.75000
7310,85.00000,-1.78618,12.96875
7311,85.00000,-3.13934,12.18750
7312,85.00000,-4.49251,11.40625
7313,85.00000,-5.84567,10.62500
7314,85.00000,-7.19884,9.84375
7315,85.00000,-8.55200,9.06250
7316,85.00000,-9.90517,8.28125
7317,85.00000,-11.25833,7.50000
7318,85.00000,-0.38302,13.67861
7319,85.00000,-1.57997,12.67425
7320,85.00000,-2.77691,11.66989
7321,85.00000,-3.97386,10.66554
7322,85.00000,-5.17080,9.66118
7323,85.00000,-6.36774,8.65683
7324,85.00000,-7.56469,7.65247
7325,85.00000,-8.76163,6.64812
7326,85.00000,-9.95858,5.64376
7327,85.00000,-0.32139,13.61698
7328,85.00000,-1.32575,12.42003
7329,85.00000,-2.33011,11.22309
7330,85.00000,-3.33446,10.02614
7331,85.00000,-4.33882,8.82920
7332,85.00000,-5.34317,7.63226
7333,85.00000,-6.34753,6.43531
7334,85.00000,-7.35188,5.23837
7335,85.00000,-8.35624,4.04142
7336,85.00000,-0.25000,13.56699
7337,85.00000,-1.03125,12.21382
7338,85.00000,-1.81250,10.86066
7339,85.00000,-2.59375,9.50749
7340,85.00000,-3.37500,8.15433
7341,85.00000,-4.15625,6.80116
7342,85.00000,-4.93750,5.44800
7343,85.00000,-5.71875,4.09483
7344,85.00000,-6.50000,2.74167
7345,85.00000,-0.17101,13.53015
7346,85.00000,-0.70542,12.06188
7347,85.00000,-1.23982,10.59361
7348,85.00000,-1.77423,9.12534
7349,85.00000,-2.30864,7.65707
7350,85.00000,-2.84304,6.18881
7351,85.00000,-3.37745,4.72054
7352,85.00000,-3.91186,3.25227
7353,85.00000,-4.44626,1.78400
7354,85.00000,-0.08682,13.50760
7355,85.00000,-0.35815,11.96883
7356,85.00000,-0.62947,10.43007
7357,85.00000,-0.90080,8.89131
7358,85.00000,-1.17213,7.35255
7359,85.00000,-1.44345,5.81379
7360,85.00000,-1.71478,4.27502
7361,85.00000,-1.98610,2.73626
7362,85.00000,-2.25743,1.19750
7363,85.00000,-0.00000,13.50000
7364,85.00000,-0.00000,11.93750
7365,85.00000,-0.00000,10.37500
7366,85.00000,-0.00000,8.81250
7367,85.00000,-0.00000,7.25000
7368,85.00000,-0.00000,5.68750
7369,85.00000,-0.00000,4.12500
7370,85.00000,-0.00000,2.56250
7371,85.00000,-0.00000,1.00000
7372,85.00000,0.08682,13.50760
7373,85.00000,0.35815,11.96883
7374,85.00000,0.62947,10.43007
7375,85.00000,0.90080,8.89131
7376,85.00000,1.17213,7.35255
7377,85.00000,1.44345,5.81379
7378,85.00000,1.71478,4.27502
7379,85.00000,1.98610,2.73626
7380,85.00000,2.25743,1.19750
7381,85.00000,0.17101,13.53015
7382,85.00000,0.70542,12.06188
7383,85.00000,1.23982,10.59361
7384,85.00000,1.77423,9.12534
7385,85.00000,2.30864,7.65707
7386,85.00000,2.84304,6.18881
7387,85.00000,3.37745,4.72054
7388,85.00000,3.91186,3.25227
7389,85.00000,4.44626,1.78400
7390,85.00000,0.25000,13.56699
7391,85.00000,1.03125,12.21382
7392,85.00000,1.81250,10.86066
7393,85.00000,2.59375,9.50749
7394,85.00000,3.37500,8.15433
7395,85.00000,4.15625,6.80116
7396,85.00000,4.93750,5.44800
7397,85.00000,5.71875,4.09483
7398,85.00000,6.50000,2.74167
7399,85.00000,0.32139,13.61698
7400,85.00000,1.32575,12.42003
7401,85.00000,2.33011,11.22309
7402,85.00000,3.33446,10.02614
7403,85.00000,4.33882,8.82920
7404,85.00000,5.34317,7.63226
7405,85.00000,6.34753,6.43531
7406,85.00000,7.35188,5.23837
7407,85.00000,8.35624,4.04142
7408,85.00000,0.38302,13.67861
7409,85.00000,1.57997,12.67425
7410,85.00000,2.77691,11.66989
7411,85.00000,3.97386,10.66554
7412,85.00000,5.17080,9.66118
7413,85.00000,6.36774,8.65683
7414,85.00000,7.56469,7.65247
7415,85.00000,8.76163,6.64812
7416,85.00000,9.95858,5.64376
7417,85.00000,0.43301,13.75000
7418,85.00000,1.78618,12.96875
7419,85.00000,3.13934,12.18750
7420,85.00000,4.49251,11.40625
7421,85.00000,5.84567,10.62500
7422,85.00000,7.19884,9.84375
7423,85.00000,8.55200,9.06250
7424,85.00000,9.90517,8.28125
7425,85.00000,11.25833,7.50000
7426,85.00000,0.46985,13.82899
7427,85.00000,1.93812,13.29458
7428,85.00000,3.40639,12.76018
7429,85.00000,4.87466,12.22577
7430,85.00000,6.34293,11.69136
7431,85.00000,7.81119,11.15696
7432,85.00000,9.27946,10.62255
7433,85.00000,10.74773,10.08814
7434,85.00000,12.21600,9.55374
7435,85.00000,0.49240,13.91318
7436,85.00000,2.03117,13.64185
7437,85.00000,3.56993,13.37053
7438,85.00000,5.10869,13.09920
7439,85.00000,6.64745,12.82787
7440,85.00000,8.18621,12.55655
7441,85.00000,9.72498,12.28522
7442,85.00000,11.26374,12.01390
7443,85.00000,12.80250,11.74257
7444,85.00000,0.50000,14.00000
7445,85.00000,2.06250,14.00000
7446,85.00000,3.62500,14.00000
7447,85.00000,5.18750,14.00000
7448,85.00000,6.75000,14.00000
7449,85.00000,8.31250,14.00000
7450,85.00000,9.87500,14.00000
7451,85.00000,11.43750,14.00000
7452,85.00000,13.00000,14.00000
7453,90.00000,0.50000,14.00000
7454,90.00000,2.06250,14.00000
7455,90.00000,3.62500,14.00000
7456,90.00000,5.18750,14.00000
7457,90.00000,6.75000,14.00000
7458,90.00000,8.31250,14.00000
7459,90.00000,9.87500,14.00000
7460,90.00000,11.43750,14.00000
7461,90.00000,13.00000,14.00000
7462,90.00000,0.49240,14.08682
7463,90.00000,2.03117,14.35815
7464,90.00000,3.56993,14.62947
7465,90.00000,5.10869,14.90080
7466,90.00000,6.64745,15.17213
7467,90.00000,8.18621,15.44345
7468,90.00000,9.72498,15.71478
7469,90.00000,11.26374,15.98610
7470,90.00000,12.80250,16.25743
7471,90.00000,0.46985,14.17101
7472,90.00000,1.93812,14.70542
7473,90.00000,3.40639,15.23982
7474,90.00000,4.87466,15.77423
7475,90.00000,6.34293,16.30864
7476,90.00000,7.81119,16.84304
7477,90.00000,9.27946,17.37745
7478,90.00000,10.74773,17.91186
7479,90.00000,12.21600,18.44626
7480,90.00000,0.43301,14.25000
7481,90.00000,1.78618,15.03125
7482,90.00000,3.13934,15.81250
7483,90.00000,4.49251,16.59375
7484,90.00000,5.84567,17.37500
7485,90.00000,7.19884,18.15625
7486,90.00000,8.55200,18.93750
7487,90.00000,9.90517,19.71875
7488,90.00000,11.25833,20.50000
7489,90.00000,0.38302,14.32139
7490,90.00000,1.57997,15.32575
7491,90.00000,2.77691,16.33011
7492,90.00000,3.97386,17.33446
7493,90.00000,5.17080,18.33882
7494,90.00000,6.36774,19.34317
7495,90.00000,7.56469,20.34753
7496,90.00000,8.76163,21.35188
7497,90.00000,9.95858,22.35624
7498,90.00000,0.32139,14.38302
7499,90.00000,1.32575,15.57997
7500,90.00000,2.33011,16.77691
7501,90.00000,3.33446,17.97386
7502,90.00000,4.33882,19.17080
7503,90.00000,5.34317,20.36774
7504,90.00000,6.34753,21.56469
7505,90.00000,7.35188,22.76163
7506,90.00000,8.35624,23.95858
7507,90.00000,0.25000,14.43301
7508,90.00000,1.03125,15.78618
7509,90.00000,1.81250,17.13934
7510,90.00000,2.59375,18.49251
7511,90.00000,3.37500,19.84567
7512,90.00000,4.15625,21.19884
7513,90.00000,4.93750,22.55200
7514,90.00000,5.71875,23.90517
7515,90.00000,6.50000,25.25833
7516,90.00000,0.17101,14.46985
7517,90.00000,0.70542,15.93812
7518,90.00000,1.23982,17.40639
7519,90.00000,1.77423,18.87466
7520,90.00000,2.30864,20.34293
7521,90.00000,2.84304,21.81119
7522,90.00000,3.37745,23.27946
7523,90.00000,3.91186,24.74773
7524,90.00000,4.44626,26.21600
7525,90.00000,0.08682,14.49240
7526,90.00000,0.35815,16.03117
7527,90.00000,0.62947,17.56993
7528,90.00000,0.90080,19.10869
7529,90.00000,1.17213,20.64745
7530,90.00000,1.44345,22.18621
7531,90.00000,1.71478,23.72498
7532,90.00000,1.98610,25.26374
7533,90.00000,2.25743,26.80250
7534,90.00000,0.00000,14.50000
7535,90.00000,0.00000,16.06250
7536,90.00000,0.00000,17.62500
7537,90.00000,0.00000,19.18750
7538,90.00000,0.00000,20.75000
7539,90.00000,0.00000,22.31250
7540,90.00000,0.00000,23.87500
7541,90.00000,0.00000,25.43750
7542,90.00000,0.00000,27.00000
7543,90.00000,-0.08682,14.49240
7544,90.00000,-0.35815,16.03117
7545,90.00000,-0.62947,17.56993
7546,90.00000,-0.90080,19.10869
7547,90.00000,-1.17213,20.64745
7548,90.00000,-1.44345,22.18621
7549,90.00000,-1.71478,23.72498
7550,90.00000,-1.98610,25.26374
7551,90.00000,-2.25743,26.80250
7552,90.00000,-0.17101,14.46985
7553,90.00000,-0.70542,15.93812
7554,90.00000,-1.23982,17.40639
7555,90.00000,-1.77423,18.87466
7556,90.00000,-2.30864,20.34293
7557,90.00000,-2.84304,21.81119
7558,90.00000,-3.37745,23.27946
7559,90.00000,-3.91186,24.74773
7560,90.00000,-4.44626,26.21600
7561,90.00000,-0.25000,14.43301
7562,90.00000,-1.03125,15.78618
7563,90.00000,-1.81250,17.13934
7564,90.00000,-2.59375,18.49251
7565,90.00000,-3.37500,19.84567
7566,90.00000,-4.15625,21.19884
7567,90.00000,-4.93750,22.55200
7568,90.00000,-5.71875,23.90517
7569,90.00000,-6.50000,25.25833
7570,90.00000,-0.32139,14.38302
7571,90.00000,-1.32575,15.57997
7572,90.00000,-2.33011,16.77691
7573,90.00000,-3.33446,17.97386
7574,90.00000,-4.33882,19.17080
7575,90.00000,-5.34317,20.36774
7576,90.00000,-6.34753,21.56469
7577,90.00000,-7.35188,22.76163
7578,90.00000,-8.35624,23.95858
7579,90.00000,-0.38302,14.32139
7580,90.00000,-1.57997,15.32575
7581,90.00000,-2.77691,16.33011
7582,90.00000,-3.97386,17.33446
7583,90.00000,-5.17080,18.33882
7584,90.00000,-6.36774,19.34317
7585,90.00000,-7.56469,20.34753
7586,90.00000,-8.76163,21.35188
7587,90.00000,-9.95858,22.35624
7588,90.00000,-0.43301,14.25000
7589,90.00000,-1.78618,15.03125
7590,90.00000,-3.13934,15.81250
7591,90.00000,-4.49251,16.59375
7592,90.00000,-5.84567,17.37500
7593,90.00000,-7.19884,18.15625
7594,90.00000,-8.55200,18.93750
7595,90.00000,-9.90517,19.71875
7596,90.00000,-11.25833,20.50000
7597,90.00000,-0.46985,14.17101
7598,90.00000,-1.93812,14.70542
7599,90.00000,-3.40639,15.23982
7600,90.00000,-4.87466,15.77423
7601,90.00000,-6.34293,16.30864
7602,90.00000,-7.81119,16.84304
7603,90.00000,-9.27946,17.37745
7604,90.00000,-10.74773,17.91186
7605,90.00000,-12.21600,18.44626
7606,90.00000,-0.49240,14.08682
7607,90.00000,-2.03117,14.35815
7608,90.00000,-3.56993,14.62947
7609,90.00000,-5.10869,14.90080
7610,90.00000,-6.64745,15.17213
7611,90.00000,-8.18621,15.44345
7612,90.00000,-9.72498,15.71478
7613,90.00000,-11.26374,15.98610
7614,90.00000,-12.80250,16.25743
7615,90.00000,-0.50000,14.00000
7616,90.00000,-2.06250,14.00000
7617,90.00000,-3.62500,14.00000
7618,90.00000,-5.18750,14.00000
7619,90.00000,-6.75000,14.00000
7620,90.00000,-8.31250,14.00000
7621,90.00000,-9.87500,14.00000
7622,90.00000,-11.43750,14.00000
7623,90.00000,-13.00000,14.00000
7624,90.00000,-0.49240,13.91318
7625,90.00000,-2.03117,13.64185
7626,90.00000,-3.56993,13.37053
7627,90.00000,-5.10869,13.09920
7628,90.00000,-6.64745,12.82787
7629,90.00000,-8.18621,12.55655
7630,90.00000,-9.72498,12.28522
7631,90.00000,-11.26374,12.01390
7632,90.00000,-12.80250,11.74257
7633,90.00000,-0.46985,13.82899
7634,90.00000,-1.93812,13.29458
7635,90.00000,-3.40639,12.76018
7636,90.00000,-4.87466,12.22577
7637,90.00000,-6.34293,11.69136
7638,90.00000,-7.81119,11.15696
7639,90.00000,-9.27946,10.62255
7640,90.00000,-10.74773,10.08814
7641,90.00000,-12.21600,9.55374
7642,90.00000,-0.43301,13.75000
7643,90.00000,-1.78618,12.96875
7644,90.00000,-3.13934,12.18750
7645,90.00000,-4.49251,11.40625
7646,90.00000,-5.84567,10.62500
7647,90.00000,-7.19884,9.84375
7648,90.00000,-8.55200,9.06250
7649,90.00000,-9.90517,8.28125
7650,90.00000,-11.25833,7.50000
7651,90.00000,-0.38302,13.67861
7652,90.00000,-1.57997,12.67425
7653,90.00000,-2.77691,11.66989
7654,90.00000,-3.97386,10.66554
7655,90.00000,-5.17080,9.66118
7656,90.00000,-6.36774,8.65683
7657,90.00000,-7.56469,7.65247
7658,90.00000,-8.76163,6.64812
7659,90.00000,-9.95858,5.64376
7660,90.00000,-0.32139,13.61698
7661,90.00000,-1.32575,12.42003
7662,90.00000,-2.33011,11.22309
7663,90.00000,-3.33446,10.02614
7664,90.00000,-4.33882,8.82920
7665,90.00000,-5.34317,7.63226
7666,90.00000,-6.34753,6.43531
7667,90.00000,-7.35188,5.23837
7668,90.00000,-8.35624,4.04142
7669,90.00000,-0.25000,13.56699
7670,90.00000,-1.03125,12.21382
7671,90.00000,-1.81250,10.86066
7672,90.00000,-2.59375,9.50749
7673,90.00000,-3.37500,8.15433
7674,90.00000,-4.15625,6.80116
7675,90.00000,-4.93750,5.44800
7676,90.00000,-5.71875,4.09483
7677,90.00000,-6.50000,2.74167
7678,90.00000,-0.17101,13.53015
7679,90.00000,-0.70542,12.06188
7680,90.00000,-1.23982,10.59361
7681,90.00000,-1.77423,9.12534
7682,90.00000,-2.30864,7.65707
7683,90.00000,-2.84304,6.18881
7684,90.00000,-3.37745,4.72054
7685,90.00000,-3.91186,3.25227
7686,90.00000,-4.44626,1.78400
7687,90.00000,-0.08682,13.50760
7688,90.00000,-0.35815,11.96883
7689,90.00000,-0.62947,10.43007
7690,90.00000,-0.90080,8.89131
7691,90.00000,-1.17213,7.35255
7692,90.00000,-1.44345,5.81379
7693,90.00000,-1.71478,4.27502
7694,90.00000,-1.98610,2.73626
7695,90.00000,-2.25743,1.19750
7696,90.00000,-0.00000,13.50000
7697,90.00000,-0.00000,11.93750
7698,90.00000,-0.00000,10.37500
7699,90.00000,-0.00000,8.81250
7700,90.00000,-0.00000,7.25000
7701,90.00000,-0.00000,5.68750
7702,90.00000,-0.00000,4.12500
7703,90.00000,-0.00000,2.56250
7704,90.00000,-0.00000,1.00000
7705,90.00000,0.08682,13.50760
7706,90.00000,0.35815,11.96883
7707,90.00000,0.62947,10.43007
7708,90.00000,0.90080,8.89131
7709,90.00000,1.17213,7.35255
7710,90.00000,1.44345,5.81379
7711,90.00000,1.71478,4.27502
7712,90.00000,1.98610,2.73626
7713,90.00000,2.25743,1.19750
7714,90.00000,0.17101,13.53015
7715,90.00000,0.70542,12.06188
7716,90.00000,1.23982,10.59361
7717,90.00000,1.77423,9.12534
7718,90.00000,2.30864,7.65707
7719,90.00000,2.84304,6.18881
7720,90.00000,3.37745,4.72054
7721,90.00000,3.91186,3.25227
7722,90.00000,4.44626,1.78400
7723,90.00000,0.25000,13.56699
7724,90.00000,1.03125,12.21382
7725,90.00000,1.81250,10.86066
7726,90.00000,2.59375,9.50749
7727,90.00000,3.37500,8.15433
7728,90.00000,4.15625,6.80116
7729,90.00000,4.93750,5.44800
7730,90.00000,5.71875,4.09483
7731,90.00000,6.50000,2.74167
7732,90.00000,0.32139,13.61698
7733,90.00000,1.32575,12.42003
7734,90.00000,2.33011,11.22309
7735,90.00000,3.33446,10.02614
7736,90.00000,4.33882,8.82920
7737,90.00000,5.34317,7.63226
7738,90.00000,6.34753,6.43531
7739,90.00000,7.35188,5.23837
7740,90.00000,8.35624,4.04142
7741,90.00000,0.38302,13.67861
7742,90.00000,1.57997,12.67425
7743,90.00000,2.77691,11.66989
7744,90.00000,3.97386,10.66554
7745,90.00000,5.17080,9.66118
7746,90.00000,6.36774,8.65683
7747,90.00000,7.56469,7.65247
7748,90.00000,8.76163,6.64812
7749,90.00000,9.95858,5.64376
7750,90.00000,0.43301,13.75000
7751,90.00000,1.78618,12.96875
7752,90.00000,3.13934,12.18750
7753,90.00000,4.49251,11.40625
7754,90.00000,5.84567,10.62500
7755,90.00000,7.19884,9.84375
7756,90.00000,8.55200,9.06250
7757,90.00000,9.90517,8.28125
7758,90.00000,11.25833,7.50000
7759,90.00000,0.46985,13.82899
7760,90.00000,1.93812,13.29458
7761,90.00000,3.40639,12.76018
7762,90.00000,4.87466,12.22577
7763,90.00000,6.34293,11.69136
7764,90.00000,7.81119,11.15696
7765,90.00000,9.27946,10.62255
7766,90.00000,10.74773,10.08814
7767,90.00000,12.21600,9.55374
7768,90.00000,0.49240,13.91318
7769,90.00000,2.03117,13.64185
7770,90.00000,3.56993,13.37053
7771,90.00000,5.10869,13.09920
7772,90.00000,6.64745,12.82787
7773,90.00000,8.18621,12.55655
7774,90.00000,9.72498,12.28522
7775,90.00000,11.26374,12.01390
7776,90.00000,12.80250,11.74257
7777,90.00000,0.50000,14.00000
7778,90.00000,2.06250,14.00000
7779,90.00000,3.62500,14.00000
7780,90.00000,5.18750,14.00000
7781,90.00000,6.75000,14.00000
7782,90.00000,8.31250,14.00000
7783,90.00000,9.87500,14.00000
7784,90.00000,11.43750,14.00000
7785,90.00000,13.00000,14.00000
7786,95.00000,0.50000,14.00000
7787,95.00000,2.06250,14.00000
7788,95.00000,3.62500,14.00000
7789,95.00000,5.18750,14.00000
7790,95.00000,6.75000,14.00000
7791,95.00000,8.31250,14.00000
7792,95.00000,9.87500,14.00000
7793,95.00000,11.43750,14.00000
7794,95.00000,13.00000,14.00000
7795,95.00000,0.49240,14.08682
7796,95.00000,2.03117,14.35815
7797,95.00000,3.56993,14.62947
7798,95.00000,5.10869,14.90080
7799,95.00000,6.64745,15.17213
7800,95.00000,8.18621,15.44345
7801,95.00000,9.72498,15.71478
7802,95.00000,11.26374,15.98610
7803,95.00000,12.80250,16.25743
7804,95.00000,0.46985,14.17101
7805,95.00000,1.93812,14.70542
7806,95.00000,3.40639,15.23982
7807,95.00000,4.87466,15.77423
7808,95.00000,6.34293,16.30864
7809,95.00000,7.81119,16.84304
7810,95.00000,9.27946,17.37745
7811,95.00000,10.74773,17.91186
7812,95.00000,12.21600,18.44626
7813,95.00000,0.43301,14.25000
7814,95.00000,1.78618,15.03125
7815,95.00000,3.13934,15.81250
7816,95.00000,4.49251,16.59375
7817,95.00000,5.84567,17.37500
7818,95.00000,7.19884,18.15625
7819,95.00000,8.55200,18.93750
7820,95.00000,9.90517,19.71875
7821,95.00000,11.25833,20.50000
7822,95.00000,0.38302,14.32139
7823,95.00000,1.57997,15.32575
7824,95.00000,2.77691,16.33011
7825,95.00000,3.97386,17.33446
7826,95.00000,5.17080,18.33882
7827,95.00000,6.36774,19.34317
7828,95.00000,7.56469,20.34753
7829,95.00000,8.76163,21.35188
7830,95.00000,9.95858,22.35624
7831,95.00000,0.32139,14.38302
7832,95.00000,1.32575,15.57997
7833,95.00000,2.33011,16.77691
7834,95.00000,3.33446,17.97386
7835,95.00000,4.33882,19.17080
7836,95.00000,5.34317,20.36774
7837,95.00000,6.34753,21.56469
7838,95.00000,7.35188,22.76163
7839,95.00000,8.35624,23.95858
7840,95.00000,0.25000,14.43301
7841,95.00000,1.03125,15.78618
7842,95.00000,1.81250,17.13934
7843,95.00000,2.59375,18.49251
7844,95.00000,3.37500,19.84567
7845,95.00000,4.15625,21.19884
7846,95.00000,4.93750,22.55200
7847,95.00000,5.71875,23.90517
7848,95.00000,6.50000,25.25833
7849,95.00000,0.17101,14.46985
7850,95.00000,0.70542,15.93812
7851,95.00000,1.23982,17.40639
7852,95.00000,1.77423,18.87466
7853,95.00000,2.30864,20.34293
7854,95.00000,2.84304,21.81119
7855,95.00000,3.37745,23.27946
7856,95.00000,3.91186,24.74773
7857,95.00000,4.44626,26.21600
7858,95.00000,0.08682,14.49240
7859,95.00000,0.35815,16.03117
7860,95.00000,0.62947,17.56993
7861,95.00000,0.90080,19.10869
7862,95.00000,1.17213,20.64745
7863,95.00000,1.44345,22.18621
7864,95.00000,1.71478,23.72498
7865,95.00000,1.98610,25.26374
7866,95.00000,2.25743,26.80250
7867,95.00000,0.00000,14.50000
7868,95.00000,0.00000,16.06250
7869,95.00000,0.00000,17.62500
7870,95.00000,0.00000,19.18750
7871,95.00000,0.00000,20.75000
7872,95.00000,0.00000,22.31250
7873,95.00000,0.00000,23.87500
7874,95.00000,0.00000,25.43750
7875,95.00000,0.00000,27.00000
7876,95.00000,-0.08682,14.49240
7877,95.00000,-0.35815,16.03117
7878,95.00000,-0.62947,17.56993
7879,95.00000,-0.90080,19.10869
7880,95.00000,-1.17213,20.64745
7881,95.00000,-1.44345,22.18621
7882,95.00000,-1.71478,23.72498
7883,95.00000,-1.98610,25.26374
7884,95.00000,-2.25743,26.80250
7885,95.00000,-0.17101,14.46985
7886,95.00000,-0.70542,15.93812
7887,95.00000,-1.23982,17.40639
7888,95.00000,-1.77423,18.87466
7889,95.00000,-2.30864,20.34293
7890,95.00000,-2.84304,21.81119
7891,95.00000,-3.37745,23.27946
7892,95.00000,-3.91186,24.74773
7893,95.00000,-4.44626,26.21600
7894,95.00000,-0.25000,14.43301
7895,95.00000,-1.03125,15.78618
7896,95.00000,-1.81250,17.13934
7897,95.00000,-2.59375,18.49251
7898,95.00000,-3.37500,19.84567
7899,95.00000,-4.15625,21.19884
7900,95.00000,-4.93750,22.55200
7901,95.00000,-5.71875,23.90517
7902,95.00000,-6.50000,25.25833
7903,95.00000,-0.32139,14.38302
7904,95.00000,-1.32575,15.57997
7905,95.00000,-2.33011,16.77691
7906,95.00000,-3.33446,17.97386
7907,95.00000,-4.33882,19.17080
7908,95.00000,-5.34317,20.36774
7909,95.00000,-6.34753,21.56469
7910,95.00000,-7.35188,22.76163
7911,95.00000,-8.35624,23.95858
7912,95.00000,-0.38302,14.32139
7913,95.00000,-1.57997,15.32575
7914,95.00000,-2.77691,16.33011
7915,95.00000,-3.97386,17.33446
7916,95.00000,-5.17080,18.33882
7917,95.00000,-6.36774,19.34317
7918,95.00000,-7.56469,20.34753
7919,95.00000,-8.76163,21.35188
7920,95.00000,-9.95858,22.35624
7921,95.00000,-0.43301,14.25000
7922,95.00000,-1.78618,15.03125
7923,95.00000,-3.13934,15.81250
7924,95.00000,-4.49251,16.59375
7925,95.00000,-5.84567,17.37500
7926,95.00000,-7.19884,18.15625
7927,95.00000,-8.55200,18.93750
7928,95.00000,-9.90517,19.71875
7929,95.00000,-11.25833,20.50000
7930,95.00000,-0.46985,14.17101
7931,95.00000,-1.93812,14.70542
7932,95.00000,-3.40639,15.23982
7933,95.00000,-4.87466,15.77423
7934,95.00000,-6.34293,16.30864
7935,95.00000,-7.81119,16.84304
7936,95.00000,-9.27946,17.37745
7937,95.00000,-10.74773,17.91186
7938,95.00000,-12.21600,18.44626
7939,95.00000,-0.49240,14.08682
7940,95.00000,-2.03117,14.35815
7941,95.00000,-3.56993,14.62947
7942,95.00000,-5.10869,14.90080
7943,95.00000,-6.64745,15.17213
7944,95.00000,-8.18621,15.44345
7945,95.00000,-9.72498,15.71478
7946,95.00000,-11.26374,15.98610
7947,95.00000,-12.80250,16.25743
7948,95.00000,-0.50000,14.00000
7949,95.00000,-2.06250,14.00000
7950,95.00000,-3.62500,14.00000
7951,95.00000,-5.18750,14.00000
7952,95.00000,-6.75000,14.00000
7953,95.00000,-8.31250,14.00000
7954,95.00000,-9.87500,14.00000
7955,95.00000,-11.43750,14.00000
7956,95.00000,-13.00000,14.00000
7957,95.00000,-0.49240,13.91318
7958,95.00000,-2.03117,13.64185
7959,95.00000,-3.56993,13.37053
7960,95.00000,-5.10869,13.09920
7961,95.00000,-6.64745,12.82787
7962,95.00000,-8.18621,12.55655
7963,95.00000,-9.72498,12.28522
7964,95.00000,-11.26374,12.01390
7965,95.00000,-12.80250,11.74257
7966,95.00000,-0.46985,13.82899
7967,95.00000,-1.93812,13.29458
7968,95.00000,-3.40639,12.76018
7969,95.00000,-4.87466,12.22577
7970,95.00000,-6.34293,11.69136
7971,95.00000,-7.81119,11.15696
7972,95.00000,-9.27946,10.62255
7973,95.00000,-10.74773,10.08814
7974,95.00000,-12.21600,9.55374
7975,95.00000,-0.43301,13.75000
7976,95.00000,-1.78618,12.96875
7977,95.00000,-3.13934,12.18750
7978,95.00000,-4.49251,11.40625
7979,95.00000,-5.84567,10.62500
7980,95.00000,-7.19884,9.84375
7981,95.00000,-8.55200,9.06250
7982,95.00000,-9.90517,8.28125
7983,95.00000,-11.25833,7.50000
7984,95.00000,-0.38302,13.67861
7985,95.00000,-1.57997,12.67425
7986,95.00000,-2.77691,11.66989
7987,95.00000,-3.97386,10.66554
7988,95.00000,-5.17080,9.66118
7989,95.00000,-6.36774,8.65683
7990,95.00000,-7.56469,7.65247
7991,95.00000,-8.76163,6.64812
7992,95.00000,-9.95858,5.64376
7993,95.00000,-0.32139,13.61698
7994,95.00000,-1.32575,12.42003
7995,95.00000,-2.33011,11.22309
7996,95.00000,-3.33446,10.02614
7997,95.00000,-4.33882,8.82920
7998,95.00000,-5.34317,7.63226
7999,95.00000,-6.34753,6.43531
8000,95.00000,-7.35188,5.23837
8001,95.00000,-8.35624,4.04142
8002,95.00000,-0.25000,13.56699
8003,95.00000,-1.03125,12.21382
8004,95.00000,-1.81250,10.86066
8005,95.00000,-2.59375,9.50749
8006,95.00000,-3.37500,8.15433
8007,95.00000,-4.15625,6.80116
8008,95.00000,-4.93750,5.44800
8009,95.00000,-5.71875,4.09483
8010,95.00000,-6.50000,2.74167
8011,95.00000,-0.17101,13.53015
8012,95.00000,-0.70542,12.06188
8013,95.00000,-1.23982,10.59361
8014,95.00000,-1.77423,9.12534
8015,95.00000,-2.30864,7.65707
8016,95.00000,-2.84304,6.18881
8017,95.00000,-3.37745,4.72054
8018,95.00000,-3.91186,3.25227
8019,95.00000,-4.44626,1.78400
8020,95.00000,-0.08682,13.50760
8021,95.00000,-0.35815,11.96883
8022,95.00000,-0.62947,10.43007
8023,95.00000,-0.90080,8.89131
8024,95.00000,-1.17213,7.35255
8025,95.00000,-1.44345,5.81379
8026,95.00000,-1.71478,4.27502
8027,95.00000,-1.98610,2.73626
8028,95.00000,-2.25743,1.19750
8029,95.00000,-0.00000,13.50000
8030,95.00000,-0.00000,11.93750
8031,95.00000,-0.00000,10.37500
8032,95.00000,-0.00000,8.81250
8033,95.00000,-0.00000,7.25000
8034,95.00000,-0.00000,5.68750
8035,95.00000,-0.00000,4.12500
8036,95.00000,-0.00000,2.56250
8037,95.00000,-0.00000,1.00000
8038,95.00000,0.08682,13.50760
8039,95.00000,0.35815,11.96883
8040,95.00000,0.62947,10.43007
8041,95.00000,0.90080,8.89131
8042,95.00000,1.17213,7.35255
8043,95.00000,1.44345,5.81379
8044,95.00000,1.71478,4.27502
8045,95.00000,1.98610,2.73626
8046,95.00000,2.25743,1.19750
8047,95.00000,0.17101,13.53015
8048,95.00000,0.70542,12.06188
8049,95.00000,1.23982,10.59361
8050,95.00000,1.77423,9.12534
8051,95.00000,2.30864,7.65707
8052,95.00000,2.84304,6.18881
8053,95.00000,3.37745,4.72054
8054,95.00000,3.91186,3.25227
8055,95.00000,4.44626,1.78400
8056,95.00000,0.25000,13.56699
8057,95.00000,1.03125,12.21382
8058,95.00000,1.81250,10.86066
8059,95.00000,2.59375,9.50749
8060,95.00000,3.37500,8.15433
8061,95.00000,4.15625,6.80116
8062,95.00000,4.93750,5.44800
8063,95.00000,5.71875,4.09483
8064,95.00000,6.50000,2.74167
8065,95.00000,0.32139,13.61698
8066,95.00000,1.32575,12.42003
8067,95.00000,2.33011,11.22309
8068,95.00000,3.33446,10.02614
8069,95.00000,4.33882,8.82920
8070,95.00000,5.34317,7.63226
8071,95.00000,6.34753,6.43531
8072,95.00000,7.35188,5.23837
8073,95.00000,8.35624,4.04142
8074,95.00000,0.38302,13.67861
8075,95.00000,1.57997,12.67425
8076,95.00000,2.77691,11.66989
8077,95.00000,3.97386,10.66554
8078,95.00000,5.17080,9.66118
8079,95.00000,6.36774,8.65683
8080,95.00000,7.56469,7.65247
8081,95.00000,8.76163,6.64812
8082,95.00000,9.95858,5.64376
8083,95.00000,0.43301,13.75000
8084,95.00000,1.78618,12.96875
8085,95.00000,3.13934,12.18750
8086,95.00000,4.49251,11.40625
8087,95.00000,5.84567,10.62500
8088,95.00000,7.19884,9.84375
8089,95.00000,8.55200,9.06250
8090,95.00000,9.90517,8.28125
8091,95.00000,11.25833,7.50000
8092,95.00000,0.46985,13.82899
8093,95.00000,1.93812,13.29458
8094,95.00000,3.40639,12.76018
8095,95.00000,4.87466,12.22577
8096,95.00000,6.34293,11.69136
8097,95.00000,7.81119,11.15696
8098,95.00000,9.27946,10.62255
8099,95.00000,10.74773,10.08814
8100,95.00000,12.21600,9.55374
8101,95.00000,0.49240,13.91318
8102,95.00000,2.03117,13.64185
8103,95.00000,3.56993,13.37053
8104,95.00000,5.10869,13.09920
8105,95.00000,6.64745,12.82787
8106,95.00000,8.18621,12.55655
8107,95.00000,9.72498,12.28522
8108,95.00000,11.26374,12.01390
8109,95.00000,12.80250,11.74257
8110,95.00000,0.50000,14.00000
8111,95.00000,2.06250,14.00000
8112,95.00000,3.62500,14.00000
8113,95.00000,5.18750,14.00000
8114,95.00000,6.75000,14.00000
8115,95.00000,8.31250,14.00000
8116,95.00000,9.87500,14.00000
8117,95.00000,11.43750,14.00000
8118,95.00000,13.00000,14.00000
8119,100.00000,0.50000,14.00000
8120,100.00000,2.06250,14.00000
8121,100.00000,3.62500,14.00000
8122,100.00000,5.18750,14.00000
8123,100.00000,6.75000,14.00000
8124,100.00000,8.31250,14.00000
8125,100.00000,9.87500,14.00000
8126,100.00000,11.43750,14.00000
8127,100.00000,13.00000,14.00000
8128,100.00000,0.49240,14.08682
8129,100.00000,2.03117,14.35815
8130,100.00000,3.56993,14.62947
8131,100.00000,5.10869,14.90080
8132,100.00000,6.64745,15.17213
8133,100.00000,8.18621,15.44345
8134,100.00000,9.72498,15.71478
8135,100.00000,11.26374,15.98610
8136,100.00000,12.80250,16.25743
8137,100.00000,0.46985,14.17101
8138,100.00000,1.93812,14.70542
8139,100.00000,3.40639,15.23982
8140,100.00000,4.87466,15.77423
8141,100.00000,6.34293,16.30864
8142,100.00000,7.81119,16.84304
8143,100.00000,9.27946,17.37745
8144,100.00000,10.74773,17.91186
8145,100.00000,12.21600,18.44626
8146,100.00000,0.43301,14.25000
8147,100.00000,1.78618,15.03125
8148,100.00000,3.13934,15.81250
8149,100.00000,4.49251,16.59375
8150,100.00000,5.84567,17.37500
8151,100.00000,7.19884,18.15625
8152,100.00000,8.55200,18.93750
8153,100.00000,9.90517,19.71875
8154,100.00000,11.25833,20.50000
8155,100.00000,0.38302,14.32139
8156,100.00000,1.57997,15.32575
8157,100.00000,2.77691,16.33011
8158,100.00000,3.97386,17.33446
8159,100.00000,5.17080,18.33882
8160,100.00000,6.36774,19.34317
8161,100.00000,7.56469,20.34753
8162,100.00000,8.76163,21.35188
8163,100.00000,9.95858,22.35624
8164,100.00000,0.32139,14.38302
8165,100.00000,1.32575,15.57997
8166,100.00000,2.33011,16.77691
8167,100.00000,3.33446,17.97386
8168,100.00000,4.33882,19.17080
8169,100.00000,5.34317,20.36774
8170,100.00000,6.34753,21.56469
8171,100.00000,7.35188,22.76163
8172,100.00000,8.35624,23.95858
8173,100.00000,0.25000,14.43301
8174,100.00000,1.03125,15.78618
8175,100.00000,1.81250,17.13934
8176,100.00000,2.59375,18.49251
8177,100.00000,3.37500,19.84567
8178,100.00000,4.15625,21.19884
8179,100.00000,4.93750,22.55200
8180,100.00000,5.71875,23.90517
8181,100.00000,6.50000,25.25833
8182,100.00000,0.17101,14.46985
8183,100.00000,0.70542,15.93812
8184,100.00000,1.23982,17.40639
8185,100.00000,1.77423,18.87466
8186,100.00000,2.30864,20.34293
8187,100.00000,2.84304,21.81119
8188,100.00000,3.37745,23.27946
8189,100.00000,3.91186,24.74773
8190,100.00000,4.44626,26.21600
8191,100.00000,0.08682,14.49240
8192,100.00000,0.35815,16.03117
8193,100.00000,0.62947,17.56993
8194,100.00000,0.90080,19.10869
8195,100.00000,1.17213,20.64745
8196,100.00000,1.44345,22.18621
8197,100.00000,1.71478,23.72498
8198,100.00000,1.98610,25.26374
8199,100.00000,2.25743,26.80250
8200,100.00000,0.00000,14.50000
8201,100.00000,0.00000,16.06250
8202,100.00000,0.00000,17.62500
8203,100.00000,0.00000,19.18750
8204,100.00000,0.00000,20.75000
8205,100.00000,0.00000,22.31250
8206,100.00000,0.00000,23.87500
8207,100.00000,0.00000,25.43750
8208,100.00000,0.00000,27.00000
8209,100.00000,-0.08682,14.49240
8210,100.00000,-0.35815,16.03117
8211,100.00000,-0.62947,17.56993
8212,100.00000,-0.90080,19.10869
8213,100.00000,-1.17213,20.64745
8214,100.00000,-1.44345,22.18621
8215,100.00000,-1.71478,23.72498
8216,100.00000,-1.98610,25.26374
8217,100.00000,-2.25743,26.80250
8218,100.00000,-0.17101,14.46985
8219,100.00000,-0.70542,15.93812
8220,100.00000,-1.23982,17.40639
8221,100.00000,-1.77423,18.87466
8222,100.00000,-2.30864,20.34293
8223,100.00000,-2.84304,21.81119
8224,100.00000,-3.37745,23.27946
8225,100.00000,-3.91186,24.74773
8226,100.00000,-4.44626,26.21600
8227,100.00000,-0.25000,14.43301
8228,100.00000,-1.03125,15.78618
8229,100.00000,-1.81250,17.13934
8230,100.00000,-2.59375,18.49251
8231,100.00000,-3.37500,19.84567
8232,100.00000,-4.15625,21.19884
8233,100.00000,-4.93750,22.55200
8234,100.00000,-5.71875,23.90517
8235,100.00000,-6.50000,25.25833
8236,100.00000,-0.32139,14.38302
8237,100.00000,-1.32575,15.57997
8238,100.00000,-2.33011,16.77691
8239,100.00000,-3.33446,17.97386
8240,100.00000,-4.33882,19.17080
8241,100.00000,-5.34317,20.36774
8242,100.00000,-6.34753,21.56469
8243,100.00000,-7.35188,22.76163
8244,100.00000,-8.35624,23.95858
8245,100.00000,-0.38302,14.32139
8246,100.00000,-1.57997,15.32575
8247,100.00000,-2.77691,16.33011
8248,100.00000,-3.97386,17.33446
8249,100.00000,-5.17080,18.33882
8250,100.00000,-6.36774,19.34317
8251,100.00000,-7.56469,20.34753
8252,100.00000,-8.76163,21.35188
8253,100.00000,-9.95858,22.35624
8254,100.00000,-0.43301,14.25000
8255,100.00000,-1.78618,15.03125
8256,100.00000,-3.13934,15.81250
8257,100.00000,-4.49251,16.59375
8258,100.00000,-5.84567,17.37500
8259,100.00000,-7.19884,18.15625
8260,100.00000,-8.55200,18.93750
8261,100.00000,-9.90517,19.71875
8262,100.00000,-11.25833,20.50000
8263,100.00000,-0.46985,14.17101
8264,100.00000,-1.93812,14.70542
8265,100.00000,-3.40639,15.23982
8266,100.00000,-4.87466,15.77423
8267,100.00000,-6.34293,16.30864
8268,100.00000,-7.81119,16.84304
8269,100.00000,-9.27946,17.37745
8270,100.00000,-10.74773,17.91186
8271,100.00000,-12.21600,18.44626
8272,100.00000,-0.49240,14.08682
8273,100.00000,-2.03117,14.35815
8274,100.00000,-3.56993,14.62947
8275,100.00000,-5.10869,14.90080
8276,100.00000,-6.64745,15.17213
8277,100.00000,-8.18621,15.44345
8278,100.00000,-9.72498,15.71478
8279,100.00000,-11.26374,15.98610
8280,100.00000,-12.80250,16.25743
8281,100.00000,-0.50000,14.00000
8282,100.00000,-2.06250,14.00000
8283,100.00000,-3.62500,14.00000
8284,100.00000,-5.18750,14.00000
8285,100.00000,-6.75000,14.00000
8286,100.00000,-8.31250,14.00000
8287,100.00000,-9.87500,14.00000
8288,100.00000,-11.43750,14.00000
8289,100.00000,-13.00000,14.00000
8290,100.00000,-0.49240,13.91318
8291,100.00000,-2.03117,13.64185
8292,100.00000,-3.56993,13.37053
8293,100.00000,-5.10869,13.09920
8294,100.00000,-6.64745,12.82787
8295,100.00000,-8.18621,12.55655
8296,100.00000,-9.72498,12.28522
8297,100.00000,-11.26374,12.01390
8298,100.00000,-12.80250,11.74257
8299,100.00000,-0.46985,13.82899
8300,100.00000,-1.93812,13.29458
8301,100.00000,-3.40639,12.76018
8302,100.00000,-4.87466,12.22577
8303,100.00000,-6.34293,11.69136
8304,100.00000,-7.81119,11.15696
8305,100.00000,-9.27946,10.62255
8306,100.00000,-10.74773,10.08814
8307,100.00000,-12.21600,9.55374
8308,100.00000,-0.43301,13.75000
8309,100.00000,-1.78618,12.96875
8310,100.00000,-3.13934,12.18750
8311,100.00000,-4.49251,11.40625
8312,100.00000,-5.84567,10.62500
8313,100.00000,-7.19884,9.84375
8314,100.00000,-8.55200,9.06250
8315,100.00000,-9.90517,8.28125
8316,100.00000,-11.25833,7.50000
8317,100.00000,-0.38302,13.67861
8318,100.00000,-1.57997,12.67425
8319,100.00000,-2.77691,11.66989
8320,100.00000,-3.97386,10.66554
8321,100.00000,-5.17080,9.66118
8322,100.00000,-6.36774,8.65683
8323,100.00000,-7.56469,7.65247
8324,100.00000,-8.76163,6.64812
8325,100.00000,-9.95858,5.64376
8326,100.00000,-0.32139,13.61698
8327,100.00000,-1.32575,12.42003
8328,100.00000,-2.33011,11.22309
8329,100.00000,-3.33446,10.02614
8330,100.00000,-4.33882,8.82920
8331,100.00000,-5.34317,7.63226
8332,100.00000,-6.34753,6.43531
8333,100.00000,-7.35188,5.23837
8334,100.00000,-8.35624,4.04142
8335,100.00000,-0.25000,13.56699
8336,100.00000,-1.03125,12.21382
8337,100.00000,-1.81250,10.86066
8338,100.00000,-2.59375,9.50749
8339,100.00000,-3.37500,8.15433
8340,100.00000,-4.15625,6.80116
8341,100.00000,-4.93750,5.44800
8342,100.00000,-5.71875,4.09483
8343,100.00000,-6.50000,2.74167
8344,100.00000,-0.17101,13.53015
8345,100.00000,-0.70542,12.06188
8346,100.00000,-1.23982,10.59361
8347,100.00000,-1.77423,9.12534
8348,100.00000,-2.30864,7.65707
8349,100.00000,-2.84304,6.18881
8350,100.00000,-3.37745,4.72054
8351,100.00000,-3.91186,3.25227
8352,100.00000,-4.44626,1.78400
8353,100.00000,-0.08682,13.50760
8354,100.00000,-0.35815,11.96883
8355,100.00000,-0.62947,10.43007
8356,100.00000,-0.90080,8.89131
8357,100.00000,-1.17213,7.35255
8358,100.00000,-1.44345,5.81379
8359,100.00000,-1.71478,4.27502
8360,100.00000,-1.98610,2.73626
8361,100.00000,-2.25743,1.19750
8362,100.00000,-0.00000,13.50000
8363,100.00000,-0.00000,11.93750
8364,100.00000,-0.00000,10.37500
8365,100.00000,-0.00000,8.81250
8366,100.00000,-0.00000,7.25000
8367,100.00000,-0.00000,5.68750
8368,100.00000,-0.00000,4.12500
8369,100.00000,-0.00000,2.56250
8370,100.00000,-0.00000,1.00000
8371,100.00000,0.08682,13.50760
8372,100.00000,0.35815,11.96883
8373,100.00000,0.62947,10.43007
8374,100.00000,0.90080,8.89131
8375,100.00000,1.17213,7.35255
8376,100.00000,1.44345,5.81379
8377,100.00000,1.71478,4.27502
8378,100.00000,1.98610,2.73626
8379,100.00000,2.25743,1.19750
8380,100.00000,0.17101,13.53015
8381,100.00000,0.70542,12.06188
8382,100.00000,1.23982,10.59361
8383,100.00000,1.77423,9.12534
8384,100.00000,2.30864,7.65707
8385,100.00000,2.84304,6.18881
8386,100.00000,3.37745,4.72054
8387,100.00000,3.91186,3.25227
8388,100.00000,4.44626,1.78400
8389,100.00000,0.25000,13.56699
8390,100.00000,1.03125,12.21382
8391,100.00000,1.81250,10.86066
8392,100.00000,2.59375,9.50749
8393,100.00000,3.37500,8.15433
8394,100.00000,4.15625,6.80116
8395,100.00000,4.93750,5.44800
8396,100.00000,5.71875,4.09483
8397,100.00000,6.50000,2.74167
8398,100.00000,0.32139,13.61698
8399,100.00000,1.32575,12.42003
8400,100.00000,2.33011,11.22309
8401,100.00000,3.33446,10.02614
8402,100.00000,4.33882,8.82920
8403,100.00000,5.34317,7.63226
8404,100.00000,6.34753,6.43531
8405,100.00000,7.35188,5.23837
8406,100.00000,8.35624,4.04142
8407,100.00000,0.38302,13.67861
8408,100.00000,1.57997,12.67425
8409,100.00000,2.77691,11.66989
8410,100.00000,3.97386,10.66554
8411,100.00000,5.17080,9.66118
8412,100.00000,6.36774,8.65683
8413,100.00000,7.56469,7.65247
8414,100.00000,8.76163,6.64812
8415,100.00000,9.95858,5.64376
8416,100.00000,0.43301,13.75000
8417,100.00000,1.78618,12.96875
8418,100.00000,3.13934,12.18750
8419,100.00000,4.49251,11.40625
8420,100.00000,5.84567,10.62500
8421,100.00000,7.19884,9.84375
8422,100.00000,8.55200,9.06250
8423,100.00000,9.90517,8.28125
8424,100.00000,11.25833,7.50000
8425,100.00000,0.46985,13.82899
8426,100.00000,1.93812,13.29458
8427,100.00000,3.40639,12.76018
8428,100.00000,4.87466,12.22577
8429,100.00000,6.34293,11.69136
8430,100.00000,7.81119,11.15696
8431,100.00000,9.27946,10.62255
8432,100.00000,10.74773,10.08814
8433,100.00000,12.21600,9.55374
8434,100.00000,0.49240,13.91318
8435,100.00000,2.03117,13.64185
8436,100.00000,3.56993,13.37053
8437,100.00000,5.10869,13.09920
8438,100.00000,6.64745,12.82787
8439,100.00000,8.18621,12.55655
8440,100.00000,9.72498,12.28522
8441,100.00000,11.26374,12.01390
8442,100.00000,12.80250,11.74257
8443,100.00000,0.50000,14.00000
8444,100.00000,2.06250,14.00000
8445,100.00000,3.62500,14.00000
8446,100.00000,5.18750,14.00000
8447,100.00000,6.75000,14.00000
8448,100.00000,8.31250,14.00000
8449,100.00000,9.87500,14.00000
8450,100.00000,11.43750,14.00000
8451,100.00000,13.00000,14.00000
8452,105.00000,0.50000,14.00000
8453,105.00000,2.06250,14.00000
8454,105.00000,3.62500,14.00000
8455,105.00000,5.18750,14.00000
8456,105.00000,6.75000,14.00000
8457,105.00000,8.31250,14.00000
8458,105.00000,9.87500,14.00000
8459,105.00000,11.43750,14.00000
8460,105.00000,13.00000,14.00000
8461,105.00000,0.49240,14.08682
8462,105.00000,2.03117,14.35815
8463,105.00000,3.56993,14.62947
8464,105.00000,5.10869,14.90080
8465,105.00000,6.64745,15.17213
8466,105.00000,8.18621,15.44345
8467,105.00000,9.72498,15.71478
8468,105.00000,11.26374,15.98610
8469,105.00000,12.80250,16.25743
8470,105.00000,0.46985,14.17101
8471,105.00000,1.93812,14.70542
8472,105.00000,3.40639,15.23982
8473,105.00000,4.87466,15.77423
8474,105.00000,6.34293,16.30864
8475,105.00000,7.81119,16.84304
8476,105.00000,9.27946,17.37745
8477,105.00000,10.74773,17.91186
8478,105.00000,12.21600,18.44626
8479,105.00000,0.43301,14.25000
8480,105.00000,1.78618,15.03125
8481,105.00000,3.13934,15.81250
8482,105.00000,4.49251,16.59375
8483,105.00000,5.84567,17.37500
8484,105.00000,7.19884,18.15625
8485,105.00000,8.55200,18.93750
8486,105.00000,9.90517,19.71875
8487,105.00000,11.25833,20.50000
8488,105.00000,0.38302,14.32139
8489,105.00000,1.57997,15.32575
8490,105.00000,2.77691,16.33011
8491,105.00000,3.97386,17.33446
8492,105.00000,5.17080,18.33882
8493,105.00000,6.36774,19.34317
8494,105.00000,7.56469,20.34753
8495,105.00000,8.76163,21.35188
8496,105.00000,9.95858,22.35624
8497,105.00000,0.32139,14.38302
8498,105.00000,1.32575,15.57997
8499,105.00000,2.33011,16.77691
8500,105.00000,3.33446,17.97386
8501,105.00000,4.33882,19.17080
8502,105.00000,5.34317,20.36774
8503,105.00000,6.34753,21.56469
8504,105.00000,7.35188,22.76163
8505,105.00000,8.35624,23.95858
8506,105.00000,0.25000,14.43301
8507,105.00000,1.03125,15.78618
8508,105.00000,1.81250,17.13934
8509,105.00000,2.59375,18.49251
8510,105.00000,3.37500,19.84567
8511,105.00000,4.15625,21.19884
8512,105.00000,4.93750,22.55200
8513,105.00000,5.71875,23.90517
8514,105.00000,6.50000,25.25833
8515,105.00000,0.17101,14.46985
8516,105.00000,0.70542,15.93812
8517,105.00000,1.23982,17.40639
8518,105.00000,1.77423,18.87466
8519,105.00000,2.30864,20.34293
8520,105.00000,2.84304,21.81119
8521,105.00000,3.37745,23.27946
8522,105.00000,3.91186,24.74773
8523,105.00000,4.44626,26.21600
8524,105.00000,0.08682,14.49240
8525,105.00000,0.35815,16.03117
8526,105.00000,0.62947,17.56993
8527,105.00000,0.90080,19.10869
8528,105.00000,1.17213,20.64745
8529,105.00000,1.44345,22.18621
8530,105.00000,1.71478,23.72498
8531,105.00000,1.98610,25.26374
8532,105.00000,2.25743,26.80250
8533,105.00000,0.00000,14.50000
8534,105.00000,0.00000,16.06250
8535,105.00000,0.00000,17.62500
8536,105.00000,0.00000,19.18750
8537,105.00000,0.00000,20.75000
8538,105.00000,0.00000,22.31250
8539,105.00000,0.00000,23.87500
8540,105.00000,0.00000,25.43750
8541,105.00000,0.00000,27.00000
8542,105.00000,-0.08682,14.49240
8543,105.00000,-0.35815,16.03117
8544,105.00000,-0.62947,17.56993
8545,105.00000,-0.90080,19.10869
8546,105.00000,-1.17213,20.64745
8547,105.00000,-1.44345,22.18621
8548,105.00000,-1.71478,23.72498
8549,105.00000,-1.98610,25.26374
8550,105.00000,-2.25743,26.80250
8551,105.00000,-0.17101,14.46985
8552,105.00000,-0.70542,15.93812
8553,105.00000,-1.23982,17.40639
8554,105.00000,-1.77423,18.87466
8555,105.00000,-2.30864,20.34293
8556,105.00000,-2.84304,21.81119
8557,105.00000,-3.37745,23.27946
8558,105.00000,-3.91186,24.74773
8559,105.00000,-4.44626,26.21600
8560,105.00000,-0.25000,14.43301
8561,105.00000,-1.03125,15.78618
8562,105.00000,-1.81250,17.13934
8563,105.00000,-2.59375,18.49251
8564,105.00000,-3.37500,19.84567
8565,105.00000,-4.15625,21.19884
8566,105.00000,-4.93750,22.55200
8567,105.00000,-5.71875,23.90517
8568,105.00000,-6.50000,25.25833
8569,105.00000,-0.32139,14.38302
8570,105.00000,-1.32575,15.57997
8571,105.00000,-2.33011,16.77691
8572,105.00000,-3.33446,17.97386
8573,105.00000,-4.33882,19.17080
8574,105.00000,-5.34317,20.36774
8575,105.00000,-6.34753,21.56469
8576,105.00000,-7.35188,22.76163
8577,105.00000,-8.35624,23.95858
8578,105.00000,-0.38302,14.32139
8579,105.00000,-1.57997,15.32575
8580,105.00000,-2.77691,16.33011
8581,105.00000,-3.97386,17.33446
8582,105.00000,-5.17080,18.33882
8583,105.00000,-6.36774,19.34317
8584,105.00000,-7.56469,20.34753
8585,105.00000,-8.76163,21.35188
8586,105.00000,-9.95858,22.35624
8587,105.00000,-0.43301,14.25000
8588,105.00000,-1.78618,15.03125
8589,105.00000,-3.13934,15.81250
8590,105.00000,-4.49251,16.59375
8591,105.00000,-5.84567,17.37500
8592,105.00000,-7.19884,18.15625
8593,105.00000,-8.55200,18.93750
8594,105.00000,-9.90517,19.71875
8595,105.00000,-11.25833,20.50000
8596,105.00000,-0.46985,14.17101
8597,105.00000,-1.93812,14.70542
8598,105.00000,-3.40639,15.23982
8599,105.00000,-4.87466,15.77423
8600,105.00000,-6.34293,16.30864
8601,105.00000,-7.81119,16.84304
8602,105.00000,-9.27946,17.37745
8603,105.00000,-10.74773,17.91186
8604,105.00000,-12.21600,18.44626
8605,105.00000,-0.49240,14.08682
8606,105.00000,-2.03117,14.35815
8607,105.00000,-3.56993,14.62947
8608,105.00000,-5.10869,14.90080
8609,105.00000,-6.64745,15.17213
8610,105.00000,-8.18621,15.44345
8611,105.00000,-9.72498,15.71478
8612,105.00000,-11.26374,15.98610
8613,105.00000,-12.80250,16.25743
8614,105.00000,-0.50000,14.00000
8615,105.00000,-2.06250,14.00000
8616,105.00000,-3.62500,14.00000
8617,105.00000,-5.18750,14.00000
8618,105.00000,-6.75000,14.00000
8619,105.00000,-8.31250,14.00000
8620,105.00000,-9.87500,14.00000
8621,105.00000,-11.43750,14.00000
8622,105.00000,-13.00000,14.00000
8623,105.00000,-0.49240,13.91318
8624,105.00000,-2.03117,13.64185
8625,105.00000,-3.56993,13.37053
8626,105.00000,-5.10869,13.09920
8627,105.00000,-6.64745,12.82787
8628,105.00000,-8.18621,12.55655
8629,105.00000,-9.72498,12.28522
8630,105.00000,-11.26374,12.01390
8631,105.00000,-12.80250,11.74257
8632,105.00000,-0.46985,13.82899
8633,105.00000,-1.93812,13.29458
8634,105.00000,-3.40639,12.76018
8635,105.00000,-4.87466,12.22577
8636,105.00000,-6.34293,11.69136
8637,105.00000,-7.81119,11.15696
8638,105.00000,-9.27946,10.62255
8639,105.00000,-10.74773,10.08814
8640,105.00000,-12.21600,9.55374
8641,105.00000,-0.43301,13.75000
8642,105.00000,-1.78618,12.96875
8643,105.00000,-3.13934,12.18750
8644,105.00000,-4.49251,11.40625
8645,105.00000,-5.84567,10.62500
8646,105.00000,-7.19884,9.84375
8647,105.00000,-8.55200,9.06250
8648,105.00000,-9.90517,8.28125
8649,105.00000,-11.25833,7.50000
8650,105.00000,-0.38302,13.67861
8651,105.00000,-1.57997,12.67425
8652,105.00000,-2.77691,11.66989
8653,105.00000,-3.97386,10.66554
8654,105.00000,-5.17080,9.66118
8655,105.00000,-6.36774,8.65683
8656,105.00000,-7.56469,7.65247
8657,105.00000,-8.76163,6.64812
8658,105.00000,-9.95858,5.64376
8659,105.00000,-0.32139,13.61698
8660,105.00000,-1.32575,12.42003
8661,105.00000,-2.33011,11.22309
8662,105.00000,-3.33446,10.02614
8663,105.00000,-4.33882,8.82920
8664,105.00000,-5.34317,7.63226
8665,105.00000,-6.34753,6.43531
8666,105.00000,-7.35188,5.23837
8667,105.00000,-8.35624,4.04142
8668,105.00000,-0.25000,13.56699
8669,105.00000,-1.03125,12.21382
8670,105.00000,-1.81250,10.86066
8671,105.00000,-2.59375,9.50749
8672,105.00000,-3.37500,8.15433
8673,105.00000,-4.15625,6.80116
8674,105.00000,-4.93750,5.44800
8675,105.00000,-5.71875,4.09483
8676,105.00000,-6.50000,2.74167
8677,105.00000,-0.17101,13.53015
8678,105.00000,-0.70542,12.06188
8679,105.00000,-1.23982,10.59361
8680,105.00000,-1.77423,9.12534
8681,105.00000,-2.30864,7.65707
8682,105.00000,-2.84304,6.18881
8683,105.00000,-3.37745,4.72054
8684,105.00000,-3.91186,3.25227
8685,105.00000,-4.44626,1.78400
8686,105.00000,-0.08682,13.50760
8687,105.00000,-0.35815,11.96883
8688,105.00000,-0.62947,10.43007
8689,105.00000,-0.90080,8.89131
8690,105.00000,-1.17213,7.35255
8691,105.00000,-1.44345,5.81379
8692,105.00000,-1.71478,4.27502
8693,105.00000,-1.98610,2.73626
8694,105.00000,-2.25743,1.19750
8695,105.00000,-0.00000,13.50000
8696,105.00000,-0.00000,11.93750
8697,105.00000,-0.00000,10.37500
8698,105.00000,-0.00000,8.81250
8699,105.00000,-0.00000,7.25000
8700,105.00000,-0.00000,5.68750
8701,105.00000,-0.00000,4.12500
8702,105.00000,-0.00000,2.56250
8703,105.00000,-0.00000,1.00000
8704,105.00000,0.08682,13.50760
8705,105.00000,0.35815,11.96883
8706,105.00000,0.62947,10.43007
8707,105.00000,0.90080,8.89131
8708,105.00000,1.17213,7.35255
8709,105.00000,1.44345,5.81379
8710,105.00000,1.71478,4.27502
8711,105.00000,1.98610,2.73626
8712,105.00000,2.25743,1.19750
8713,105.00000,0.17101,13.53015
8714,105.00000,0.70542,12.06188
8715,105.00000,1.23982,10.59361
8716,105.00000,1.77423,9.12534
8717,105.00000,2.30864,7.65707
8718,105.00000,2.84304,6.18881
8719,105.00000,3.37745,4.72054
8720,105.00000,3.91186,3.25227
8721,105.00000,4.44626,1.78400
8722,105.00000,0.25000,13.56699
8723,105.00000,1.03125,12.21382
8724,105.00000,1.81250,10.86066
8725,105.00000,2.59375,9.50749
8726,105.00000,3.37500,8.15433
8727,105.00000,4.15625,6.80116
8728,105.00000,4.93750,5.44800
8729,105.00000,5.71875,4.09483
8730,105.00000,6.50000,2.74167
8731,105.00000,0.32139,13.61698
8732,105.00000,1.32575,12.42003
8733,105.00000,2.33011,11.22309
8734,105.00000,3.33446,10.02614
8735,105.00000,4.33882,8.82920
8736,105.00000,5.34317,7.63226
8737,105.00000,6.34753,6.43531
8738,105.00000,7.35188,5.23837
8739,105.00000,8.35624,4.04142
8740,105.00000,0.38302,13.67861
8741,105.00000,1.57997,12.67425
8742,105.00000,2.77691,11.66989
8743,105.00000,3.97386,10.66554
8744,105.00000,5.17080,9.66118
8745,105.00000,6.36774,8.65683
8746,105.00000,7.56469,7.65247
8747,105.00000,8.76163,6.64812
8748,105.00000,9.95858,5.64376
8749,105.00000,0.43301,13.75000
8750,105.00000,1.78618,12.96875
8751,105.00000,3.13934,12.18750
8752,105.00000,4.49251,11.40625
8753,105.00000,5.84567,10.62500
8754,105.00000,7.19884,9.84375
8755,105.00000,8.55200,9.06250
8756,105.00000,9.90517,8.28125
8757,105.00000,11.25833,7.50000
8758,105.00000,0.46985,13.82899
8759,105.00000,1.93812,13.29458
8760,105.00000,3.40639,12.76018
8761,105.00000,4.87466,12.22577
8762,105.00000,6.34293,11.69136
8763,105.00000,7.81119,11.15696
8764,105.00000,9.27946,10.62255
8765,105.00000,10.74773,10.08814
8766,105.00000,12.21600,9.55374
8767,105.00000,0.49240,13.91318
8768,105.00000,2.03117,13.64185
8769,105.00000,3.56993,13.37053
8770,105.00000,5.10869,13.09920
8771,105.00000,6.64745,12.82787
8772,105.00000,8.18621,12.55655
8773,105.00000,9.72498,12.28522
8774,105.00000,11.26374,12.01390
8775,105.00000,12.80250,11.74257
8776,105.00000,0.50000,14.00000
8777,105.00000,2.06250,14.00000
8778,105.00000,3.62500,14.00000
8779,105.00000,5.18750,14.00000
8780,105.00000,6.75000,14.00000
8781,105.00000,8.31250,14.00000
8782,105.00000,9.87500,14.00000
8783,105.00000,11.43750,14.00000
8784,105.00000,13.00000,14.00000
8785,110.00000,0.50000,14.00000
8786,110.00000,2.06250,14.00000
8787,110.00000,3.62500,14.00000
8788,110.00000,5.18750,14.00000
8789,110.00000,6.75000,14.00000
8790,110.00000,8.31250,14.00000
8791,110.00000,9.87500,14.00000
8792,110.00000,11.43750,14.00000
8793,110.00000,13.00000,14.00000
8794,110.00000,0.49240,14.08682
8795,110.00000,2.03117,14.35815
8796,110.00000,3.56993,14.62947
8797,110.00000,5.10869,14.90080
8798,110.00000,6.64745,15.17213
8799,110.00000,8.18621,15.44345
8800,110.00000,9.72498,15.71478
8801,110.00000,11.26374,15.98610
8802,110.00000,12.80250,16.25743
8803,110.00000,0.46985,14.17101
8804,110.00000,1.93812,14.70542
8805,110.00000,3.40639,15.23982
8806,110.00000,4.87466,15.77423
8807,110.00000,6.34293,16.30864
8808,110.00000,7.81119,16.84304
8809,110.00000,9.27946,17.37745
8810,110.00000,10.74773,17.91186
8811,110.00000,12.21600,18.44626
8812,110.00000,0.43301,14.25000
8813,110.00000,1.78618,15.03125
8814,110.00000,3.13934,15.81250
8815,110.00000,4.49251,16.59375
8816,110.00000,5.84567,17.37500
8817,110.00000,7.19884,18.15625
8818,110.00000,8.55200,18.93750
8819,110.00000,9.90517,19.71875
8820,110.00000,11.25833,20.50000
8821,110.00000,0.38302,14.32139
8822,110.00000,1.57997,15.32575
8823,110.00000,2.77691,16.33011
8824,110.00000,3.97386,17.33446
8825,110.00000,5.17080,18.33882
8826,110.00000,6.36774,19.34317
8827,110.00000,7.56469,20.34753
8828,110.00000,8.76163,21.35188
8829,110.00000,9.95858,22.35624
8830,110.00000,0.32139,14.38302
8831,110.00000,1.32575,15.57997
8832,110.00000,2.33011,16.77691
8833,110.00000,3.33446,17.97386
8834,110.00000,4.33882,19.17080
8835,110.00000,5.34317,20.36774
8836,110.00000,6.34753,21.56469
8837,110.00000,7.35188,22.76163
8838,110.00000,8.35624,23.95858
8839,110.00000,0.25000,14.43301
8840,110.00000,1.03125,15.78618
8841,110.00000,1.81250,17.13934
8842,110.00000,2.59375,18.49251
8843,110.00000,3.37500,19.84567
8844,110.00000,4.15625,21.19884
8845,110.00000,4.93750,22.55200
8846,110.00000,5.71875,23.90517
8847,110.00000,6.50000,25.25833
8848,110.00000,0.17101,14.46985
8849,110.00000,0.70542,15.93812
8850,110.00000,1.23982,17.40639
8851,110.00000,1.77423,18.87466
8852,110.00000,2.30864,20.34293
8853,110.00000,2.84304,21.81119
8854,110.00000,3.37745,23.27946
8855,110.00000,3.91186,24.74773
8856,110.00000,4.44626,26.21600
8857,110.00000,0.08682,14.49240
8858,110.00000,0.35815,16.03117
8859,110.00000,0.62947,17.56993
8860,110.00000,0.90080,19.10869
8861,110.00000,1.17213,20.64745
8862,110.00000,1.44345,22.18621
8863,110.00000,1.71478,23.72498
8864,110.00000,1.98610,25.26374
8865,110.00000,2.25743,26.80250
8866,110.00000,0.00000,14.50000
8867,110.00000,0.00000,16.06250
8868,110.00000,0.00000,17.62500
8869,110.00000,0.00000,19.18750
8870,110.00000,0.00000,20.75000
8871,110.00000,0.00000,22.31250
8872,110.00000,0.00000,23.87500
8873,110.00000,0.00000,25.43750
8874,110.00000,0.00000,27.00000
8875,110.00000,-0.08682,14.49240
8876,110.00000,-0.35815,16.03117
8877,110.00000,-0.62947,17.56993
8878,110.00000,-0.90080,19.10869
8879,110.00000,-1.17213,20.64745
8880,110.00000,-1.44345,22.18621
8881,110.00000,-1.71478,23.72498
8882,110.00000,-1.98610,25.26374
8883,110.00000,-2.25743,26.80250
8884,110.00000,-0.17101,14.46985
8885,110.00000,-0.70542,15.93812
8886,110.00000,-1.23982,17.40639
8887,110.00000,-1.77423,18.87466
8888,110.00000,-2.30864,20.34293
8889,110.00000,-2.84304,21.81119
8890,110.00000,-3.37745,23.27946
8891,110.00000,-3.91186,24.74773
8892,110.00000,-4.44626,26.21600
8893,110.00000,-0.25000,14.43301
8894,110.00000,-1.03125,15.78618
8895,110.00000,-1.81250,17.13934
8896,110.00000,-2.59375,18.49251
8897,110.00000,-3.37500,19.84567
8898,110.00000,-4.15625,21.19884
8899,110.00000,-4.93750,22.55200
8900,110.00000,-5.71875,23.90517
8901,110.00000,-6.50000,25.25833
8902,110.00000,-0.32139,14.38302
8903,110.00000,-1.32575,15.57997
8904,110.00000,-2.33011,16.77691
8905,110.00000,-3.33446,17.97386
8906,110.00000,-4.33882,19.17080
8907,110.00000,-5.34317,20.36774
8908,110.00000,-6.34753,21.56469
8909,110.00000,-7.35188,22.76163
8910,110.00000,-8.35624,23.95858
8911,110.00000,-0.38302,14.32139
8912,110.00000,-1.57997,15.32575
8913,110.00000,-2.77691,16.33011
8914,110.00000,-3.97386,17.33446
8915,110.00000,-5.17080,18.33882
8916,110.00000,-6.36774,19.34317
8917,110.00000,-7.56469,20.34753
8918,110.00000,-8.76163,21.35188
8919,110.00000,-9.95858,22.35624
8920,110.00000,-0.43301,14.25000
8921,110.00000,-1.78618,15.03125
8922,110.00000,-3.13934,15.81250
8923,110.00000,-4.49251,16.59375
8924,110.00000,-5.84567,17.37500
8925,110.00000,-7.19884,18.15625
8926,110.00000,-8.55200,18.93750
8927,110.00000,-9.90517,19.71875
8928,110.00000,-11.25833,20.50000
8929,110.00000,-0.46985,14.17101
8930,110.00000,-1.93812,14.70542
8931,110.00000,-3.40639,15.23982
8932,110.00000,-4.87466,15.77423
8933,110.00000,-6.34293,16.30864
8934,110.00000,-7.81119,16.84304
8935,110.00000,-9.27946,17.37745
8936,110.00000,-10.74773,17.91186
8937,110.00000,-12.21600,18.44626
8938,110.00000,-0.49240,14.08682
8939,110.00000,-2.03117,14.35815
8940,110.00000,-3.56993,14.62947
8941,110.00000,-5.10869,14.90080
8942,110.00000,-6.64745,15.17213
8943,110.00000,-8.18621,15.44345
8944,110.00000,-9.72498,15.71478
8945,110.00000,-11.26374,15.98610
8946,110.00000,-12.80250,16.25743
8947,110.00000,-0.50000,14.00000
8948,110.00000,-2.06250,14.00000
8949,110.00000,-3.62500,14.00000
8950,110.00000,-5.18750,14.00000
8951,110.00000,-6.75000,14.00000
8952,110.00000,-8.31250,14.00000
8953,110.00000,-9.87500,14.00000
8954,110.00000,-11.43750,14.00000
8955,110.00000,-13.00000,14.00000
8956,110.00000,-0.49240,13.91318
8957,110.00000,-2.03117,13.64185
8958,110.00000,-3.56993,13.37053
8959,110.00000,-5.10869,13.09920
8960,110.00000,-6.64745,12.82787
8961,110.00000,-8.18621,12.55655
8962,110.00000,-9.72498,12.28522
8963,110.00000,-11.26374,12.01390
8964,110.00000,-12.80250,11.74257
8965,110.00000,-0.46985,13.82899
8966,110.00000,-1.93812,13.29458
8967,110.00000,-3.40639,12.76018
8968,110.00000,-4.87466,12.22577
8969,110.00000,-6.34293,11.69136
8970,110.00000,-7.81119,11.15696
8971,110.00000,-9.27946,10.62255
8972,110.00000,-10.74773,10.08814
8973,110.00000,-12.21600,9.55374
8974,110.00000,-0.43301,13.75000
8975,110.00000,-1.78618,12.96875
8976,110.00000,-3.13934,12.18750
8977,110.00000,-4.49251,11.40625
8978,110.00000,-5.84567,10.62500
8979,110.00000,-7.19884,9.84375
8980,110.00000,-8.55200,9.06250
8981,110.00000,-9.90517,8.28125
8982,110.00000,-11.25833,7.50000
8983,110.00000,-0.38302,13.67861
8984,110.00000,-1.57997,12.67425
8985,110.00000,-2.77691,11.66989
8986,110.00000,-3.97386,10.66554
8987,110.00000,-5.17080,9.66118
8988,110.00000,-6.36774,8.65683
8989,110.00000,-7.56469,7.65247
8990,110.00000,-8.76163,6.64812
8991,110.00000,-9.95858,5.64376
8992,110.00000,-0.32139,13.61698
8993,110.00000,-1.32575,12.42003
8994,110.00000,-2.33011,11.22309
8995,110.00000,-3.33446,10.02614
8996,110.00000,-4.33882,8.82920
8997,110.00000,-5.34317,7.63226
8998,110.00000,-6.34753,6.43531
8999,110.00000,-7.35188,5.23837
9000,110.00000,-8.35624,4.04142
9001,110.00000,-0.25000,13.56699
9002,110.00000,-1.03125,12.21382
9003,110.00000,-1.81250,10.86066
9004,110.00000,-2.59375,9.50749
9005,110.00000,-3.37500,8.15433
9006,110.00000,-4.15625,6.80116
9007,110.00000,-4.93750,5.44800
9008,110.00000,-5.71875,4.09483
9009,110.00000,-6.50000,2.74167
9010,110.00000,-0.17101,13.53015
9011,110.00000,-0.70542,12.06188
9012,110.00000,-1.23982,10.59361
9013,110.00000,-1.77423,9.12534
9014,110.00000,-2.30864,7.65707
9015,110.00000,-2.84304,6.18881
9016,110.00000,-3.37745,4.72054
9017,110.00000,-3.91186,3.25227
9018,110.00000,-4.44626,1.78400
9019,110.00000,-0.08682,13.50760
9020,110.00000,-0.35815,11.96883
9021,110.00000,-0.62947,10.43007
9022,110.00000,-0.90080,8.89131
9023,110.00000,-1.17213,7.35255
9024,110.00000,-1.44345,5.81379
9025,110.00000,-1.71478,4.27502
9026,110.00000,-1.98610,2.73626
9027,110.00000,-2.25743,1.19750
9028,110.00000,-0.00000,13.50000
9029,110.00000,-0.00000,11.93750
9030,110.00000,-0.00000,10.37500
9031,110.00000,-0.00000,8.81250
9032,110.00000,-0.00000,7.25000
9033,110.00000,-0.00000,5.68750
9034,110.00000,-0.00000,4.12500
9035,110.00000,-0.00000,2.56250
9036,110.00000,-0.00000,1.00000
9037,110.00000,0.08682,13.50760
9038,110.00000,0.35815,11.96883
9039,110.00000,0.62947,10.43007
9040,110.00000,0.90080,8.89131
9041,110.00000,1.17213,7.35255
9042,110.00000,1.44345,5.81379
9043,110.00000,1.71478,4.27502
9044,110.00000,1.98610,2.73626
9045,110.00000,2.25743,1.19750
9046,110.00000,0.17101,13.53015
9047,110.00000,0.70542,12.06188
9048,110.00000,1.23982,10.59361
9049,110.00000,1.77423,9.12534
9050,110.00000,2.30864,7.65707
9051,110.00000,2.84304,6.18881
9052,110.00000,3.37745,4.72054
9053,110.00000,3.91186,3.25227
9054,110.00000,4.44626,1.78400
9055,110.00000,0.25000,13.56699
9056,110.00000,1.03125,12.21382
9057,110.00000,1.81250,10.86066
9058,110.00000,2.59375,9.50749
9059,110.00000,3.37500,8.15433
9060,110.00000,4.15625,6.80116
9061,110.00000,4.93750,5.44800
9062,110.00000,5.71875,4.09483
9063,110.00000,6.50000,2.74167
9064,110.00000,0.32139,13.61698
9065,110.00000,1.32575,12.42003
9066,110.00000,2.33011,11.22309
9067,110.00000,3.33446,10.02614
9068,110.00000,4.33882,8.82920
9069,110.00000,5.34317,7.63226
9070,110.00000,6.34753,6.43531
9071,110.00000,7.35188,5.23837
9072,110.00000,8.35624,4.04142
9073,110.00000,0.38302,13.67861
9074,110.00000,1.57997,12.67425
9075,110.00000,2.77691,11.66989
9076,110.00000,3.97386,10.66554
9077,110.00000,5.17080,9.66118
9078,110.00000,6.36774,8.65683
9079,110.00000,7.56469,7.65247
9080,110.00000,8.76163,6.64812
9081,110.00000,9.95858,5.64376
9082,110.00000,0.43301,13.75000
9083,110.00000,1.78618,12.96875
9084,110.00000,3.13934,12.18750
9085,110.00000,4.49251,11.40625
9086,110.00000,5.84567,10.62500
9087,110.00000,7.19884,9.84375
9088,110.00000,8.55200,9.06250
9089,110.00000,9.90517,8.28125
9090,110.00000,11.25833,7.50000
9091,110.00000,0.46985,13.82899
9092,110.00000,1.93812,13.29458
9093,110.00000,3.40639,12.76018
9094,110.00000,4.87466,12.22577
9095,110.00000,6.34293,11.69136
9096,110.00000,7.81119,11.15696
9097,110.00000,9.27946,10.62255
9098,110.00000,10.74773,10.08814
9099,110.00000,12.21600,9.55374
9100,110.00000,0.49240,13.91318
9101,110.00000,2.03117,13.64185
9102,110.00000,3.56993,13.37053
9103,110.00000,5.10869,13.09920
9104,110.00000,6.64745,12.82787
9105,110.00000,8.18621,12.55655
9106,110.00000,9.72498,12.28522
9107,110.00000,11.26374,12.01390
9108,110.00000,12.80250,11.74257
9109,110.00000,0.50000,14.00000
9110,110.00000,2.06250,14.00000
9111,110.00000,3.62500,14.00000
9112,110.00000,5.18750,14.00000
9113,110.00000,6.75000,14.00000
9114,110.00000,8.31250,14.00000
9115,110.00000,9.87500,14.00000
9116,110.00000,11.43750,14.00000
9117,110.00000,13.00000,14.00000
9118,115.00000,0.50000,14.00000
9119,115.00000,2.06250,14.00000
9120,115.00000,3.62500,14.00000
9121,115.00000,5.18750,14.00000
9122,115.00000,6.75000,14.00000
9123,115.00000,8.31250,14.00000
9124,115.00000,9.87500,14.00000
9125,115.00000,11.43750,14.00000
9126,115.00000,13.00000,14.00000
9127,115.00000,0.49240,14.08682
9128,115.00000,2.03117,14.35815
9129,115.00000,3.56993,14.62947
9130,115.00000,5.10869,14.90080
9131,115.00000,6.64745,15.17213
9132,115.00000,8.18621,15.44345
9133,115.00000,9.72498,15.71478
9134,115.00000,11.26374,15.98610
9135,115.00000,12.80250,16.25743
9136,115.00000,0.46985,14.17101
9137,115.00000,1.93812,14.70542
9138,115.00000,3.40639,15.23982
9139,115.00000,4.87466,15.77423
9140,115.00000,6.34293,16.30864
9141,115.00000,7.81119,16.84304
9142,115.00000,9.27946,17.37745
9143,115.00000,10.74773,17.91186
9144,115.00000,12.21600,18.44626
9145,115.00000,0.43301,14.25000
9146,115.00000,1.78618,15.03125
9147,115.00000,3.13934,15.81250
9148,115.00000,4.49251,16.59375
9149,115.00000,5.84567,17.37500
9150,115.00000,7.19884,18.15625
9151,115.00000,8.55200,18.93750
9152,115.00000,9.90517,19.71875
9153,115.00000,11.25833,20.50000
9154,115.00000,0.38302,14.32139
9155,115.00000,1.57997,15.32575
9156,115.00000,2.77691,16.33011
9157,115.00000,3.97386,17.33446
9158,115.00000,5.17080,18.33882
9159,115.00000,6.36774,19.34317
9160,115.00000,7.56469,20.34753
9161,115.00000,8.76163,21.35188
9162,115.00000,9.95858,22.35624
9163,115.00000,0.32139,14.38302
9164,115.00000,1.32575,15.57997
9165,115.00000,2.33011,16.77691
9166,115.00000,3.33446,17.97386
9167,115.00000,4.33882,19.17080
9168,115.00000,5.34317,20.36774
9169,115.00000,6.34753,21.56469
9170,115.00000,7.35188,22.76163
9171,115.00000,8.35624,23.95858
9172,115.00000,0.25000,14.43301
9173,115.00000,1.03125,15.78618
9174,115.00000,1.81250,17.13934
9175,115.00000,2.59375,18.49251
9176,115.00000,3.37500,19.84567
9177,115.00000,4.15625,21.19884
9178,115.00000,4.93750,22.55200
9179,115.00000,5.71875,23.90517
9180,115.00000,6.50000,25.25833
9181,115.00000,0.17101,14.46985
9182,115.00000,0.70542,15.93812
9183,115.00000,1.23982,17.40639
9184,115.00000,1.77423,18.87466
9185,115.00000,2.30864,20.34293
9186,115.00000,2.84304,21.81119
9187,115.00000,3.37745,23.27946
9188,115.00000,3.91186,24.74773
9189,115.00000,4.44626,26.21600
9190,115.00000,0.08682,14.49240
9191,115.00000,0.35815,16.03117
9192,115.00000,0.62947,17.56993
9193,115.00000,0.90080,19.10869
9194,115.00000,1.17213,20.64745
9195,115.00000,1.44345,22.18621
9196,115.00000,1.71478,23.72498
9197,115.00000,1.98610,25.26374
9198,115.00000,2.25743,26.80250
9199,115.00000,0.00000,14.50000
9200,115.00000,0.00000,16.06250
9201,115.00000,0.00000,17.62500
9202,115.00000,0.00000,19.18750
9203,115.00000,0.00000,20.75000
9204,115.00000,0.00000,22.31250
9205,115.00000,0.00000,23.87500
9206,115.00000,0.00000,25.43750
9207,115.00000,0.00000,27.00000
9208,115.00000,-0.08682,14.49240
9209,115.00000,-0.35815,16.03117
9210,115.00000,-0.62947,17.56993
9211,115.00000,-0.90080,19.10869
9212,115.00000,-1.17213,20.64745
9213,115.00000,-1.44345,22.18621
9214,115.00000,-1.71478,23.72498
9215,115.00000,-1.98610,25.26374
9216,115.00000,-2.25743,26.80250
9217,115.00000,-0.17101,14.46985
9218,115.00000,-0.70542,15.93812
9219,115.00000,-1.23982,17.40639
9220,115.00000,-1.77423,18.87466
9221,115.00000,-2.30864,20.34293
9222,115.00000,-2.84304,21.81119
9223,115.00000,-3.37745,23.27946
9224,115.00000,-3.91186,24.74773
9225,115.00000,-4.44626,26.21600
9226,115.00000,-0.25000,14.43301
9227,115.00000,-1.03125,15.78618
9228,115.00000,-1.81250,17.13934
9229,115.00000,-2.59375,18.49251
9230,115.00000,-3.37500,19.84567
9231,115.00000,-4.15625,21.19884
9232,115.00000,-4.93750,22.55200
9233,115.00000,-5.71875,23.90517
9234,115.00000,-6.50000,25.25833
9235,115.00000,-0.32139,14.38302
9236,115.00000,-1.32575,15.57997
9237,115.00000,-2.33011,16.77691
9238,115.00000,-3.33446,17.97386
9239,115.00000,-4.33882,19.17080
9240,115.00000,-5.34317,20.36774
9241,115.00000,-6.34753,21.56469
9242,115.00000,-7.35188,22.76163
9243,115.00000,-8.35624,23.95858
9244,115.00000,-0.38302,14.32139
9245,115.00000,-1.57997,15.32575
9246,115.00000,-2.77691,16.33011
9247,115.00000,-3.97386,17.33446
9248,115.00000,-5.17080,18.33882
9249,115.00000,-6.36774,19.34317
9250,115.00000,-7.56469,20.34753
9251,115.00000,-8.76163,21.35188
9252,115.00000,-9.95858,22.35624
9253,115.00000,-0.43301,14.25000
9254,115.00000,-1.78618,15.03125
9255,115.00000,-3.13934,15.81250
9256,115.00000,-4.49251,16.59375
9257,115.00000,-5.84567,17.37500
9258,115.00000,-7.19884,18.15625
9259,115.00000,-8.55200,18.93750
9260,115.00000,-9.90517,19.71875
9261,115.00000,-11.25833,20.50000
9262,115.00000,-0.46985,14.17101
9263,115.00000,-1.93812,14.70542
9264,115.00000,-3.40639,15.23982
9265,115.00000,-4.87466,15.77423
9266,115.00000,-6.34293,16.30864
9267,115.00000,-7.81119,16.84304
9268,115.00000,-9.27946,17.37745
9269,115.00000,-10.74773,17.91186
9270,115.00000,-12.21600,18.44626
9271,115.00000,-0.49240,14.08682
9272,115.00000,-2.03117,14.35815
9273,115.00000,-3.56993,14.62947
9274,115.00000,-5.10869,14.90080
9275,115.00000,-6.64745,15.17213
9276,115.00000,-8.18621,15.44345
9277,115.00000,-9.72498,15.71478
9278,115.00000,-11.26374,15.98610
9279,115.00000,-12.80250,16.25743
9280,115.00000,-0.50000,14.00000
9281,115.00000,-2.06250,14.00000
9282,115.00000,-3.62500,14.00000
9283,115.00000,-5.18750,14.00000
9284,115.00000,-6.75000,14.00000
9285,115.00000,-8.31250,14.00000
9286,115.00000,-9.87500,14.00000
9287,115.00000,-11.43750,14.00000
9288,115.00000,-13.00000,14.00000
9289,115.00000,-0.49240,13.91318
9290,115.00000,-2.03117,13.64185
9291,115.00000,-3.56993,13.37053
9292,115.00000,-5.10869,13.09920
9293,115.00000,-6.64745,12.82787
9294,115.00000,-8.18621,12.55655
9295,115.00000,-9.72498,12.28522
9296,115.00000,-11.26374,12.01390
9297,115.00000,-12.80250,11.74257
9298,115.00000,-0.46985,13.82899
9299,115.00000,-1.93812,13.29458
9300,115.00000,-3.40639,12.76018
9301,115.00000,-4.87466,12.22577
9302,115.00000,-6.34293,11.69136
9303,115.00000,-7.81119,11.15696
9304,115.00000,-9.27946,10.62255
9305,115.00000,-10.74773,10.08814
9306,115.00000,-12.21600,9.55374
9307,115.00000,-0.43301,13.75000
9308,115.00000,-1.78618,12.96875
9309,115.00000,-3.13934,12.18750
9310,115.00000,-4.49251,11.40625
9311,115.00000,-5.84567,10.62500
9312,115.00000,-7.19884,9.84375
9313,115.00000,-8.55200,9.06250
9314,115.00000,-9.90517,8.28125
9315,115.00000,-11.25833,7.50000
9316,115.00000,-0.38302,13.67861
9317,115.00000,-1.57997,12.67425
9318,115.00000,-2.77691,11.66989
9319,115.00000,-3.97386,10.66554
9320,115.00000,-5.17080,9.66118
9321,115.00000,-6.36774,8.65683
9322,115.00000,-7.56469,7.65247
9323,115.00000,-8.76163,6.64812
9324,115.00000,-9.95858,5.64376
9325,115.00000,-0.32139,13.61698
9326,115.00000,-1.32575,12.42003
9327,115.00000,-2.33011,11.22309
9328,115.00000,-3.33446,10.02614
9329,115.00000,-4.33882,8.82920
9330,115.00000,-5.34317,7.63226
9331,115.00000,-6.34753,6.43531
9332,115.00000,-7.35188,5.23837
9333,115.00000,-8.35624,4.04142
9334,115.00000,-0.25000,13.56699
9335,115.00000,-1.03125,12.21382
9336,115.00000,-1.81250,10.86066
9337,115.00000,-2.59375,9.50749
9338,115.00000,-3.37500,8.15433
9339,115.00000,-4.15625,6.80116
9340,115.00000,-4.93750,5.44800
9341,115.00000,-5.71875,4.09483
9342,115.00000,-6.50000,2.74167
9343,115.00000,-0.17101,13.53015
9344,115.00000,-0.70542,12.06188
9345,115.00000,-1.23982,10.59361
9346,115.00000,-1.77423,9.12534
9347,115.00000,-2.30864,7.65707
9348,115.00000,-2.84304,6.18881
9349,115.00000,-3.37745,4.72054
9350,115.00000,-3.91186,3.25227
9351,115.00000,-4.44626,1.78400
9352,115.00000,-0.08682,13.50760
9353,115.00000,-0.35815,11.96883
9354,115.00000,-0.62947,10.43007
9355,115.00000,-0.90080,8.89131
9356,115.00000,-1.17213,7.35255
9357,115.00000,-1.44345,5.81379
9358,115.00000,-1.71478,4.27502
9359,115.00000,-1.98610,2.73626
9360,115.00000,-2.25743,1.19750
9361,115.00000,-0.00000,13.50000
9362,115.00000,-0.00000,11.93750
9363,115.00000,-0.00000,10.37500
9364,115.00000,-0.00000,8.81250
9365,115.00000,-0.00000,7.25000
9366,115.00000,-0.00000,5.68750
9367,115.00000,-0.00000,4.12500
9368,115.00000,-0.00000,2.56250
9369,115.00000,-0.00000,1.00000
9370,115.00000,0.08682,13.50760
9371,115.00000,0.35815,11.96883
9372,115.00000,0.62947,10.43007
9373,115.00000,0.90080,8.89131
9374,115.00000,1.17213,7.35255
9375,115.00000,1.44345,5.81379
9376,115.00000,1.71478,4.27502
9377,115.00000,1.98610,2.73626
9378,115.00000,2.25743,1.19750
9379,115.00000,0.17101,13.53015
9380,115.00000,0.70542,12.06188
9381,115.00000,1.23982,10.59361
9382,115.00000,1.77423,9.12534
9383,115.00000,2.30864,7.65707
9384,115.00000,2.84304,6.18881
9385,115.00000,3.37745,4.72054
9386,115.00000,3.91186,3.25227
9387,115.00000,4.44626,1.78400
9388,115.00000,0.25000,13.56699
9389,115.00000,1.03125,12.21382
9390,115.00000,1.81250,10.86066
9391,115.00000,2.59375,9.50749
9392,115.00000,3.37500,8.15433
9393,115.00000,4.15625,6.80116
9394,115.00000,4.93750,5.44800
9395,115.00000,5.71875,4.09483
9396,115.00000,6.50000,2.74167
9397,115.00000,0.32139,13.61698
9398,115.00000,1.32575,12.42003
9399,115.00000,2.33011,11.22309
9400,115.00000,3.33446,10.02614
9401,115.00000,4.33882,8.82920
9402,115.00000,5.34317,7.63226
9403,115.00000,6.34753,6.43531
9404,115.00000,7.35188,5.23837
9405,115.00000,8.35624,4.04142
9406,115.00000,0.38302,13.67861
9407,115.00000,1.57997,12.67425
9408,115.00000,2.77691,11.66989
9409,115.00000,3.97386,10.66554
9410,115.00000,5.17080,9.66118
9411,115.00000,6.36774,8.65683
9412,115.00000,7.56469,7.65247
9413,115.00000,8.76163,6.64812
9414,115.00000,9.95858,5.64376
9415,115.00000,0.43301,13.75000
9416,115.00000,1.78618,12.96875
9417,115.00000,3.13934,12.18750
9418,115.00000,4.49251,11.40625
9419,115.00000,5.84567,10.62500
9420,115.00000,7.19884,9.84375
9421,115.00000,8.55200,9.06250
9422,115.00000,9.90517,8.28125
9423,115.00000,11.25833,7.50000
9424,115.00000,0.46985,13.82899
9425,115.00000,1.93812,13.29458
9426,115.00000,3.40639,12.76018
9427,115.00000,4.87466,12.22577
9428,115.00000,6.34293,11.69136
9429,115.00000,7.81119,11.15696
9430,115.00000,9.27946,10.62255
9431,115.00000,10.74773,10.08814
9432,115.00000,12.21600,9.55374
9433,115.00000,0.49240,13.91318
9434,115.00000,2.03117,13.64185
9435,115.00000,3.56993,13.37053
9436,115.00000,5.10869,13.09920
9437,115.00000,6.64745,12.82787
9438,115.00000,8.18621,12.55655
9439,115.00000,9.72498,12.28522
9440,115.00000,11.26374,12.01390
9441,115.00000,12.80250,11.74257
9442,115.00000,0.50000,14.00000
9443,115.00000,2.06250,14.00000
9444,115.00000,3.62500,14.00000
9445,115.00000,5.18750,14.00000
9446,115.00000,6.75000,14.00000
9447,115.00000,8.31250,14.00000
9448,115.00000,9.87500,14.00000
9449,115.00000,11.43750,14.00000
9450,115.00000,13.00000,14.00000
9451,120.00000,0.50000,14.00000
9452,120.00000,2.06250,14.00000
9453,120.00000,3.62500,14.00000
9454,120.00000,5.18750,14.00000
9455,120.00000,6.75000,14.00000
9456,120.00000,8.31250,14.00000
9457,120.00000,9.87500,14.00000
9458,120.00000,11.43750,14.00000
9459,120.00000,13.00000,14.00000
9460,120.00000,0.49240,14.08682
9461,120.00000,2.03117,14.35815
9462,120.00000,3.56993,14.62947
9463,120.00000,5.10869,14.90080
9464,120.00000,6.64745,15.17213
9465,120.00000,8.18621,15.44345
9466,120.00000,9.72498,15.71478
9467,120.00000,11.26374,15.98610
9468,120.00000,12.80250,16.25743
9469,120.00000,0.46985,14.17101
9470,120.00000,1.93812,14.70542
9471,120.00000,3.40639,15.23982
9472,120.00000,4.87466,15.77423
9473,120.00000,6.34293,16.30864
9474,120.00000,7.81119,16.84304
9475,120.00000,9.27946,17.37745
9476,120.00000,10.74773,17.91186
9477,120.00000,12.21600,18.44626
9478,120.00000,0.43301,14.25000
9479,120.00000,1.78618,15.03125
9480,120.00000,3.13934,15.81250
9481,120.00000,4.49251,16.59375
9482,120.00000,5.84567,17.37500
9483,120.00000,7.19884,18.15625
9484,120.00000,8.55200,18.93750
9485,120.00000,9.90517,19.71875
9486,120.00000,11.25833,20.50000
9487,120.00000,0.38302,14.32139
9488,120.00000,1.57997,15.32575
9489,120.00000,2.77691,16.33011
9490,120.00000,3.97386,17.33446
9491,120.00000,5.17080,18.33882
9492,120.00000,6.36774,19.34317
9493,120.00000,7.56469,20.34753
9494,120.00000,8.76163,21.35188
9495,120.00000,9.95858,22.35624
9496,120.00000,0.32139,14.38302
9497,120.00000,1.32575,15.57997
9498,120.00000,2.33011,16.77691
9499,120.00000,3.33446,17.97386
9500,120.00000,4.33882,19.17080
9501,120.00000,5.34317,20.36774
9502,120.00000,6.34753,21.56469
9503,120.00000,7.35188,22.76163
9504,120.00000,8.35624,23.95858
9505,120.00000,0.25000,14.43301
9506,120.00000,1.03125,15.78618
9507,120.00000,1.81250,17.13934
9508,120.00000,2.59375,18.49251
9509,120.00000,3.37500,19.84567
9510,120.00000,4.15625,21.19884
9511,120.00000,4.93750,22.55200
9512,120.00000,5.71875,23.90517
9513,120.00000,6.50000,25.25833
9514,120.00000,0.17101,14.46985
9515,120.00000,0.70542,15.93812
9516,120.00000,1.23982,17.40639
9517,120.00000,1.77423,18.87466
9518,120.00000,2.30864,20.34293
9519,120.00000,2.84304,21.81119
9520,120.00000,3.37745,23.27946
9521,120.00000,3.91186,24.74773
9522,120.00000,4.44626,26.21600
9523,120.00000,0.08682,14.49240
9524,120.00000,0.35815,16.03117
9525,120.00000,0.62947,17.56993
9526,120.00000,0.90080,19.10869
9527,120.00000,1.17213,20.64745
9528,120.00000,1.44345,22.18621
9529,120.00000,1.71478,23.72498
9530,120.00000,1.98610,25.26374
9531,120.00000,2.25743,26.80250
9532,120.00000,0.00000,14.50000
9533,120.00000,0.00000,16.06250
9534,120.00000,0.00000,17.62500
9535,120.00000,0.00000,19.18750
9536,120.00000,0.00000,20.75000
9537,120.00000,0.00000,22.31250
9538,120.00000,0.00000,23.87500
9539,120.00000,0.00000,25.43750
9540,120.00000,0.00000,27.00000
9541,120.00000,-0.08682,14.49240
9542,120.00000,-0.35815,16.03117
9543,120.00000,-0.62947,17.56993
9544,120.00000,-0.90080,19.10869
9545,120.00000,-1.17213,20.64745
9546,120.00000,-1.44345,22.18621
9547,120.00000,-1.71478,23.72498
9548,120.00000,-1.98610,25.26374
9549,120.00000,-2.25743,26.80250
9550,120.00000,-0.17101,14.46985
9551,120.00000,-0.70542,15.93812
9552,120.00000,-1.23982,17.40639
9553,120.00000,-1.77423,18.87466
9554,120.00000,-2.30864,20.34293
9555,120.00000,-2.84304,21.81119
9556,120.00000,-3.37745,23.27946
9557,120.00000,-3.91186,24.74773
9558,120.00000,-4.44626,26.21600
9559,120.00000,-0.25000,14.43301
9560,120.00000,-1.03125,15.78618
9561,120.00000,-1.81250,17.13934
9562,120.00000,-2.59375,18.49251
9563,120.00000,-3.37500,19.84567
9564,120.00000,-4.15625,21.19884
9565,120.00000,-4.93750,22.55200
9566,120.00000,-5.71875,23.90517
9567,120.00000,-6.50000,25.25833
9568,120.00000,-0.32139,14.38302
9569,120.00000,-1.32575,15.57997
9570,120.00000,-2.33011,16.77691
9571,120.00000,-3.33446,17.97386
9572,120.00000,-4.33882,19.17080
9573,120.00000,-5.34317,20.36774
9574,120.00000,-6.34753,21.56469
9575,120.00000,-7.35188,22.76163
9576,120.00000,-8.35624,23.95858
9577,120.00000,-0.38302,14.32139
9578,120.00000,-1.57997,15.32575
9579,120.00000,-2.77691,16.33011
9580,120.00000,-3.97386,17.33446
9581,120.00000,-5.17080,18.33882
9582,120.00000,-6.36774,19.34317
9583,120.00000,-7.56469,20.34753
9584,120.00000,-8.76163,21.35188
9585,120.00000,-9.95858,22.35624
9586,120.00000,-0.43301,14.25000
9587,120.00000,-1.78618,15.03125
9588,120.00000,-3.13934,15.81250
9589,120.00000,-4.49251,16.59375
9590,120.00000,-5.84567,17.37500
9591,120.00000,-7.19884,18.15625
9592,120.00000,-8.55200,18.93750
9593,120.00000,-9.90517,19.71875
9594,120.00000,-11.25833,20.50000
9595,120.00000,-0.46985,14.17101
9596,120.00000,-1.93812,14.70542
9597,120.00000,-3.40639,15.23982
9598,120.00000,-4.87466,15.77423
9599,120.00000,-6.34293,16.30864
9600,120.00000,-7.81119,16.84304
9601,120.00000,-9.27946,17.37745
9602,120.00000,-10.74773,17.91186
9603,120.00000,-12.21600,18.44626
9604,120.00000,-0.49240,14.08682
9605,120.00000,-2.03117,14.35815
9606,120.00000,-3.56993,14.62947
9607,120.00000,-5.10869,14.90080
9608,120.00000,-6.64745,15.17213
9609,120.00000,-8.18621,15.44345
9610,120.00000,-9.72498,15.71478
9611,120.00000,-11.26374,15.98610
9612,120.00000,-12.80250,16.25743
9613,120.00000,-0.50000,14.00000
9614,120.00000,-2.06250,14.00000
9615,120.00000,-3.62500,14.00000
9616,120.00000,-5.18750,14.00000
9617,120.00000,-6.75000,14.00000
9618,120.00000,-8.31250,14.00000
9619,120.00000,-9.87500,14.00000
9620,120.00000,-11.43750,14.00000
9621,120.00000,-13.00000,14.00000
9622,120.00000,-0.49240,13.91318
9623,120.00000,-2.03117,13.64185
9624,120.00000,-3.56993,13.37053
9625,120.00000,-5.10869,13.09920
9626,120.00000,-6.64745,12.82787
9627,120.00000,-8.18621,12.55655
9628,120.00000,-9.72498,12.28522
9629,120.00000,-11.26374,12.01390
9630,120.00000,-12.80250,11.74257
9631,120.00000,-0.46985,13.82899
9632,120.00000,-1.93812,13.29458
9633,120.00000,-3.40639,12.76018
9634,120.00000,-4.87466,12.22577
9635,120.00000,-6.34293,11.69136
9636,120.00000,-7.81119,11.15696
9637,120.00000,-9.27946,10.62255
9638,120.00000,-10.74773,10.08814
9639,120.00000,-12.21600,9.55374
9640,120.00000,-0.43301,13.75000
9641,120.00000,-1.78618,12.96875
9642,120.00000,-3.13934,12.18750
9643,120.00000,-4.49251,11.40625
9644,120.00000,-5.84567,10.62500
9645,120.00000,-7.19884,9.84375
9646,120.00000,-8.55200,9.06250
9647,120.00000,-9.90517,8.28125
9648,120.00000,-11.25833,7.50000
9649,120.00000,-0.38302,13.67861
9650,120.00000,-1.57997,12.67425
9651,120.00000,-2.77691,11.66989
9652,120.00000,-3.97386,10.66554
9653,120.00000,-5.17080,9.66118
9654,120.00000,-6.36774,8.65683
9655,120.00000,-7.56469,7.65247
9656,120.00000,-8.76163,6.64812
9657,120.00000,-9.95858,5.64376
9658,120.00000,-0.32139,13.61698
9659,120.00000,-1.32575,12.42003
9660,120.00000,-2.33011,11.22309
9661,120.00000,-3.33446,10.02614
9662,120.00000,-4.33882,8.82920
9663,120.00000,-5.34317,7.63226
9664,120.00000,-6.34753,6.43531
9665,120.00000,-7.35188,5.23837
9666,120.00000,-8.35624,4.04142
9667,120.00000,-0.25000,13.56699
9668,120.00000,-1.03125,12.21382
9669,120.00000,-1.81250,10.86066
9670,120.00000,-2.59375,9.50749
9671,120.00000,-3.37500,8.15433
9672,120.00000,-4.15625,6.80116
9673,120.00000,-4.93750,5.44800
9674,120.00000,-5.71875,4.09483
9675,120.00000,-6.50000,2.74167
9676,120.00000,-0.17101,13.53015
9677,120.00000,-0.70542,12.06188
9678,120.00000,-1.23982,10.59361
9679,120.00000,-1.77423,9.12534
9680,120.00000,-2.30864,7.65707
9681,120.00000,-2.84304,6.18881
9682,120.00000,-3.37745,4.72054
9683,120.00000,-3.91186,3.25227
9684,120.00000,-4.44626,1.78400
9685,120.00000,-0.08682,13.50760
9686,120.00000,-0.35815,11.96883
9687,120.00000,-0.62947,10.43007
9688,120.00000,-0.90080,8.89131
9689,120.00000,-1.17213,7.35255
9690,120.00000,-1.44345,5.81379
9691,120.00000,-1.71478,4.27502
9692,120.00000,-1.98610,2.73626
9693,120.00000,-2.25743,1.19750
9694,120.00000,-0.00000,13.50000
9695,120.00000,-0.00000,11.93750
9696,120.00000,-0.00000,10.37500
9697,120.00000,-0.00000,8.81250
9698,120.00000,-0.00000,7.25000
9699,120.00000,-0.00000,5.68750
9700,120.00000,-0.00000,4.12500
9701,120.00000,-0.00000,2.56250
9702,120.00000,-0.00000,1.00000
9703,120.00000,0.08682,13.50760
9704,120.00000,0.35815,11.96883
9705,120.00000,0.62947,10.43007
9706,120.00000,0.90080,8.89131
9707,120.00000,1.17213,7.35255
9708,120.00000,1.44345,5.81379
9709,120.00000,1.71478,4.27502
9710,120.00000,1.98610,2.73626
9711,120.00000,2.25743,1.19750
9712,120.00000,0.17101,13.53015
9713,120.00000,0.70542,12.06188
9714,120.00000,1.23982,10.59361
9715,120.00000,1.77423,9.12534
9716,120.00000,2.30864,7.65707
9717,120.00000,2.84304,6.18881
9718,120.00000,3.37745,4.72054
9719,120.00000,3.91186,3.25227
9720,120.00000,4.44626,1.78400
9721,120.00000,0.25000,13.56699
9722,120.00000,1.03125,12.21382
9723,120.00000,1.81250,10.86066
9724,120.00000,2.59375,9.50749
9725,120.00000,3.37500,8.15433
9726,120.00000,4.15625,6.80116
9727,120.00000,4.93750,5.44800
9728,120.00000,5.71875,4.09483
9729,120.00000,6.50000,2.74167
9730,120.00000,0.32139,13.61698
9731,120.00000,1.32575,12.42003
9732,120.00000,2.33011,11.22309
9733,120.00000,3.33446,10.02614
9734,120.00000,4.33882,8.82920
9735,120.00000,5.34317,7.63226
9736,120.00000,6.34753,6.43531
9737,120.00000,7.35188,5.23837
9738,120.00000,8.35624,4.04142
9739,120.00000,0.38302,13.67861
9740,120.00000,1.57997,12.67425
9741,120.00000,2.77691,11.66989
9742,120.00000,3.97386,10.66554
9743,120.00000,5.17080,9.66118
9744,120.00000,6.36774,8.65683
9745,120.00000,7.56469,7.65247
9746,120.00000,8.76163,6.64812
9747,120.00000,9.95858,5.64376
9748,120.00000,0.43301,13.75000
9749,120.00000,1.78618,12.96875
9750,120.00000,3.13934,12.18750
9751,120.00000,4.49251,11.40625
9752,120.00000,5.84567,10.62500
9753,120.00000,7.19884,9.84375
9754,120.00000,8.55200,9.06250
9755,120.00000,9.90517,8.28125
9756,120.00000,11.25833,7.50000
9757,120.00000,0.46985,13.82899
9758,120.00000,1.93812,13.29458
9759,120.00000,3.40639,12.76018
9760,120.00000,4.87466,12.22577
9761,120.00000,6.34293,11.69136
9762,120.00000,7.81119,11.15696
9763,120.00000,9.27946,10.62255
9764,120.00000,10.74773,10.08814
9765,120.00000,12.21600,9.55374
9766,120.00000,0.49240,13.91318
9767,120.00000,2.03117,13.64185
9768,120.00000,3.56993,13.37053
9769,120.00000,5.10869,13.09920
9770,120.00000,6.64745,12.82787
9771,120.00000,8.18621,12.55655
9772,120.00000,9.72498,12.28522
9773,120.00000,11.26374,12.01390
9774,120.00000,12.80250,11.74257
9775,120.00000,0.50000,14.00000
9776,120.00000,2.06250,14.00000
9777,120.00000,3.62500,14.00000
9778,120.00000,5.18750,14.00000
9779,120.00000,6.75000,14.00000
9780,120.00000,8.31250,14.00000
9781,120.00000,9.87500,14.00000
9782,120.00000,11.43750,14.00000
9783,120.00000,13.00000,14.00000
9784,125.00000,0.50000,14.00000
9785,125.00000,2.06250,14.00000
9786,125.00000,3.62500,14.00000
9787,125.00000,5.18750,14.00000
9788,125.00000,6.75000,14.00000
9789,125.00000,8.31250,14.00000
9790,125.00000,9.87500,14.00000
9791,125.00000,11.43750,14.00000
9792,125.00000,13.00000,14.00000
9793,125.00000,0.49240,14.08682
9794,125.00000,2.03117,14.35815
9795,125.00000,3.56993,14.62947
9796,125.00000,5.10869,14.90080
9797,125.00000,6.64745,15.17213
9798,125.00000,8.18621,15.44345
9799,125.00000,9.72498,15.71478
9800,125.00000,11.26374,15.98610
9801,125.00000,12.80250,16.25743
9802,125.00000,0.46985,14.17101
9803,125.00000,1.93812,14.70542
9804,125.00000,3.40639,15.23982
9805,125.00000,4.87466,15.77423
9806,125.00000,6.34293,16.30864
9807,125.00000,7.81119,16.84304
9808,125.00000,9.27946,17.37745
9809,125.00000,10.74773,17.91186
9810,125.00000,12.21600,18.44626
9811,125.00000,0.43301,14.25000
9812,125.00000,1.78618,15.03125
9813,125.00000,3.13934,15.81250
9814,125.00000,4.49251,16.59375
9815,125.00000,5.84567,17.37500
9816,125.00000,7.19884,18.15625
9817,125.00000,8.55200,18.93750
9818,125.00000,9.90517,19.71875
9819,125.00000,11.25833,20.50000
9820,125.00000,0.38302,14.32139
9821,125.00000,1.57997,15.32575
9822,125.00000,2.77691,16.33011
9823,125.00000,3.97386,17.33446
9824,125.00000,5.17080,18.33882
9825,125.00000,6.36774,19.34317
9826,125.00000,7.56469,20.34753
9827,125.00000,8.76163,21.35188
9828,125.00000,9.95858,22.35624
9829,125.00000,0.32139,14.38302
9830,125.00000,1.32575,15.57997
9831,125.00000,2.33011,16.77691
9832,125.00000,3.33446,17.97386
9833,125.00000,4.33882,19.17080
9834,125.00000,5.34317,20.36774
9835,125.00000,6.34753,21.56469
9836,125.00000,7.35188,22.76163
9837,125.00000,8.35624,23.95858
9838,125.00000,0.25000,14.43301
9839,125.00000,1.03125,15.78618
9840,125.00000,1.81250,17.13934
9841,125.00000,2.59375,18.49251
9842,125.00000,3.37500,19.84567
9843,125.00000,4.15625,21.19884
9844,125.00000,4.93750,22.55200
9845,125.00000,5.71875,23.90517
9846,125.00000,6.50000,25.25833
9847,125.00000,0.17101,14.46985
9848,125.00000,0.70542,15.93812
9849,125.00000,1.23982,17.40639
9850,125.00000,1.77423,18.87466
9851,125.00000,2.30864,20.34293
9852,125.00000,2.84304,21.81119
9853,125.00000,3.37745,23.27946
9854,125.00000,3.91186,24.74773
9855,125.00000,4.44626,26.21600
9856,125.00000,0.08682,14.49240
9857,125.00000,0.35815,16.03117
9858,125.00000,0.62947,17.56993
9859,125.00000,0.90080,19.10869
9860,125.00000,1.17213,20.64745
9861,125.00000,1.44345,22.18621
9862,125.00000,1.71478,23.72498
9863,125.00000,1.98610,25.26374
9864,125.00000,2.25743,26.80250
9865,125.00000,0.00000,14.50000
9866,125.00000,0.00000,16.06250
9867,125.00000,0.00000,17.62500
9868,125.00000,0.00000,19.18750
9869,125.00000,0.00000,20.75000
9870,125.00000,0.00000,22.31250
9871,125.00000,0.00000,23.87500
9872,125.00000,0.00000,25.43750
9873,125.00000,0.00000,27.00000
9874,125.00000,-0.08682,14.49240
9875,125.00000,-0.35815,16.03117
9876,125.00000,-0.62947,17.56993
9877,125.00000,-0.90080,19.10869
9878,125.00000,-1.17213,20.64745
9879,125.00000,-1.44345,22.18621
9880,125.00000,-1.71478,23.72498
9881,125.00000,-1.98610,25.26374
9882,125.00000,-2.25743,26.80250
9883,125.00000,-0.17101,14.46985
9884,125.00000,-0.70542,15.93812
9885,125.00000,-1.23982,17.40639
9886,125.00000,-1.77423,18.87466
9887,125.00000,-2.30864,20.34293
9888,125.00000,-2.84304,21.81119
9889,125.00000,-3.37745,23.27946
9890,125.00000,-3.91186,24.74773
9891,125.00000,-4.44626,26.21600
9892,125.00000,-0.25000,14.43301
9893,125.00000,-1.03125,15.78618
9894,125.00000,-1.81250,17.13934
9895,125.00000,-2.59375,18.49251
9896,125.00000,-3.37500,19.84567
9897,125.00000,-4.15625,21.19884
9898,125.00000,-4.93750,22.55200
9899,125.00000,-5.71875,23.90517
9900,125.00000,-6.50000,25.25833
9901,125.00000,-0.32139,14.38302
9902,125.00000,-1.32575,15.57997
9903,125.00000,-2.33011,16.77691
9904,125.00000,-3.33446,17.97386
9905,125.00000,-4.33882,19.17080
9906,125.00000,-5.34317,20.36774
9907,125.00000,-6.34753,21.56469
9908,125.00000,-7.35188,22.76163
9909,125.00000,-8.35624,23.95858
9910,125.00000,-0.38302,14.32139
9911,125.00000,-1.57997,15.32575
9912,125.00000,-2.77691,16.33011
9913,125.00000,-3.97386,17.33446
9914,125.00000,-5.17080,18.33882
9915,125.00000,-6.36774,19.34317
9916,125.00000,-7.56469,20.34753
9917,125.00000,-8.76163,21.35188
9918,125.00000,-9.95858,22.35624
9919,125.00000,-0.43301,14.25000
9920,125.00000,-1.78618,15.03125
9921,125.00000,-3.13934,15.81250
9922,125.00000,-4.49251,16.59375
9923,125.00000,-5.84567,17.37500
9924,125.00000,-7.19884,18.15625
9925,125.00000,-8.55200,18.93750
9926,125.00000,-9.90517,19.71875
9927,125.00000,-11.25833,20.50000
9928,125.00000,-0.46985,14.17101
9929,125.00000,-1.93812,14.70542
9930,125.00000,-3.40639,15.23982
9931,125.00000,-4.87466,15.77423
9932,125.00000,-6.34293,16.30864
9933,125.00000,-7.81119,16.84304
9934,125.00000,-9.27946,17.37745
9935,125.00000,-10.74773,17.91186
9936,125.00000,-12.21600,18.44626
9937,125.00000,-0.49240,14.08682
9938,125.00000,-2.03117,14.35815
9939,125.00000,-3.56993,14.62947
9940,125.00000,-5.10869,14.90080
9941,125.00000,-6.64745,15.17213
9942,125.00000,-8.18621,15.44345
9943,125.00000,-9.72498,15.71478
9944,125.00000,-11.26374,15.98610
9945,125.00000,-12.80250,16.25743
9946,125.00000,-0.50000,14.00000
9947,125.00000,-2.06250,14.00000
9948,125.00000,-3.62500,14.00000
9949,125.00000,-5.18750,14.00000
9950,125.00000,-6.75000,14.00000
9951,125.00000,-8.31250,14.00000
9952,125.00000,-9.87500,14.00000
9953,125.00000,-11.43750,14.00000
9954,125.00000,-13.00000,14.00000
9955,125.00000,-0.49240,13.91318
9956,125.00000,-2.03117,13.64185
9957,125.00000,-3.56993,13.37053
9958,125.00000,-5.10869,13.09920
9959,125.00000,-6.64745,12.82787
9960,125.00000,-8.18621,12.55655
9961,125.00000,-9.72498,12.28522
9962,125.00000,-11.26374,12.01390
9963,125.00000,-12.80250,11.74257
9964,125.00000,-0.46985,13.82899
9965,125.00000,-1.93812,13.29458
9966,125.00000,-3.40639,12.76018
9967,125.00000,-4.87466,12.22577
9968,125.00000,-6.34293,11.69136
9969,125.00000,-7.81119,11.15696
9970,125.00000,-9.27946,10.62255
9971,125.00000,-10.74773,10.08814
9972,125.00000,-12.21600,9.55374
9973,125.00000,-0.43301,13.75000
9974,125.00000,-1.78618,12.96875
9975,125.00000,-3.13934,12.18750
9976,125.00000,-4.49251,11.40625
9977,125.00000,-5.84567,10.62500
9978,125.00000,-7.19884,9.84375
9979,125.00000,-8.55200,9.06250
9980,125.00000,-9.90517,8.28125
9981,125.00000,-11.25833,7.50000
9982,125.00000,-0.38302,13.67861
9983,125.00000,-1.57997,12.67425
9984,125.00000,-2.77691,11.66989
9985,125.00000,-3.97386,10.66554
9986,125.00000,-5.17080,9.66118
9987,125.00000,-6.36774,8.65683
9988,125.00000,-7.56469,7.65247
9989,125.00000,-8.76163,6.64812
9990,125.00000,-9.95858,5.64376
9991,125.00000,-0.32139,13.61698
9992,125.00000,-1.32575,12.42003
9993,125.00000,-2.33011,11.22309
9994,125.00000,-3.33446,10.02614
9995,125.00000,-4.33882,8.82920
9996,125.00000,-5.34317,7.63226
9997,125.00000,-6.34753,6.43531
9998,125.00000,-7.35188,5.23837
9999,125.00000,-8.35624,4.04142
10000,125.00000,-0.25000,13.56699
10001,125.00000,-1.03125,12.21382
10002,125.00000,-1.81250,10.86066
10003,125.00000,-2.59375,9.50749
10004,125.00000,-3.37500,8.15433
10005,125.00000,-4.15625,6.80116
10006,125.00000,-4.93750,5.44800
10007,125.00000,-5.71875,4.09483
10008,125.00000,-6.50000,2.74167
10009,125.00000,-0.17101,13.53015
10010,125.00000,-0.70542,12.06188
10011,125.00000,-1.23982,10.59361
10012,125.00000,-1.77423,9.12534
10013,125.00000,-2.30864,7.65707
10014,125.00000,-2.84304,6.18881
10015,125.00000,-3.37745,4.72054
10016,125.00000,-3.91186,3.25227
10017,125.00000,-4.44626,1.78400
10018,125.00000,-0.08682,13.50760
10019,125.00000,-0.35815,11.96883
10020,125.00000,-0.62947,10.43007
10021,125.00000,-0.90080,8.89131
10022,125.00000,-1.17213,7.35255
10023,125.00000,-1.44345,5.81379
10024,125.00000,-1.71478,4.27502
10025,125.00000,-1.98610,2.73626
10026,125.00000,-2.25743,1.19750
10027,125.00000,-0.00000,13.50000
10028,125.00000,-0.00000,11.93750
10029,125.00000,-0.00000,10.37500
10030,125.00000,-0.00000,8.81250
10031,125.00000,-0.00000,7.25000
10032,125.00000,-0.00000,5.68750
10033,125.00000,-0.00000,4.12500
10034,125.00000,-0.00000,2.56250
10035,125.00000,-0.00000,1.00000
10036,125.00000,0.08682,13.50760
10037,125.00000,0.35815,11.96883
10038,125.00000,0.62947,10.43007
10039,125.00000,0.90080,8.89131
10040,125.00000,1.17213,7.35255
10041,125.00000,1.44345,5.81379
10042,125.00000,1.71478,4.27502
10043,125.00000,1.98610,2.73626
10044,125.00000,2.25743,1.19750
10045,125.00000,0.17101,13.53015
10046,125.00000,0.70542,12.06188
10047,125.00000,1.23982,10.59361
10048,125.00000,1.77423,9.12534
10049,125.00000,2.30864,7.65707
10050,125.00000,2.84304,6.18881
10051,125.00000,3.37745,4.72054
10052,125.00000,3.91186,3.25227
10053,125.00000,4.44626,1.78400
10054,125.00000,0.25000,13.56699
10055,125.00000,1.03125,12.21382
10056,125.00000,1.81250,10.86066
10057,125.00000,2.59375,9.50749
10058,125.00000,3.37500,8.15433
10059,125.00000,4.15625,6.80116
10060,125.00000,4.93750,5.44800
10061,125.00000,5.71875,4.09483
10062,125.00000,6.50000,2.74167
10063,125.00000,0.32139,13.61698
10064,125.00000,1.32575,12.42003
10065,125.00000,2.33011,11.22309
10066,125.00000,3.33446,10.02614
10067,125.00000,4.33882,8.82920
10068,125.00000,5.34317,7.63226
10069,125.00000,6.34753,6.43531
10070,125.00000,7.35188,5.23837
10071,125.00000,8.35624,4.04142
10072,125.00000,0.38302,13.67861
10073,125.00000,1.57997,12.67425
10074,125.00000,2.77691,11.66989
10075,125.00000,3.97386,10.66554
10076,125.00000,5.17080,9.66118
10077,125.00000,6.36774,8.65683
10078,125.00000,7.56469,7.65247
10079,125.00000,8.76163,6.64812
10080,125.00000,9.95858,5.64376
10081,125.00000,0.43301,13.75000
10082,125.00000,1.78618,12.96875
10083,125.00000,3.13934,12.18750
10084,125.00000,4.49251,11.40625
10085,125.00000,5.84567,10.62500
10086,125.00000,7.19884,9.84375
10087,125.00000,8.55200,9.06250
10088,125.00000,9.90517,8.28125
10089,125.00000,11.25833,7.50000
10090,125.00000,0.46985,13.82899
10091,125.00000,1.93812,13.29458
10092,125.00000,3.40639,12.76018
10093,125.00000,4.87466,12.22577
10094,125.00000,6.34293,11.69136
10095,125.00000,7.81119,11.15696
10096,125.00000,9.27946,10.62255
10097,125.00000,10.74773,10.08814
10098,125.00000,12.21600,9.55374
10099,125.00000,0.49240,13.91318
10100,125.00000,2.03117,13.64185
10101,125.00000,3.56993,13.37053
10102,125.00000,5.10869,13.09920
10103,125.00000,6.64745,12.82787
10104,125.00000,8.18621,12.55655
10105,125.00000,9.72498,12.28522
10106,125.00000,11.26374,12.01390
10107,125.00000,12.80250,11.74257
10108,125.00000,0.50000,14.00000
10109,125.00000,2.06250,14.00000
10110,125.00000,3.62500,14.00000
10111,125.00000,5.18750,14.00000
10112,125.00000,6.75000,14.00000
10113,125.00000,8.31250,14.00000
10114,125.00000,9.87500,14.00000
10115,125.00000,11.43750,14.00000
10116,125.00000,13.00000,14.00000
10117,130.00000,0.50000,14.00000
10118,130.00000,2.06250,14.00000
10119,130.00000,3.62500,14.00000
10120,130.00000,5.18750,14.00000
10121,130.00000,6.75000,14.00000
10122,130.00000,8.31250,14.00000
10123,130.00000,9.87500,14.00000
10124,130.00000,11.43750,14.00000
10125,130.00000,13.00000,14.00000
10126,130.00000,0.49240,14.08682
10127,130.00000,2.03117,14.35815
10128,130.00000,3.56993,14.62947
10129,130.00000,5.10869,14.90080
10130,130.00000,6.64745,15.17213
10131,130.00000,8.18621,15.44345
10132,130.00000,9.72498,15.71478
10133,130.00000,11.26374,15.98610
10134,130.00000,12.80250,16.25743
10135,130.00000,0.46985,14.17101
10136,130.00000,1.93812,14.70542
10137,130.00000,3.40639,15.23982
10138,130.00000,4.87466,15.77423
10139,130.00000,6.34293,16.30864
10140,130.00000,7.81119,16.84304
10141,130.00000,9.27946,17.37745
10142,130.00000,10.74773,17.91186
10143,130.00000,12.21600,18.44626
10144,130.00000,0.43301,14.25000
10145,130.00000,1.78618,15.03125
10146,130.00000,3.13934,15.81250
10147,130.00000,4.49251,16.59375
10148,130.00000,5.84567,17.37500
10149,130.00000,7.19884,18.15625
10150,130.00000,8.55200,18.93750
10151,130.00000,9.90517,19.71875
10152,130.00000,11.25833,20.50000
10153,130.00000,0.38302,14.32139
10154,130.00000,1.57997,15.32575
10155,130.00000,2.77691,16.33011
10156,130.00000,3.97386,17.33446
10157,130.00000,5.17080,18.33882
10158,130.00000,6.36774,19.34317
10159,130.00000,7.56469,20.34753
10160,130.00000,8.76163,21.35188
10161,130.00000,9.95858,22.35624
10162,130.00000,0.32139,14.38302
10163,130.00000,1.32575,15.57997
10164,130.00000,2.33011,16.77691
10165,130.00000,3.33446,17.97386
10166,130.00000,4.33882,19.17080
10167,130.00000,5.34317,20.36774
10168,130.00000,6.34753,21.56469
10169,130.00000,7.35188,22.76163
10170,130.00000,8.35624,23.95858
10171,130.00000,0.25000,14.43301
10172,130.00000,1.03125,15.78618
10173,130.00000,1.81250,17.13934
10174,130.00000,2.59375,18.49251
10175,130.00000,3.37500,19.84567
10176,130.00000,4.15625,21.19884
10177,130.00000,4.93750,22.55200
10178,130.00000,5.71875,23.90517
10179,130.00000,6.50000,25.25833
10180,130.00000,0.17101,14.46985
10181,130.00000,0.70542,15.93812
10182,130.00000,1.23982,17.40639
10183,130.00000,1.77423,18.87466
10184,130.00000,2.30864,20.34293
10185,130.00000,2.84304,21.81119
10186,130.00000,3.37745,23.27946
10187,130.00000,3.91186,24.74773
10188,130.00000,4.44626,26.21600
10189,130.00000,0.08682,14.49240
10190,130.00000,0.35815,16.03117
10191,130.00000,0.62947,17.56993
10192,130.00000,0.90080,19.10869
10193,130.00000,1.17213,20.64745
10194,130.00000,1.44345,22.18621
10195,130.00000,1.71478,23.72498
10196,130.00000,1.98610,25.26374
10197,130.00000,2.25743,26.80250
10198,130.00000,0.00000,14.50000
10199,130.00000,0.00000,16.06250
10200,130.00000,0.00000,17.62500
10201,130.00000,0.00000,19.18750
10202,130.00000,0.00000,20.75000
10203,130.00000,0.00000,22.31250
10204,130.00000,0.00000,23.87500
10205,130.00000,0.00000,25.43750
10206,130.00000,0.00000,27.00000
10207,130.00000,-0.08682,14.49240
10208,130.00000,-0.35815,16.03117
10209,130.00000,-0.62947,17.56993
10210,130.00000,-0.90080,19.10869
10211,130.00000,-1.17213,20.64745
10212,130.00000,-1.44345,22.18621
10213,130.00000,-1.71478,23.72498
10214,130.00000,-1.98610,25.26374
10215,130.00000,-2.25743,26.80250
10216,130.00000,-0.17101,14.46985
10217,130.00000,-0.70542,15.93812
10218,130.00000,-1.23982,17.40639
10219,130.00000,-1.77423,18.87466
10220,130.00000,-2.30864,20.34293
10221,130.00000,-2.84304,21.81119
10222,130.00000,-3.37745,23.27946
10223,130.00000,-3.91186,24.74773
10224,130.00000,-4.44626,26.21600
10225,130.00000,-0.25000,14.43301
10226,130.00000,-1.03125,15.78618
10227,130.00000,-1.81250,17.13934
10228,130.00000,-2.59375,18.49251
10229,130.00000,-3.37500,19.84567
10230,130.00000,-4.15625,21.19884
10231,130.00000,-4.93750,22.55200
10232,130.00000,-5.71875,23.90517
10233,130.00000,-6.50000,25.25833
10234,130.00000,-0.32139,14.38302
10235,130.00000,-1.32575,15.57997
10236,130.00000,-2.33011,16.77691
10237,130.00000,-3.33446,17.97386
10238,130.00000,-4.33882,19.17080
10239,130.00000,-5.34317,20.36774
10240,130.00000,-6.34753,21.56469
10241,130.00000,-7.35188,22.76163
10242,130.00000,-8.35624,23.95858
10243,130.00000,-0.38302,14.32139
10244,130.00000,-1.57997,15.32575
10245,130.00000,-2.77691,16.33011
10246,130.00000,-3.97386,17.33446
10247,130.00000,-5.17080,18.33882
10248,130.00000,-6.36774,19.34317
10249,130.00000,-7.56469,20.34753
10250,130.00000,-8.76163,21.35188
10251,130.00000,-9.95858,22.35624
10252,130.00000,-0.43301,14.25000
10253,130.00000,-1.78618,15.03125
10254,130.00000,-3.13934,15.81250
10255,130.00000,-4.49251,16.59375
10256,130.00000,-5.84567,17.37500
10257,130.00000,-7.19884,18.15625
10258,130.00000,-8.55200,18.93750
10259,130.00000,-9.90517,19.71875
10260,130.00000,-11.25833,20.50000
10261,130.00000,-0.46985,14.17101
10262,130.00000,-1.93812,14.70542
10263,130.00000,-3.40639,15.23982
10264,130.00000,-4.87466,15.77423
10265,130.00000,-6.34293,16.30864
10266,130.00000,-7.81119,16.84304
10267,130.00000,-9.27946,17.37745
10268,130.00000,-10.74773,17.91186
10269,130.00000,-12.21600,18.44626
10270,130.00000,-0.49240,14.08682
10271,130.00000,-2.03117,14.35815
10272,130.00000,-3.56993,14.62947
10273,130.00000,-5.10869,14.90080
10274,130.00000,-6.64745,15.17213
10275,130.00000,-8.18621,15.44345
10276,130.00000,-9.72498,15.71478
10277,130.00000,-11.26374,15.98610
10278,130.00000,-12.80250,16.25743
10279,130.00000,-0.50000,14.00000
10280,130.00000,-2.06250,14.00000
10281,130.00000,-3.62500,14.00000
10282,130.00000,-5.18750,14.00000
10283,130.00000,-6.75000,14.00000
10284,130.00000,-8.31250,14.00000
10285,130.00000,-9.87500,14.00000
10286,130.00000,-11.43750,14.00000
10287,130.00000,-13.00000,14.00000
10288,130.00000,-0.49240,13.91318
10289,130.00000,-2.03117,13.64185
10290,130.00000,-3.56993,13.37053
10291,130.00000,-5.10869,13.09920
10292,130.00000,-6.64745,12.82787
10293,130.00000,-8.18621,12.55655
10294,130.00000,-9.72498,12.28522
10295,130.00000,-11.26374,12.01390
10296,130.00000,-12.80250,11.74257
10297,130.00000,-0.46985,13.82899
10298,130.00000,-1.93812,13.29458
10299,130.00000,-3.40639,12.76018
10300,130.00000,-4.87466,12.22577
10301,130.00000,-6.34293,11.69136
10302,130.00000,-7.81119,11.15696
10303,130.00000,-9.27946,10.62255
10304,130.00000,-10.74773,10.08814
10305,130.00000,-12.21600,9.55374
10306,130.00000,-0.43301,13.75000
10307,130.00000,-1.78618,12.96875
10308,130.00000,-3.13934,12.18750
10309,130.00000,-4.49251,11.40625
10310,130.00000,-5.84567,10.62500
10311,130.00000,-7.19884,9.84375
10312,130.00000,-8.55200,9.06250
10313,130.00000,-9.90517,8.28125
10314,130.00000,-11.25833,7.50000
10315,130.00000,-0.38302,13.67861
10316,130.00000,-1.57997,12.67425
10317,130.00000,-2.77691,11.66989
10318,130.00000,-3.97386,10.66554
10319,130.00000,-5.17080,9.66118
10320,130.00000,-6.36774,8.65683
10321,130.00000,-7.56469,7.65247
10322,130.00000,-8.76163,6.64812
10323,130.00000,-9.95858,5.64376
10324,130.00000,-0.32139,13.61698
10325,130.00000,-1.32575,12.42003
10326,130.00000,-2.33011,11.22309
10327,130.00000,-3.33446,10.02614
10328,130.00000,-4.33882,8.82920
10329,130.00000,-5.34317,7.63226
10330,130.00000,-6.34753,6.43531
10331,130.00000,-7.35188,5.23837
10332,130.00000,-8.35624,4.04142
10333,130.00000,-0.25000,13.56699
10334,130.00000,-1.03125,12.21382
10335,130.00000,-1.81250,10.86066
10336,130.00000,-2.59375,9.50749
10337,130.00000,-3.37500,8.15433
10338,130.00000,-4.15625,6.80116
10339,130.00000,-4.93750,5.44800
10340,130.00000,-5.71875,4.09483
10341,130.00000,-6.50000,2.74167
10342,130.00000,-0.17101,13.53015
10343,130.00000,-0.70542,12.06188
10344,130.00000,-1.23982,10.59361
10345,130.00000,-1.77423,9.12534
10346,130.00000,-2.30864,7.65707
10347,130.00000,-2.84304,6.18881
10348,130.00000,-3.37745,4.72054
10349,130.00000,-3.91186,3.25227
10350,130.00000,-4.44626,1.78400
10351,130.00000,-0.08682,13.50760
10352,130.00000,-0.35815,11.96883
10353,130.00000,-0.62947,10.43007
10354,130.00000,-0.90080,8.89131
10355,130.00000,-1.17213,7.35255
10356,130.00000,-1.44345,5.81379
10357,130.00000,-1.71478,4.27502
10358,130.00000,-1.98610,2.73626
10359,130.00000,-2.25743,1.19750
10360,130.00000,-0.00000,13.50000
10361,130.00000,-0.00000,11.93750
10362,130.00000,-0.00000,10.37500
10363,130.00000,-0.00000,8.81250
10364,130.00000,-0.00000,7.25000
10365,130.00000,-0.00000,5.68750
10366,130.00000,-0.00000,4.12500
10367,130.00000,-0.00000,2.56250
10368,130.00000,-0.00000,1.00000
10369,130.00000,0.08682,13.50760
10370,130.00000,0.35815,11.96883
10371,130.00000,0.62947,10.43007
10372,130.00000,0.90080,8.89131
10373,130.00000,1.17213,7.35255
10374,130.00000,1.44345,5.81379
10375,130.00000,1.71478,4.27502
10376,130.00000,1.98610,2.73626
10377,130.00000,2.25743,1.19750
10378,130.00000,0.17101,13.53015
10379,130.00000,0.70542,12.06188
10380,130.00000,1.23982,10.59361
10381,130.00000,1.77423,9.12534
10382,130.00000,2.30864,7.65707
10383,130.00000,2.84304,6.18881
10384,130.00000,3.37745,4.72054
10385,130.00000,3.91186,3.25227
10386,130.00000,4.44626,1.78400
10387,130.00000,0.25000,13.56699
10388,130.00000,1.03125,12.21382
10389,130.00000,1.81250,10.86066
10390,130.00000,2.59375,9.50749
10391,130.00000,3.37500,8.15433
10392,130.00000,4.15625,6.80116
10393,130.00000,4.93750,5.44800
10394,130.00000,5.71875,4.09483
10395,130.00000,6.50000,2.74167
10396,130.00000,0.32139,13.61698
10397,130.00000,1.32575,12.42003
10398,130.00000,2.33011,11.22309
10399,130.00000,3.33446,10.02614
10400,130.00000,4.33882,8.82920
10401,130.00000,5.34317,7.63226
10402,130.00000,6.34753,6.43531
10403,130.00000,7.35188,5.23837
10404,130.00000,8.35624,4.04142
10405,130.00000,0.38302,13.67861
10406,130.00000,1.57997,12.67425
10407,130.00000,2.77691,11.66989
10408,130.00000,3.97386,10.66554
10409,130.00000,5.17080,9.66118
10410,130.00000,6.36774,8.65683
10411,130.00000,7.56469,7.65247
10412,130.00000,8.76163,6.64812
10413,130.00000,9.95858,5.64376
10414,130.00000,0.43301,13.75000
10415,130.00000,1.78618,12.96875
10416,130.00000,3.13934,12.18750
10417,130.00000,4.49251,11.40625
10418,130.00000,5.84567,10.62500
10419,130.00000,7.19884,9.84375
10420,130.00000,8.55200,9.06250
10421,130.00000,9.90517,8.28125
10422,130.00000,11.25833,7.50000
10423,130.00000,0.46985,13.82899
10424,130.00000,1.93812,13.29458
10425,130.00000,3.40639,12.76018
10426,130.00000,4.87466,12.22577
10427,130.00000,6.34293,11.69136
10428,130.00000,7.81119,11.15696
10429,130.00000,9.27946,10.62255
10430,130.00000,10.74773,10.08814
10431,130.00000,12.21600,9.55374
10432,130.00000,0.49240,13.91318
10433,130.00000,2.03117,13.64185
10434,130.00000,3.56993,13.37053
10435,130.00000,5.10869,13.09920
10436,130.00000,6.64745,12.82787
10437,130.00000,8.18621,12.55655
10438,130.00000,9.72498,12.28522
10439,130.00000,11.26374,12.01390
10440,130.00000,12.80250,11.74257
10441,130.00000,0.50000,14.00000
10442,130.00000,2.06250,14.00000
10443,130.00000,3.62500,14.00000
10444,130.00000,5.18750,14.00000
10445,130.00000,6.75000,14.00000
10446,130.00000,8.31250,14.00000
10447,130.00000,9.87500,14.00000
10448,130.00000,11.43750,14.00000
10449,130.00000,13.00000,14.00000
10450,135.00000,0.50000,14.00000
10451,135.00000,2.06250,14.00000
10452,135.00000,3.62500,14.00000
10453,135.00000,5.18750,14.00000
10454,135.00000,6.75000,14.00000
10455,135.00000,8.31250,14.00000
10456,135.00000,9.87500,14.00000
10457,135.00000,11.43750,14.00000
10458,135.00000,13.00000,14.00000
10459,135.00000,0.49240,14.08682
10460,135.00000,2.03117,14.35815
10461,135.00000,3.56993,14.62947
10462,135.00000,5.10869,14.90080
10463,135.00000,6.64745,15.17213
10464,135.00000,8.18621,15.44345
10465,135.00000,9.72498,15.71478
10466,135.00000,11.26374,15.98610
10467,135.00000,12.80250,16.25743
10468,135.00000,0.46985,14.17101
10469,135.00000,1.93812,14.70542
10470,135.00000,3.40639,15.23982
10471,135.00000,4.87466,15.77423
10472,135.00000,6.34293,16.30864
10473,135.00000,7.81119,16.84304
10474,135.00000,9.27946,17.37745
10475,135.00000,10.74773,17.91186
10476,135.00000,12.21600,18.44626
10477,135.00000,0.43301,14.25000
10478,135.00000,1.78618,15.03125
10479,135.00000,3.13934,15.81250
10480,135.00000,4.49251,16.59375
10481,135.00000,5.84567,17.37500
10482,135.00000,7.19884,18.15625
10483,135.00000,8.55200,18.93750
10484,135.00000,9.90517,19.71875
10485,135.00000,11.25833,20.50000
10486,135.00000,0.38302,14.32139
10487,135.00000,1.57997,15.32575
10488,135.00000,2.77691,16.33011
10489,135.00000,3.97386,17.33446
10490,135.00000,5.17080,18.33882
10491,135.00000,6.36774,19.34317
10492,135.00000,7.56469,20.34753
10493,135.00000,8.76163,21.35188
10494,135.00000,9.95858,22.35624
10495,135.00000,0.32139,14.38302
10496,135.00000,1.32575,15.57997
10497,135.00000,2.33011,16.77691
10498,135.00000,3.33446,17.97386
10499,135.00000,4.33882,19.17080
10500,135.00000,5.34317,20.36774
10501,135.00000,6.34753,21.56469
10502,135.00000,7.35188,22.76163
10503,135.00000,8.35624,23.95858
10504,135.00000,0.25000,14.43301
10505,135.00000,1.03125,15.78618
10506,135.00000,1.81250,17.13934
10507,135.00000,2.59375,18.49251
10508,135.00000,3.37500,19.84567
10509,135.00000,4.15625,21.19884
10510,135.00000,4.93750,22.55200
10511,135.00000,5.71875,23.90517
10512,135.00000,6.50000,25.25833
10513,135.00000,0.17101,14.46985
10514,135.00000,0.70542,15.93812
10515,135.00000,1.23982,17.40639
10516,135.00000,1.77423,18.87466
10517,135.00000,2.30864,20.34293
10518,135.00000,2.84304,21.81119
10519,135.00000,3.37745,23.27946
10520,135.00000,3.91186,24.74773
10521,135.00000,4.44626,26.21600
10522,135.00000,0.08682,14.49240
10523,135.00000,0.35815,16.03117
10524,135.00000,0.62947,17.56993
10525,135.00000,0.90080,19.10869
10526,135.00000,1.17213,20.64745
10527,135.00000,1.44345,22.18621
10528,135.00000,1.71478,23.72498
10529,135.00000,1.98610,25.26374
10530,135.00000,2.25743,26.80250
10531,135.00000,0.00000,14.50000
10532,135.00000,0.00000,16.06250
10533,135.00000,0.00000,17.62500
10534,135.00000,0.00000,19.18750
10535,135.00000,0.00000,20.75000
10536,135.00000,0.00000,22.31250
10537,135.00000,0.00000,23.87500
10538,135.00000,0.00000,25.43750
10539,135.00000,0.00000,27.00000
10540,135.00000,-0.08682,14.49240
10541,135.00000,-0.35815,16.03117
10542,135.00000,-0.62947,17.56993
10543,135.00000,-0.90080,19.10869
10544,135.00000,-1.17213,20.64745
10545,135.00000,-1.44345,22.18621
10546,135.00000,-1.71478,23.72498
10547,135.00000,-1.98610,25.26374
10548,135.00000,-2.25743,26.80250
10549,135.00000,-0.17101,14.46985
10550,135.00000,-0.70542,15.93812
10551,135.00000,-1.23982,17.40639
10552,135.00000,-1.77423,18.87466
10553,135.00000,-2.30864,20.34293
10554,135.00000,-2.84304,21.81119
10555,135.00000,-3.37745,23.27946
10556,135.00000,-3.91186,24.74773
10557,135.00000,-4.44626,26.21600
10558,135.00000,-0.25000,14.43301
10559,135.00000,-1.03125,15.78618
10560,135.00000,-1.81250,17.13934
10561,135.00000,-2.59375,18.49251
10562,135.00000,-3.37500,19.84567
10563,135.00000,-4.15625,21.19884
10564,135.00000,-4.93750,22.55200
10565,135.00000,-5.71875,23.90517
10566,135.00000,-6.50000,25.25833
10567,135.00000,-0.32139,14.38302
10568,135.00000,-1.32575,15.57997
10569,135.00000,-2.33011,16.77691
10570,135.00000,-3.33446,17.97386
10571,135.00000,-4.33882,19.17080
10572,135.00000,-5.34317,20.36774
10573,135.00000,-6.34753,21.56469
10574,135.00000,-7.35188,22.76163
10575,135.00000,-8.35624,23.95858
10576,135.00000,-0.38302,14.32139
10577,135.00000,-1.57997,15.32575
10578,135.00000,-2.77691,16.33011
10579,135.00000,-3.97386,17.33446
10580,135.00000,-5.17080,18.33882
10581,135.00000,-6.36774,19.34317
10582,135.00000,-7.56469,20.34753
10583,135.00000,-8.76163,21.35188
10584,135.00000,-9.95858,22.35624
10585,135.00000,-0.43301,14.25000
10586,135.00000,-1.78618,15.03125
10587,135.00000,-3.13934,15.81250
10588,135.00000,-4.49251,16.59375
10589,135.00000,-5.84567,17.37500
10590,135.00000,-7.19884,18.15625
10591,135.00000,-8.55200,18.93750
10592,135.00000,-9.90517,19.71875
10593,135.00000,-11.25833,20.50000
10594,135.00000,-0.46985,14.17101
10595,135.00000,-1.93812,14.70542
10596,135.00000,-3.40639,15.23982
10597,135.00000,-4.87466,15.77423
10598,135.00000,-6.34293,16.30864
10599,135.00000,-7.81119,16.84304
10600,135.00000,-9.27946,17.37745
10601,135.00000,-10.74773,17.91186
10602,135.00000,-12.21600,18.44626
10603,135.00000,-0.49240,14.08682
10604,135.00000,-2.03117,14.35815
10605,135.00000,-3.56993,14.62947
10606,135.00000,-5.10869,14.90080
10607,135.00000,-6.64745,15.17213
10608,135.00000,-8.18621,15.44345
10609,135.00000,-9.72498,15.71478
10610,135.00000,-11.26374,15.98610
10611,135.00000,-12.80250,16.25743
10612,135.00000,-0.50000,14.00000
10613,135.00000,-2.06250,14.00000
10614,135.00000,-3.62500,14.00000
10615,135.00000,-5.18750,14.00000
10616,135.00000,-6.75000,14.00000
10617,135.00000,-8.31250,14.00000
10618,135.00000,-9.87500,14.00000
10619,135.00000,-11.43750,14.00000
10620,135.00000,-13.00000,14.00000
10621,135.00000,-0.49240,13.91318
10622,135.00000,-2.03117,13.64185
10623,135.00000,-3.56993,13.37053
10624,135.00000,-5.10869,13.09920
10625,135.00000,-6.64745,12.82787
10626,135.00000,-8.18621,12.55655
10627,135.00000,-9.72498,12.28522
10628,135.00000,-11.26374,12.01390
10629,135.00000,-12.80250,11.74257
10630,135.00000,-0.46985,13.82899
10631,135.00000,-1.93812,13.29458
10632,135.00000,-3.40639,12.76018
10633,135.00000,-4.87466,12.22577
10634,135.00000,-6.34293,11.69136
10635,135.00000,-7.81119,11.15696
10636,135.00000,-9.27946,10.62255
10637,135.00000,-10.74773,10.08814
10638,135.00000,-12.21600,9.55374
10639,135.00000,-0.43301,13.75000
10640,135.00000,-1.78618,12.96875
10641,135.00000,-3.13934,12.18750
10642,135.00000,-4.49251,11.40625
10643,135.00000,-5.84567,10.62500
10644,135.00000,-7.19884,9.84375
10645,135.00000,-8.55200,9.06250
10646,135.00000,-9.90517,8.28125
10647,135.00000,-11.25833,7.50000
10648,135.00000,-0.38302,13.67861
10649,135.00000,-1.57997,12.67425
10650,135.00000,-2.77691,11.66989
10651,135.00000,-3.97386,10.66554
10652,135.00000,-5.17080,9.66118
10653,135.00000,-6.36774,8.65683
10654,135.00000,-7.56469,7.65247
10655,135.00000,-8.76163,6.64812
10656,135.00000,-9.95858,5.64376
10657,135.00000,-0.32139,13.61698
10658,135.00000,-1.32575,12.42003
10659,135.00000,-2.33011,11.22309
10660,135.00000,-3.33446,10.02614
10661,135.00000,-4.33882,8.82920
10662,135.00000,-5.34317,7.63226
10663,135.00000,-6.34753,6.43531
10664,135.00000,-7.35188,5.23837
10665,135.00000,-8.35624,4.04142
10666,135.00000,-0.25000,13.56699
10667,135.00000,-1.03125,12.21382
10668,135.00000,-1.81250,10.86066
10669,135.00000,-2.59375,9.50749
10670,135.00000,-3.37500,8.15433
10671,135.00000,-4.15625,6.80116
10672,135.00000,-4.93750,5.44800
10673,135.00000,-5.71875,4.09483
10674,135.00000,-6.50000,2.74167
10675,135.00000,-0.17101,13.53015
10676,135.00000,-0.70542,12.06188
10677,135.00000,-1.23982,10.59361
10678,135.00000,-1.77423,9.12534
10679,135.00000,-2.30864,7.65707
10680,135.00000,-2.84304,6.18881
10681,135.00000,-3.37745,4.72054
10682,135.00000,-3.91186,3.25227
10683,135.00000,-4.44626,1.78400
10684,135.00000,-0.08682,13.50760
10685,135.00000,-0.35815,11.96883
10686,135.00000,-0.62947,10.43007
10687,135.00000,-0.90080,8.89131
10688,135.00000,-1.17213,7.35255
10689,135.00000,-1.44345,5.81379
10690,135.00000,-1.71478,4.27502
10691,135.00000,-1.98610,2.73626
10692,135.00000,-2.25743,1.19750
10693,135.00000,-0.00000,13.50000
10694,135.00000,-0.00000,11.93750
10695,135.00000,-0.00000,10.37500
10696,135.00000,-0.00000,8.81250
10697,135.00000,-0.00000,7.25000
10698,135.00000,-0.00000,5.68750
10699,135.00000,-0.00000,4.12500
10700,135.00000,-0.00000,2.56250
10701,135.00000,-0.00000,1.00000
10702,135.00000,0.08682,13.50760
10703,135.00000,0.35815,11.96883
10704,135.00000,0.62947,10.43007
10705,135.00000,0.90080,8.89131
10706,135.00000,1.17213,7.35255
10707,135.00000,1.44345,5.81379
10708,135.00000,1.71478,4.27502
10709,135.00000,1.98610,2.73626
10710,135.00000,2.25743,1.19750
10711,135.00000,0.17101,13.53015
10712,135.00000,0.70542,12.06188
10713,135.00000,1.23982,10.59361
10714,135.00000,1.77423,9.12534
10715,135.00000,2.30864,7.65707
10716,135.00000,2.84304,6.18881
10717,135.00000,3.37745,4.72054
10718,135.00000,3.91186,3.25227
10719,135.00000,4.44626,1.78400
10720,135.00000,0.25000,13.56699
10721,135.00000,1.03125,12.21382
10722,135.00000,1.81250,10.86066
10723,135.00000,2.59375,9.50749
10724,135.00000,3.37500,8.15433
10725,135.00000,4.15625,6.80116
10726,135.00000,4.93750,5.44800
10727,135.00000,5.71875,4.09483
10728,135.00000,6.50000,2.74167
10729,135.00000,0.32139,13.61698
10730,135.00000,1.32575,12.42003
10731,135.00000,2.33011,11.22309
10732,135.00000,3.33446,10.02614
10733,135.00000,4.33882,8.82920
10734,135.00000,5.34317,7.63226
10735,135.00000,6.34753,6.43531
10736,135.00000,7.35188,5.23837
10737,135.00000,8.35624,4.04142
10738,135.00000,0.38302,13.67861
10739,135.00000,1.57997,12.67425
10740,135.00000,2.77691,11.66989
10741,135.00000,3.97386,10.66554
10742,135.00000,5.17080,9.66118
10743,135.00000,6.36774,8.65683
10744,135.00000,7.56469,7.65247
10745,135.00000,8.76163,6.64812
10746,135.00000,9.95858,5.64376
10747,135.00000,0.43301,13.75000
10748,135.00000,1.78618,12.96875
10749,135.00000,3.13934,12.18750
10750,135.00000,4.49251,11.40625
10751,135.00000,5.84567,10.62500
10752,135.00000,7.19884,9.84375
10753,135.00000,8.55200,9.06250
10754,135.00000,9.90517,8.28125
10755,135.00000,11.25833,7.50000
10756,135.00000,0.46985,13.82899
10757,135.00000,1.93812,13.29458
10758,135.00000,3.40639,12.76018
10759,135.00000,4.87466,12.22577
10760,135.00000,6.34293,11.69136
10761,135.00000,7.81119,11.15696
10762,135.00000,9.27946,10.62255
10763,135.00000,10.74773,10.08814
10764,135.00000,12.21600,9.55374
10765,135.00000,0.49240,13.91318
10766,135.00000,2.03117,13.64185
10767,135.00000,3.56993,13.37053
10768,135.00000,5.10869,13.09920
10769,135.00000,6.64745,12.82787
10770,135.00000,8.18621,12.55655
10771,135.00000,9.72498,12.28522
10772,135.00000,11.26374,12.01390
10773,135.00000,12.80250,11.74257
10774,135.00000,0.50000,14.00000
10775,135.00000,2.06250,14.00000
10776,135.00000,3.62500,14.00000
10777,135.00000,5.18750,14.00000
10778,135.00000,6.75000,14.00000
10779,135.00000,8.31250,14.00000
10780,135.00000,9.87500,14.00000
10781,135.00000,11.43750,14.00000
10782,135.00000,13.00000,14.00000
10783,140.00000,0.50000,14.00000
10784,140.00000,2.06250,14.00000
10785,140.00000,3.62500,14.00000
10786,140.00000,5.18750,14.00000
10787,140.00000,6.75000,14.00000
10788,140.00000,8.31250,14.00000
10789,140.00000,9.87500,14.00000
10790,140.00000,11.43750,14.00000
10791,140.00000,13.00000,14.00000
10792,140.00000,0.49240,14.08682
10793,140.00000,2.03117,14.35815
10794,140.00000,3.56993,14.62947
10795,140.00000,5.10869,14.90080
10796,140.00000,6.64745,15.17213
10797,140.00000,8.18621,15.44345
10798,140.00000,9.72498,15.71478
10799,140.00000,11.26374,15.98610
10800,140.00000,12.80250,16.25743
10801,140.00000,0.46985,14.17101
10802,140.00000,1.93812,14.70542
10803,140.00000,3.40639,15.23982
10804,140.00000,4.87466,15.77423
10805,140.00000,6.34293,16.30864
10806,140.00000,7.81119,16.84304
10807,140.00000,9.27946,17.37745
10808,140.00000,10.74773,17.91186
10809,140.00000,12.21600,18.44626
10810,140.00000,0.43301,14.25000
10811,140.00000,1.78618,15.03125
10812,140.00000,3.13934,15.81250
10813,140.00000,4.49251,16.59375
10814,140.00000,5.84567,17.37500
10815,140.00000,7.19884,18.15625
10816,140.00000,8.55200,18.93750
10817,140.00000,9.90517,19.71875
10818,140.00000,11.25833,20.50000
10819,140.00000,0.38302,14.32139
10820,140.00000,1.57997,15.32575
10821,140.00000,2.77691,16.33011
10822,140.00000,3.97386,17.33446
10823,140.00000,5.17080,18.33882
10824,140.00000,6.36774,19.34317
10825,140.00000,7.56469,20.34753
10826,140.00000,8.76163,21.35188
10827,140.00000,9.95858,22.35624
10828,140.00000,0.32139,14.38302
10829,140.00000,1.32575,15.57997
10830,140.00000,2.33011,16.77691
10831,140.00000,3.33446,17.97386
10832,140.00000,4.33882,19.17080
10833,140.00000,5.34317,20.36774
10834,140.00000,6.34753,21.56469
10835,140.00000,7.35188,22.76163
10836,140.00000,8.35624,23.95858
10837,140.00000,0.25000,14.43301
10838,140.00000,1.03125,15.78618
10839,140.00000,1.81250,17.13934
10840,140.00000,2.59375,18.49251
10841,140.00000,3.37500,19.84567
10842,140.00000,4.15625,21.19884
10843,140.00000,4.93750,22.55200
10844,140.00000,5.71875,23.90517
10845,140.00000,6.50000,25.25833
10846,140.00000,0.17101,14.46985
10847,140.00000,0.70542,15.93812
10848,140.00000,1.23982,17.40639
10849,140.00000,1.77423,18.87466
10850,140.00000,2.30864,20.34293
10851,140.00000,2.84304,21.81119
10852,140.00000,3.37745,23.27946
10853,140.00000,3.91186,24.74773
10854,140.00000,4.44626,26.21600
10855,140.00000,0.08682,14.49240
10856,140.00000,0.35815,16.03117
10857,140.00000,0.62947,17.56993
10858,140.00000,0.90080,19.10869
10859,140.00000,1.17213,20.64745
10860,140.00000,1.44345,22.18621
10861,140.00000,1.71478,23.72498
10862,140.00000,1.98610,25.26374
10863,140.00000,2.25743,26.80250
10864,140.00000,0.00000,14.50000
10865,140.00000,0.00000,16.06250
10866,140.00000,0.00000,17.62500
10867,140.00000,0.00000,19.18750
10868,140.00000,0.00000,20.75000
10869,140.00000,0.00000,22.31250
10870,140.00000,0.00000,23.87500
10871,140.00000,0.00000,25.43750
10872,140.00000,0.00000,27.00000
10873,140.00000,-0.08682,14.49240
10874,140.00000,-0.35815,16.03117
10875,140.00000,-0.62947,17.56993
10876,140.00000,-0.90080,19.10869
10877,140.00000,-1.17213,20.64745
10878,140.00000,-1.44345,22.18621
10879,140.00000,-1.71478,23.72498
10880,140.00000,-1.98610,25.26374
10881,140.00000,-2.25743,26.80250
10882,140.00000,-0.17101,14.46985
10883,140.00000,-0.70542,15.93812
10884,140.00000,-1.23982,17.40639
10885,140.00000,-1.77423,18.87466
10886,140.00000,-2.30864,20.34293
10887,140.00000,-2.84304,21.81119
10888,140.00000,-3.37745,23.27946
10889,140.00000,-3.91186,24.74773
10890,140.00000,-4.44626,26.21600
10891,140.00000,-0.25000,14.43301
10892,140.00000,-1.03125,15.78618
10893,140.00000,-1.81250,17.13934
10894,140.00000,-2.59375,18.49251
10895,140.00000,-3.37500,19.84567
10896,140.00000,-4.15625,21.19884
10897,140.00000,-4.93750,22.55200
10898,140.00000,-5.71875,23.90517
10899,140.00000,-6.50000,25.25833
10900,140.00000,-0.32139,14.38302
10901,140.00000,-1.32575,15.57997
10902,140.00000,-2.33011,16.77691
10903,140.00000,-3.33446,17.97386
10904,140.00000,-4.33882,19.17080
10905,140.00000,-5.34317,20.36774
10906,140.00000,-6.34753,21.56469
10907,140.00000,-7.35188,22.76163
10908,140.00000,-8.35624,23.95858
10909,140.00000,-0.38302,14.32139
10910,140.00000,-1.57997,15.32575
10911,140.00000,-2.77691,16.33011
10912,140.00000,-3.97386,17.33446
10913,140.00000,-5.17080,18.33882
10914,140.00000,-6.36774,19.34317
10915,140.00000,-7.56469,20.34753
10916,140.00000,-8.76163,21.35188
10917,140.00000,-9.95858,22.35624
10918,140.00000,-0.43301,14.25000
10919,140.00000,-1.78618,15.03125
10920,140.00000,-3.13934,15.81250
10921,140.00000,-4.49251,16.59375
10922,140.00000,-5.84567,17.37500
10923,140.00000,-7.19884,18.15625
10924,140.00000,-8.55200,18.93750
10925,140.00000,-9.90517,19.71875
10926,140.00000,-11.25833,20.50000
10927,140.00000,-0.46985,14.17101
10928,140.00000,-1.93812,14.70542
10929,140.00000,-3.40639,15.23982
10930,140.00000,-4.87466,15.77423
10931,140.00000,-6.34293,16.30864
10932,140.00000,-7.81119,16.84304
10933,140.00000,-9.27946,17.37745
10934,140.00000,-10.74773,17.91186
10935,140.00000,-12.21600,18.44626
10936,140.00000,-0.49240,14.08682
10937,140.00000,-2.03117,14.35815
10938,140.00000,-3.56993,14.62947
10939,140.00000,-5.10869,14.90080
10940,140.00000,-6.64745,15.17213
10941,140.00000,-8.18621,15.44345
10942,140.00000,-9.72498,15.71478
10943,140.00000,-11.26374,15.98610
10944,140.00000,-12.80250,16.25743
10945,140.00000,-0.50000,14.00000
10946,140.00000,-2.06250,14.00000
10947,140.00000,-3.62500,14.00000
10948,140.00000,-5.18750,14.00000
10949,140.00000,-6.75000,14.00000
10950,140.00000,-8.31250,14.00000
10951,140.00000,-9.87500,14.00000
10952,140.00000,-11.43750,14.00000
10953,140.00000,-13.00000,14.00000
10954,140.00000,-0.49240,13.91318
10955,140.00000,-2.03117,13.64185
10956,140.00000,-3.56993,13.37053
10957,140.00000,-5.10869,13.09920
10958,140.00000,-6.64745,12.82787
10959,140.00000,-8.18621,12.55655
10960,140.00000,-9.72498,12.28522
10961,140.00000,-11.26374,12.01390
10962,140.00000,-12.80250,11.74257
10963,140.00000,-0.46985,13.82899
10964,140.00000,-1.93812,13.29458
10965,140.00000,-3.40639,12.76018
10966,140.00000,-4.87466,12.22577
10967,140.00000,-6.34293,11.69136
10968,140.00000,-7.81119,11.15696
10969,140.00000,-9.27946,10.62255
10970,140.00000,-10.74773,10.08814
10971,140.00000,-12.21600,9.55374
10972,140.00000,-0.43301,13.75000
10973,140.00000,-1.78618,12.96875
10974,140.00000,-3.13934,12.18750
10975,140.00000,-4.49251,11.40625
10976,140.00000,-5.84567,10.62500
10977,140.00000,-7.19884,9.84375
10978,140.00000,-8.55200,9.06250
10979,140.00000,-9.90517,8.28125
10980,140.00000,-11.25833,7.50000
10981,140.00000,-0.38302,13.67861
10982,140.00000,-1.57997,12.67425
10983,140.00000,-2.77691,11.66989
10984,140.00000,-3.97386,10.66554
10985,140.00000,-5.17080,9.66118
10986,140.00000,-6.36774,8.65683
10987,140.00000,-7.56469,7.65247
10988,140.00000,-8.76163,6.64812
10989,140.00000,-9.95858,5.64376
10990,140.00000,-0.32139,13.61698
10991,140.00000,-1.32575,12.42003
10992,140.00000,-2.33011,11.22309
10993,140.00000,-3.33446,10.02614
10994,140.00000,-4.33882,8.82920
10995,140.00000,-5.34317,7.63226
10996,140.00000,-6.34753,6.43531
10997,140.00000,-7.35188,5.23837
10998,140.00000,-8.35624,4.04142
10999,140.00000,-0.25000,13.56699
11000,140.00000,-1.03125,12.21382
11001,140.00000,-1.81250,10.86066
11002,140.00000,-2.59375,9.50749
11003,140.00000,-3.37500,8.15433
11004,140.00000,-4.15625,6.80116
11005,140.00000,-4.93750,5.44800
11006,140.00000,-5.71875,4.09483
11007,140.00000,-6.50000,2.74167
11008,140.00000,-0.17101,13.53015
11009,140.00000,-0.70542,12.06188
11010,140.00000,-1.23982,10.59361
11011,140.00000,-1.77423,9.12534
11012,140.00000,-2.30864,7.65707
11013,140.00000,-2.84304,6.18881
11014,140.00000,-3.37745,4.72054
11015,140.00000,-3.91186,3.25227
11016,140.00000,-4.44626,1.78400
11017,140.00000,-0.08682,13.50760
11018,140.00000,-0.35815,11.96883
11019,140.00000,-0.62947,10.43007
11020,140.00000,-0.90080,8.89131
11021,140.00000,-1.17213,7.35255
11022,140.00000,-1.44345,5.81379
11023,140.00000,-1.71478,4.27502
11024,140.00000,-1.98610,2.73626
11025,140.00000,-2.25743,1.19750
11026,140.00000,-0.00000,13.50000
11027,140.00000,-0.00000,11.93750
11028,140.00000,-0.00000,10.37500
11029,140.00000,-0.00000,8.81250
11030,140.00000,-0.00000,7.25000
11031,140.00000,-0.00000,5.68750
11032,140.00000,-0.00000,4.12500
11033,140.00000,-0.00000,2.56250
11034,140.00000,-0.00000,1.00000
11035,140.00000,0.08682,13.50760
11036,140.00000,0.35815,11.96883
11037,140.00000,0.62947,10.43007
11038,140.00000,0.90080,8.89131
11039,140.00000,1.17213,7.35255
11040,140.00000,1.44345,5.81379
11041,140.00000,1.71478,4.27502
11042,140.00000,1.98610,2.73626
11043,140.00000,2.25743,1.19750
11044,140.00000,0.17101,13.53015
11045,140.00000,0.70542,12.06188
11046,140.00000,1.23982,10.59361
11047,140.00000,1.77423,9.12534
11048,140.00000,2.30864,7.65707
11049,140.00000,2.84304,6.18881
11050,140.00000,3.37745,4.72054
11051,140.00000,3.91186,3.25227
11052,140.00000,4.44626,1.78400
11053,140.00000,0.25000,13.56699
11054,140.00000,1.03125,12.21382
11055,140.00000,1.81250,10.86066
11056,140.00000,2.59375,9.50749
11057,140.00000,3.37500,8.15433
11058,140.00000,4.15625,6.80116
11059,140.00000,4.93750,5.44800
11060,140.00000,5.71875,4.09483
11061,140.00000,6.50000,2.74167
11062,140.00000,0.32139,13.61698
11063,140.00000,1.32575,12.42003
11064,140.00000,2.33011,11.22309
11065,140.00000,3.33446,10.02614
11066,140.00000,4.33882,8.82920
11067,140.00000,5.34317,7.63226
11068,140.00000,6.34753,6.43531
11069,140.00000,7.35188,5.23837
11070,140.00000,8.35624,4.04142
11071,140.00000,0.38302,13.67861
11072,140.00000,1.57997,12.67425
11073,140.00000,2.77691,11.66989
11074,140.00000,3.97386,10.66554
11075,140.00000,5.17080,9.66118
11076,140.00000,6.36774,8.65683
11077,140.00000,7.56469,7.65247
11078,140.00000,8.76163,6.64812
11079,140.00000,9.95858,5.64376
11080,140.00000,0.43301,13.75000
11081,140.00000,1.78618,12.96875
11082,140.00000,3.13934,12.18750
11083,140.00000,4.49251,11.40625
11084,140.00000,5.84567,10.62500
11085,140.00000,7.19884,9.84375
11086,140.00000,8.55200,9.06250
11087,140.00000,9.90517,8.28125
11088,140.00000,11.25833,7.50000
11089,140.00000,0.46985,13.82899
11090,140.00000,1.93812,13.29458
11091,140.00000,3.40639,12.76018
11092,140.00000,4.87466,12.22577
11093,140.00000,6.34293,11.69136
11094,140.00000,7.81119,11.15696
11095,140.00000,9.27946,10.62255
11096,140.00000,10.74773,10.08814
11097,140.00000,12.21600,9.55374
11098,140.00000,0.49240,13.91318
11099,140.00000,2.03117,13.64185
11100,140.00000,3.56993,13.37053
11101,140.00000,5.10869,13.09920
11102,140.00000,6.64745,12.82787
11103,140.00000,8.18621,12.55655
11104,140.00000,9.72498,12.28522
11105,140.00000,11.26374,12.01390
11106,140.00000,12.80250,11.74257
11107,140.00000,0.50000,14.00000
11108,140.00000,2.06250,14.00000
11109,140.00000,3.62500,14.00000
11110,140.00000,5.18750,14.00000
11111,140.00000,6.75000,14.00000
11112,140.00000,8.31250,14.00000
11113,140.00000,9.87500,14.00000
11114,140.00000,11.43750,14.00000
11115,140.00000,13.00000,14.00000
11116,145.00000,0.50000,14.00000
11117,145.00000,2.06250,14.00000
11118,145.00000,3.62500,14.00000
11119,145.00000,5.18750,14.00000
11120,145.00000,6.75000,14.00000
11121,145.00000,8.31250,14.00000
11122,145.00000,9.87500,14.00000
11123,145.00000,11.43750,14.00000
11124,145.00000,13.00000,14.00000
11125,145.00000,0.49240,14.08682
11126,145.00000,2.03117,14.35815
11127,145.00000,3.56993,14.62947
11128,145.00000,5.10869,14.90080
11129,145.00000,6.64745,15.17213
11130,145.00000,8.18621,15.44345
11131,145.00000,9.72498,15.71478
11132,145.00000,11.26374,15.98610
11133,145.00000,12.80250,16.25743
11134,145.00000,0.46985,14.17101
11135,145.00000,1.93812,14.70542
11136,145.00000,3.40639,15.23982
11137,145.00000,4.87466,15.77423
11138,145.00000,6.34293,16.30864
11139,145.00000,7.81119,16.84304
11140,145.00000,9.27946,17.37745
11141,145.00000,10.74773,17.91186
11142,145.00000,12.21600,18.44626
11143,145.00000,0.43301,14.25000
11144,145.00000,1.78618,15.03125
11145,145.00000,3.13934,15.81250
11146,145.00000,4.49251,16.59375
11147,145.00000,5.84567,17.37500
11148,145.00000,7.19884,18.15625
11149,145.00000,8.55200,18.93750
11150,145.00000,9.90517,19.71875
11151,145.00000,11.25833,20.50000
11152,145.00000,0.38302,14.32139
11153,145.00000,1.57997,15.32575
11154,145.00000,2.77691,16.33011
11155,145.00000,3.97386,17.33446
11156,145.00000,5.17080,18.33882
11157,145.00000,6.36774,19.34317
11158,145.00000,7.56469,20.34753
11159,145.00000,8.76163,21.35188
11160,145.00000,9.95858,22.35624
11161,145.00000,0.32139,14.38302
11162,145.00000,1.32575,15.57997
11163,145.00000,2.33011,16.77691
11164,145.00000,3.33446,17.97386
11165,145.00000,4.33882,19.17080
11166,145.00000,5.34317,20.36774
11167,145.00000,6.34753,21.56469
11168,145.00000,7.35188,22.76163
11169,145.00000,8.35624,23.95858
11170,145.00000,0.25000,14.43301
11171,145.00000,1.03125,15.78618
11172,145.00000,1.81250,17.13934
11173,145.00000,2.59375,18.49251
11174,145.00000,3.37500,19.84567
11175,145.00000,4.15625,21.19884
11176,145.00000,4.93750,22.55200
11177,145.00000,5.71875,23.90517
11178,145.00000,6.50000,25.25833
11179,145.00000,0.17101,14.46985
11180,145.00000,0.70542,15.93812
11181,145.00000,1.23982,17.40639
11182,145.00000,1.77423,18.87466
11183,145.00000,2.30864,20.34293
11184,145.00000,2.84304,21.81119
11185,145.00000,3.37745,23.27946
11186,145.00000,3.91186,24.74773
11187,145.00000,4.44626,26.21600
11188,145.00000,0.08682,14.49240
11189,145.00000,0.35815,16.03117
11190,145.00000,0.62947,17.56993
11191,145.00000,0.90080,19.10869
11192,145.00000,1.17213,20.64745
11193,145.00000,1.44345,22.18621
11194,145.00000,1.71478,23.72498
11195,145.00000,1.98610,25.26374
11196,145.00000,2.25743,26.80250
11197,145.00000,0.00000,14.50000
11198,145.00000,0.00000,16.06250
11199,145.00000,0.00000,17.62500
11200,145.00000,0.00000,19.18750
11201,145.00000,0.00000,20.75000
11202,145.00000,0.00000,22.31250
11203,145.00000,0.00000,23.87500
11204,145.00000,0.00000,25.43750
11205,145.00000,0.00000,27.00000
11206,145.00000,-0.08682,14.49240
11207,145.00000,-0.35815,16.03117
11208,145.00000,-0.62947,17.56993
11209,145.00000,-0.90080,19.10869
11210,145.00000,-1.17213,20.64745
11211,145.00000,-1.44345,22.18621
11212,145.00000,-1.71478,23.72498
11213,145.00000,-1.98610,25.26374
11214,145.00000,-2.25743,26.80250
11215,145.00000,-0.17101,14.46985
11216,145.00000,-0.70542,15.93812
11217,145.00000,-1.23982,17.40639
11218,145.00000,-1.77423,18.87466
11219,145.00000,-2.30864,20.34293
11220,145.00000,-2.84304,21.81119
11221,145.00000,-3.37745,23.27946
11222,145.00000,-3.91186,24.74773
11223,145.00000,-4.44626,26.21600
11224,145.00000,-0.25000,14.43301
11225,145.00000,-1.03125,15.78618
11226,145.00000,-1.81250,17.13934
11227,145.00000,-2.59375,18.49251
11228,145.00000,-3.37500,19.84567
11229,145.00000,-4.15625,21.19884
11230,145.00000,-4.93750,22.55200
11231,145.00000,-5.71875,23.90517
11232,145.00000,-6.50000,25.25833
11233,145.00000,-0.32139,14.38302
11234,145.00000,-1.32575,15.57997
11235,145.00000,-2.33011,16.77691
11236,145.00000,-3.33446,17.97386
11237,145.00000,-4.33882,19.17080
11238,145.00000,-5.34317,20.36774
11239,145.00000,-6.34753,21.56469
11240,145.00000,-7.35188,22.76163
11241,145.00000,-8.35624,23.95858
11242,145.00000,-0.38302,14.32139
11243,145.00000,-1.57997,15.32575
11244,145.00000,-2.77691,16.33011
11245,145.00000,-3.97386,17.33446
11246,145.00000,-5.17080,18.33882
11247,145.00000,-6.36774,19.34317
11248,145.00000,-7.56469,20.34753
11249,145.00000,-8.76163,21.35188
11250,145.00000,-9.95858,22.35624
11251,145.00000,-0.43301,14.25000
11252,145.00000,-1.78618,15.03125
11253,145.00000,-3.13934,15.81250
11254,145.00000,-4.49251,16.59375
11255,145.00000,-5.84567,17.37500
11256,145.00000,-7.19884,18.15625
11257,145.00000,-8.55200,18.93750
11258,145.00000,-9.90517,19.71875
11259,145.00000,-11.25833,20.50000
11260,145.00000,-0.46985,14.17101
11261,145.00000,-1.93812,14.70542
11262,145.00000,-3.40639,15.23982
11263,145.00000,-4.87466,15.77423
11264,145.00000,-6.34293,16.30864
11265,145.00000,-7.81119,16.84304
11266,145.00000,-9.27946,17.37745
11267,145.00000,-10.74773,17.91186
11268,145.00000,-12.21600,18.44626
11269,145.00000,-0.49240,14.08682
11270,145.00000,-2.03117,14.35815
11271,145.00000,-3.56993,14.62947
11272,145.00000,-5.10869,14.90080
11273,145.00000,-6.64745,15.17213
11274,145.00000,-8.18621,15.44345
11275,145.00000,-9.72498,15.71478
11276,145.00000,-11.26374,15.98610
11277,145.00000,-12.80250,16.25743
11278,145.00000,-0.50000,14.00000
11279,145.00000,-2.06250,14.00000
11280,145.00000,-3.62500,14.00000
11281,145.00000,-5.18750,14.00000
11282,145.00000,-6.75000,14.00000
11283,145.00000,-8.31250,14.00000
11284,145.00000,-9.87500,14.00000
11285,145.00000,-11.43750,14.00000
11286,145.00000,-13.00000,14.00000
11287,145.00000,-0.49240,13.91318
11288,145.00000,-2.03117,13.64185
11289,145.00000,-3.56993,13.37053
11290,145.00000,-5.10869,13.09920
11291,145.00000,-6.64745,12.82787
11292,145.00000,-8.18621,12.55655
11293,145.00000,-9.72498,12.28522
11294,145.00000,-11.26374,12.01390
11295,145.00000,-12.80250,11.74257
11296,145.00000,-0.46985,13.82899
11297,145.00000,-1.93812,13.29458
11298,145.00000,-3.40639,12.76018
11299,145.00000,-4.87466,12.22577
11300,145.00000,-6.34293,11.69136
11301,145.00000,-7.81119,11.15696
11302,145.00000,-9.27946,10.62255
11303,145.00000,-10.74773,10.08814
11304,145.00000,-12.21600,9.55374
11305,145.00000,-0.43301,13.75000
11306,145.00000,-1.78618,12.96875
11307,145.00000,-3.13934,12.18750
11308,145.00000,-4.49251,11.40625
11309,145.00000,-5.84567,10.62500
11310,145.00000,-7.19884,9.84375
11311,145.00000,-8.55200,9.06250
11312,145.00000,-9.90517,8.28125
11313,145.00000,-11.25833,7.50000
11314,145.00000,-0.38302,13.67861
11315,145.00000,-1.57997,12.67425
11316,145.00000,-2.77691,11.66989
11317,145.00000,-3.97386,10.66554
11318,145.00000,-5.17080,9.66118
11319,145.00000,-6.36774,8.65683
11320,145.00000,-7.56469,7.65247
11321,145.00000,-8.76163,6.64812
11322,145.00000,-9.95858,5.64376
11323,145.00000,-0.32139,13.61698
11324,145.00000,-1.32575,12.42003
11325,145.00000,-2.33011,11.22309
11326,145.00000,-3.33446,10.02614
11327,145.00000,-4.33882,8.82920
11328,145.00000,-5.34317,7.63226
11329,145.00000,-6.34753,6.43531
11330,145.00000,-7.35188,5.23837
11331,145.00000,-8.35624,4.04142
11332,145.00000,-0.25000,13.56699
11333,145.00000,-1.03125,12.21382
11334,145.00000,-1.81250,10.86066
11335,145.00000,-2.59375,9.50749
11336,145.00000,-3.37500,8.15433
11337,145.00000,-4.15625,6.80116
11338,145.00000,-4.93750,5.44800
11339,145.00000,-5.71875,4.09483
11340,145.00000,-6.50000,2.74167
11341,145.00000,-0.17101,13.53015
11342,145.00000,-0.70542,12.06188
11343,145.00000,-1.23982,10.59361
11344,145.00000,-1.77423,9.12534
11345,145.00000,-2.30864,7.65707
11346,145.00000,-2.84304,6.18881
11347,145.00000,-3.37745,4.72054
11348,145.00000,-3.91186,3.25227
11349,145.00000,-4.44626,1.78400
11350,145.00000,-0.08682,13.50760
11351,145.00000,-0.35815,11.96883
11352,145.00000,-0.62947,10.43007
11353,145.00000,-0.90080,8.89131
11354,145.00000,-1.17213,7.35255
11355,145.00000,-1.44345,5.81379
11356,145.00000,-1.71478,4.27502
11357,145.00000,-1.98610,2.73626
11358,145.00000,-2.25743,1.19750
11359,145.00000,-0.00000,13.50000
11360,145.00000,-0.00000,11.93750
11361,145.00000,-0.00000,10.37500
11362,145.00000,-0.00000,8.81250
11363,145.00000,-0.00000,7.25000
11364,145.00000,-0.00000,5.68750
11365,145.00000,-0.00000,4.12500
11366,145.00000,-0.00000,2.56250
11367,145.00000,-0.00000,1.00000
11368,145.00000,0.08682,13.50760
11369,145.00000,0.35815,11.96883
11370,145.00000,0.62947,10.43007
11371,145.00000,0.90080,8.89131
11372,145.00000,1.17213,7.35255
11373,145.00000,1.44345,5.81379
11374,145.00000,1.71478,4.27502
11375,145.00000,1.98610,2.73626
11376,145.00000,2.25743,1.19750
11377,145.00000,0.17101,13.53015
11378,145.00000,0.70542,12.06188
11379,145.00000,1.23982,10.59361
11380,145.00000,1.77423,9.12534
11381,145.00000,2.30864,7.65707
11382,145.00000,2.84304,6.18881
11383,145.00000,3.37745,4.72054
11384,145.00000,3.91186,3.25227
11385,145.00000,4.44626,1.78400
11386,145.00000,0.25000,13.56699
11387,145.00000,1.03125,12.21382
11388,145.00000,1.81250,10.86066
11389,145.00000,2.59375,9.50749
11390,145.00000,3.37500,8.15433
11391,145.00000,4.15625,6.80116
11392,145.00000,4.93750,5.44800
11393,145.00000,5.71875,4.09483
11394,145.00000,6.50000,2.74167
11395,145.00000,0.32139,13.61698
11396,145.00000,1.32575,12.42003
11397,145.00000,2.33011,11.22309
11398,145.00000,3.33446,10.02614
11399,145.00000,4.33882,8.82920
11400,145.00000,5.34317,7.63226
11401,145.00000,6.34753,6.43531
11402,145.00000,7.35188,5.23837
11403,145.00000,8.35624,4.04142
11404,145.00000,0.38302,13.67861
11405,145.00000,1.57997,12.67425
11406,145.00000,2.77691,11.66989
11407,145.00000,3.97386,10.66554
11408,145.00000,5.17080,9.66118
11409,145.00000,6.36774,8.65683
11410,145.00000,7.56469,7.65247
11411,145.00000,8.76163,6.64812
11412,145.00000,9.95858,5.64376
11413,145.00000,0.43301,13.75000
11414,145.00000,1.78618,12.96875
11415,145.00000,3.13934,12.18750
11416,145.00000,4.49251,11.40625
11417,145.00000,5.84567,10.62500
11418,145.00000,7.19884,9.84375
11419,145.00000,8.55200,9.06250
11420,145.00000,9.90517,8.28125
11421,145.00000,11.25833,7.50000
11422,145.00000,0.46985,13.82899
11423,145.00000,1.93812,13.29458
11424,145.00000,3.40639,12.76018
11425,145.00000,4.87466,12.22577
11426,145.00000,6.34293,11.69136
11427,145.00000,7.81119,11.15696
11428,145.00000,9.27946,10.62255
11429,145.00000,10.74773,10.08814
11430,145.00000,12.21600,9.55374
11431,145.00000,0.49240,13.91318
11432,145.00000,2.03117,13.64185
11433,145.00000,3.56993,13.37053
11434,145.00000,5.10869,13.09920
11435,145.00000,6.64745,12.82787
11436,145.00000,8.18621,12.55655
11437,145.00000,9.72498,12.28522
11438,145.00000,11.26374,12.01390
11439,145.00000,12.80250,11.74257
11440,145.00000,0.50000,14.00000
11441,145.00000,2.06250,14.00000
11442,145.00000,3.62500,14.00000
11443,145.00000,5.18750,14.00000
11444,145.00000,6.75000,14.00000
11445,145.00000,8.31250,14.00000
11446,145.00000,9.87500,14.00000
11447,145.00000,11.43750,14.00000
11448,145.00000,13.00000,14.00000
11449,150.00000,0.50000,14.00000
11450,150.00000,2.06250,14.00000
11451,150.00000,3.62500,14.00000
11452,150.00000,5.18750,14.00000
11453,150.00000,6.75000,14.00000
11454,150.00000,8.31250,14.00000
11455,150.00000,9.87500,14.00000
11456,150.00000,11.43750,14.00000
11457,150.00000,13.00000,14.00000
11458,150.00000,0.49240,14.08682
11459,150.00000,2.03117,14.35815
11460,150.00000,3.56993,14.62947
11461,150.00000,5.10869,14.90080
11462,150.00000,6.64745,15.17213
11463,150.00000,8.18621,15.44345
11464,150.00000,9.72498,15.71478
11465,150.00000,11.26374,15.98610
11466,150.00000,12.80250,16.25743
11467,150.00000,0.46985,14.17101
11468,150.00000,1.93812,14.70542
11469,150.00000,3.40639,15.23982
11470,150.00000,4.87466,15.77423
11471,150.00000,6.34293,16.30864
11472,150.00000,7.81119,16.84304
11473,150.00000,9.27946,17.37745
11474,150.00000,10.74773,17.91186
11475,150.00000,12.21600,18.44626
11476,150.00000,0.43301,14.25000
11477,150.00000,1.78618,15.03125
11478,150.00000,3.13934,15.81250
11479,150.00000,4.49251,16.59375
11480,150.00000,5.84567,17.37500
11481,150.00000,7.19884,18.15625
11482,150.00000,8.55200,18.93750
11483,150.00000,9.90517,19.71875
11484,150.00000,11.25833,20.50000
11485,150.00000,0.38302,14.32139
11486,150.00000,1.57997,15.32575
11487,150.00000,2.77691,16.33011
11488,150.00000,3.97386,17.33446
11489,150.00000,5.17080,18.33882
11490,150.00000,6.36774,19.34317
11491,150.00000,7.56469,20.34753
11492,150.00000,8.76163,21.35188
11493,150.00000,9.95858,22.35624
11494,150.00000,0.32139,14.38302
11495,150.00000,1.32575,15.57997
11496,150.00000,2.33011,16.77691
11497,150.00000,3.33446,17.97386
11498,150.00000,4.33882,19.17080
11499,150.00000,5.34317,20.36774
11500,150.00000,6.34753,21.56469
11501,150.00000,7.35188,22.76163
11502,150.00000,8.35624,23.95858
11503,150.00000,0.25000,14.43301
11504,150.00000,1.03125,15.78618
11505,150.00000,1.81250,17.13934
11506,150.00000,2.59375,18.49251
11507,150.00000,3.37500,19.84567
11508,150.00000,4.15625,21.19884
11509,150.00000,4.93750,22.55200
11510,150.00000,5.71875,23.90517
11511,150.00000,6.50000,25.25833
11512,150.00000,0.17101,14.46985
11513,150.00000,0.70542,15.93812
11514,150.00000,1.23982,17.40639
11515,150.00000,1.77423,18.87466
11516,150.00000,2.30864,20.34293
11517,150.00000,2.84304,21.81119
11518,150.00000,3.37745,23.27946
11519,150.00000,3.91186,24.74773
11520,150.00000,4.44626,26.21600
11521,150.00000,0.08682,14.49240
11522,150.00000,0.35815,16.03117
11523,150.00000,0.62947,17.56993
11524,150.00000,0.90080,19.10869
11525,150.00000,1.17213,20.64745
11526,150.00000,1.44345,22.18621
11527,150.00000,1.71478,23.72498
11528,150.00000,1.98610,25.26374
11529,150.00000,2.25743,26.80250
11530,150.00000,0.00000,14.50000
11531,150.00000,0.00000,16.06250
11532,150.00000,0.00000,17.62500
11533,150.00000,0.00000,19.18750
11534,150.00000,0.00000,20.75000
11535,150.00000,0.00000,22.31250
11536,150.00000,0.00000,23.87500
11537,150.00000,0.00000,25.43750
11538,150.00000,0.00000,27.00000
11539,150.00000,-0.08682,14.49240
11540,150.00000,-0.35815,16.03117
11541,150.00000,-0.62947,17.56993
11542,150.00000,-0.90080,19.10869
11543,150.00000,-1.17213,20.64745
11544,150.00000,-1.44345,22.18621
11545,150.00000,-1.71478,23.72498
11546,150.00000,-1.98610,25.26374
11547,150.00000,-2.25743,26.80250
11548,150.00000,-0.17101,14.46985
11549,150.00000,-0.70542,15.93812
11550,150.00000,-1.23982,17.40639
11551,150.00000,-1.77423,18.87466
11552,150.00000,-2.30864,20.34293
11553,150.00000,-2.84304,21.81119
11554,150.00000,-3.37745,23.27946
11555,150.00000,-3.91186,24.74773
11556,150.00000,-4.44626,26.21600
11557,150.00000,-0.25000,14.43301
11558,150.00000,-1.03125,15.78618
11559,150.00000,-1.81250,17.13934
11560,150.00000,-2.59375,18.49251
11561,150.00000,-3.37500,19.84567
11562,150.00000,-4.15625,21.19884
11563,150.00000,-4.93750,22.55200
11564,150.00000,-5.71875,23.90517
11565,150.00000,-6.50000,25.25833
11566,150.00000,-0.32139,14.38302
11567,150.00000,-1.32575,15.57997
11568,150.00000,-2.33011,16.77691
11569,150.00000,-3.33446,17.97386
11570,150.00000,-4.33882,19.17080
11571,150.00000,-5.34317,20.36774
11572,150.00000,-6.34753,21.56469
11573,150.00000,-7.35188,22.76163
11574,150.00000,-8.35624,23.95858
11575,150.00000,-0.38302,14.32139
11576,150.00000,-1.57997,15.32575
11577,150.00000,-2.77691,16.33011
11578,150.00000,-3.97386,17.33446
11579,150.00000,-5.17080,18.33882
11580,150.00000,-6.36774,19.34317
11581,150.00000,-7.56469,20.34753
11582,150.00000,-8.76163,21.35188
11583,150.00000,-9.95858,22.35624
11584,150.00000,-0.43301,14.25000
11585,150.00000,-1.78618,15.03125
11586,150.00000,-3.13934,15.81250
11587,150.00000,-4.49251,16.59375
11588,150.00000,-5.84567,17.37500
11589,150.00000,-7.19884,18.15625
11590,150.00000,-8.55200,18.93750
11591,150.00000,-9.90517,19.71875
11592,150.00000,-11.25833,20.50000
11593,150.00000,-0.46985,14.17101
11594,150.00000,-1.93812,14.70542
11595,150.00000,-3.40639,15.23982
11596,150.00000,-4.87466,15.77423
11597,150.00000,-6.34293,16.30864
11598,150.00000,-7.81119,16.84304
11599,150.00000,-9.27946,17.37745
11600,150.00000,-10.74773,17.91186
11601,150.00000,-12.21600,18.44626
11602,150.00000,-0.49240,14.08682
11603,150.00000,-2.03117,14.35815
11604,150.00000,-3.56993,14.62947
11605,150.00000,-5.10869,14.90080
11606,150.00000,-6.64745,15.17213
11607,150.00000,-8.18621,15.44345
11608,150.00000,-9.72498,15.71478
11609,150.00000,-11.26374,15.98610
11610,150.00000,-12.80250,16.25743
11611,150.00000,-0.50000,14.00000
11612,150.00000,-2.06250,14.00000
11613,150.00000,-3.62500,14.00000
11614,150.00000,-5.18750,14.00000
11615,150.00000,-6.75000,14.00000
11616,150.00000,-8.31250,14.00000
11617,150.00000,-9.87500,14.00000
11618,150.00000,-11.43750,14.00000
11619,150.00000,-13.00000,14.00000
11620,150.00000,-0.49240,13.91318
11621,150.00000,-2.03117,13.64185
11622,150.00000,-3.56993,13.37053
11623,150.00000,-5.10869,13.09920
11624,150.00000,-6.64745,12.82787
11625,150.00000,-8.18621,12.55655
11626,150.00000,-9.72498,12.28522
11627,150.00000,-11.26374,12.01390
11628,150.00000,-12.80250,11.74257
11629,150.00000,-0.46985,13.82899
11630,150.00000,-1.93812,13.29458
11631,150.00000,-3.40639,12.76018
11632,150.00000,-4.87466,12.22577
11633,150.00000,-6.34293,11.69136
11634,150.00000,-7.81119,11.15696
11635,150.00000,-9.27946,10.62255
11636,150.00000,-10.74773,10.08814
11637,150.00000,-12.21600,9.55374
11638,150.00000,-0.43301,13.75000
11639,150.00000,-1.78618,12.96875
11640,150.00000,-3.13934,12.18750
11641,150.00000,-4.49251,11.40625
11642,150.00000,-5.84567,10.62500
11643,150.00000,-7.19884,9.84375
11644,150.00000,-8.55200,9.06250
11645,150.00000,-9.90517,8.28125
11646,150.00000,-11.25833,7.50000
11647,150.00000,-0.38302,13.67861
11648,150.00000,-1.57997,12.67425
11649,150.00000,-2.77691,11.66989
11650,150.00000,-3.97386,10.66554
11651,150.00000,-5.17080,9.66118
11652,150.00000,-6.36774,8.65683
11653,150.00000,-7.56469,7.65247
11654,150.00000,-8.76163,6.64812
11655,150.00000,-9.95858,5.64376
11656,150.00000,-0.32139,13.61698
11657,150.00000,-1.32575,12.42003
11658,150.00000,-2.33011,11.22309
11659,150.00000,-3.33446,10.02614
11660,150.00000,-4.33882,8.82920
11661,150.00000,-5.34317,7.63226
11662,150.00000,-6.34753,6.43531
11663,150.00000,-7.35188,5.23837
11664,150.00000,-8.35624,4.04142
11665,150.00000,-0.25000,13.56699
11666,150.00000,-1.03125,12.21382
11667,150.00000,-1.81250,10.86066
11668,150.00000,-2.59375,9.50749
11669,150.00000,-3.37500,8.15433
11670,150.00000,-4.15625,6.80116
11671,150.00000,-4.93750,5.44800
11672,150.00000,-5.71875,4.09483
11673,150.00000,-6.50000,2.74167
11674,150.00000,-0.17101,13.53015
11675,150.00000,-0.70542,12.06188
11676,150.00000,-1.23982,10.59361
11677,150.00000,-1.77423,9.12534
11678,150.00000,-2.30864,7.65707
11679,150.00000,-2.84304,6.18881
11680,150.00000,-3.37745,4.72054
11681,150.00000,-3.91186,3.25227
11682,150.00000,-4.44626,1.78400
11683,150.00000,-0.08682,13.50760
11684,150.00000,-0.35815,11.96883
11685,150.00000,-0.62947,10.43007
11686,150.00000,-0.90080,8.89131
11687,150.00000,-1.17213,7.35255
11688,150.00000,-1.44345,5.81379
11689,150.00000,-1.71478,4.27502
11690,150.00000,-1.98610,2.73626
11691,150.00000,-2.25743,1.19750
11692,150.00000,-0.00000,13.50000
11693,150.00000,-0.00000,11.93750
11694,150.00000,-0.00000,10.37500
11695,150.00000,-0.00000,8.81250
11696,150.00000,-0.00000,7.25000
11697,150.00000,-0.00000,5.68750
11698,150.00000,-0.00000,4.12500
11699,150.00000,-0.00000,2.56250
11700,150.00000,-0.00000,1.00000
11701,150.00000,0.08682,13.50760
11702,150.00000,0.35815,11.96883
11703,150.00000,0.62947,10.43007
11704,150.00000,0.90080,8.89131
11705,150.00000,1.17213,7.35255
11706,150.00000,1.44345,5.81379
11707,150.00000,1.71478,4.27502
11708,150.00000,1.98610,2.73626
11709,150.00000,2.25743,1.19750
11710,150.00000,0.17101,13.53015
11711,150.00000,0.70542,12.06188
11712,150.00000,1.23982,10.59361
11713,150.00000,1.77423,9.12534
11714,150.00000,2.30864,7.65707
11715,150.00000,2.84304,6.18881
11716,150.00000,3.37745,4.72054
11717,150.00000,3.91186,3.25227
11718,150.00000,4.44626,1.78400
11719,150.00000,0.25000,13.56699
11720,150.00000,1.03125,12.21382
11721,150.00000,1.81250,10.86066
11722,150.00000,2.59375,9.50749
11723,150.00000,3.37500,8.15433
11724,150.00000,4.15625,6.80116
11725,150.00000,4.93750,5.44800
11726,150.00000,5.71875,4.09483
11727,150.00000,6.50000,2.74167
11728,150.00000,0.32139,13.61698
11729,150.00000,1.32575,12.42003
11730,150.00000,2.33011,11.22309
11731,150.00000,3.33446,10.02614
11732,150.00000,4.33882,8.82920
11733,150.00000,5.34317,7.63226
11734,150.00000,6.34753,6.43531
11735,150.00000,7.35188,5.23837
11736,150.00000,8.35624,4.04142
11737,150.00000,0.38302,13.67861
11738,150.00000,1.57997,12.67425
11739,150.00000,2.77691,11.66989
11740,150.00000,3.97386,10.66554
11741,150.00000,5.17080,9.66118
11742,150.00000,6.36774,8.65683
11743,150.00000,7.56469,7.65247
11744,150.00000,8.76163,6.64812
11745,150.00000,9.95858,5.64376
11746,150.00000,0.43301,13.75000
11747,150.00000,1.78618,12.96875
11748,150.00000,3.13934,12.18750
11749,150.00000,4.49251,11.40625
11750,150.00000,5.84567,10.62500
11751,150.00000,7.19884,9.84375
11752,150.00000,8.55200,9.06250
11753,150.00000,9.90517,8.28125
11754,150.00000,11.25833,7.50000
11755,150.00000,0.46985,13.82899
11756,150.00000,1.93812,13.29458
11757,150.00000,3.40639,12.76018
11758,150.00000,4.87466,12.22577
11759,150.00000,6.34293,11.69136
11760,150.00000,7.81119,11.15696
11761,150.00000,9.27946,10.62255
11762,150.00000,10.74773,10.08814
11763,150.00000,12.21600,9.55374
11764,150.00000,0.49240,13.91318
11765,150.00000,2.03117,13.64185
11766,150.00000,3.56993,13.37053
11767,150.00000,5.10869,13.09920
11768,150.00000,6.64745,12.82787
11769,150.00000,8.18621,12.55655
11770,150.00000,9.72498,12.28522
11771,150.00000,11.26374,12.01390
11772,150.00000,12.80250,11.74257
11773,150.00000,0.50000,14.00000
11774,150.00000,2.06250,14.00000
11775,150.00000,3.62500,14.00000
11776,150.00000,5.18750,14.00000
11777,150.00000,6.75000,14.00000
11778,150.00000,8.31250,14.00000
11779,150.00000,9.87500,14.00000
11780,150.00000,11.43750,14.00000
11781,150.00000,13.00000,14.00000
11782,155.00000,0.50000,14.00000
11783,155.00000,2.06250,14.00000
11784,155.00000,3.62500,14.00000
11785,155.00000,5.18750,14.00000
11786,155.00000,6.75000,14.00000
11787,155.00000,8.31250,14.00000
11788,155.00000,9.87500,14.00000
11789,155.00000,11.43750,14.00000
11790,155.00000,13.00000,14.00000
11791,155.00000,0.49240,14.08682
11792,155.00000,2.03117,14.35815
11793,155.00000,3.56993,14.62947
11794,155.00000,5.10869,14.90080
11795,155.00000,6.64745,15.17213
11796,155.00000,8.18621,15.44345
11797,155.00000,9.72498,15.71478
11798,155.00000,11.26374,15.98610
11799,155.00000,12.80250,16.25743
11800,155.00000,0.46985,14.17101
11801,155.00000,1.93812,14.70542
11802,155.00000,3.40639,15.23982
11803,155.00000,4.87466,15.77423
11804,155.00000,6.34293,16.30864
11805,155.00000,7.81119,16.84304
11806,155.00000,9.27946,17.37745
11807,155.00000,10.74773,17.91186
11808,155.00000,12.21600,18.44626
11809,155.00000,0.43301,14.25000
11810,155.00000,1.78618,15.03125
11811,155.00000,3.13934,15.81250
11812,155.00000,4.49251,16.59375
11813,155.00000,5.84567,17.37500
11814,155.00000,7.19884,18.15625
11815,155.00000,8.55200,18.93750
11816,155.00000,9.90517,19.71875
11817,155.00000,11.25833,20.50000
11818,155.00000,0.38302,14.32139
11819,155.00000,1.57997,15.32575
11820,155.00000,2.77691,16.33011
11821,155.00000,3.97386,17.33446
11822,155.00000,5.17080,18.33882
11823,155.00000,6.36774,19.34317
11824,155.00000,7.56469,20.34753
11825,155.00000,8.76163,21.35188
11826,155.00000,9.95858,22.35624
11827,155.00000,0.32139,14.38302
11828,155.00000,1.32575,15.57997
11829,155.00000,2.33011,16.77691
11830,155.00000,3.33446,17.97386
11831,155.00000,4.33882,19.17080
11832,155.00000,5.34317,20.36774
11833,155.00000,6.34753,21.56469
11834,155.00000,7.35188,22.76163
11835,155.00000,8.35624,23.95858
11836,155.00000,0.25000,14.43301
11837,155.00000,1.03125,15.78618
11838,155.00000,1.81250,17.13934
11839,155.00000,2.59375,18.49251
11840,155.00000,3.37500,19.84567
11841,155.00000,4.15625,21.19884
11842,155.00000,4.93750,22.55200
11843,155.00000,5.71875,23.90517
11844,155.00000,6.50000,25.25833
11845,155.00000,0.17101,14.46985
11846,155.00000,0.70542,15.93812
11847,155.00000,1.23982,17.40639
11848,155.00000,1.77423,18.87466
11849,155.00000,2.30864,20.34293
11850,155.00000,2.84304,21.81119
11851,155.00000,3.37745,23.27946
11852,155.00000,3.91186,24.74773
11853,155.00000,4.44626,26.21600
11854,155.00000,0.08682,14.49240
11855,155.00000,0.35815,16.03117
11856,155.00000,0.62947,17.56993
11857,155.00000,0.90080,19.10869
11858,155.00000,1.17213,20.64745
11859,155.00000,1.44345,22.18621
11860,155.00000,1.71478,23.72498
11861,155.00000,1.98610,25.26374
11862,155.00000,2.25743,26.80250
11863,155.00000,0.00000,14.50000
11864,155.00000,0.00000,16.06250
11865,155.00000,0.00000,17.62500
11866,155.00000,0.00000,19.18750
11867,155.00000,0.00000,20.75000
11868,155.00000,0.00000,22.31250
11869,155.00000,0.00000,23.87500
11870,155.00000,0.00000,25.43750
11871,155.00000,0.00000,27.00000
11872,155.00000,-0.08682,14.49240
11873,155.00000,-0.35815,16.03117
11874,155.00000,-0.62947,17.56993
11875,155.00000,-0.90080,19.10869
11876,155.00000,-1.17213,20.64745
11877,155.00000,-1.44345,22.18621
11878,155.00000,-1.71478,23.72498
11879,155.00000,-1.98610,25.26374
11880,155.00000,-2.25743,26.80250
11881,155.00000,-0.17101,14.46985
11882,155.00000,-0.70542,15.93812
11883,155.00000,-1.23982,17.40639
11884,155.00000,-1.77423,18.87466
11885,155.00000,-2.30864,20.34293
11886,155.00000,-2.84304,21.81119
11887,155.00000,-3.37745,23.27946
11888,155.00000,-3.91186,24.74773
11889,155.00000,-4.44626,26.21600
11890,155.00000,-0.25000,14.43301
11891,155.00000,-1.03125,15.78618
11892,155.00000,-1.81250,17.13934
11893,155.00000,-2.59375,18.49251
11894,155.00000,-3.37500,19.84567
11895,155.00000,-4.15625,21.19884
11896,155.00000,-4.93750,22.55200
11897,155.00000,-5.71875,23.90517
11898,155.00000,-6.50000,25.25833
11899,155.00000,-0.32139,14.38302
11900,155.00000,-1.32575,15.57997
11901,155.00000,-2.33011,16.77691
11902,155.00000,-3.33446,17.97386
11903,155.00000,-4.33882,19.17080
11904,155.00000,-5.34317,20.36774
11905,155.00000,-6.34753,21.56469
11906,155.00000,-7.35188,22.76163
11907,155.00000,-8.35624,23.95858
11908,155.00000,-0.38302,14.32139
11909,155.00000,-1.57997,15.32575
11910,155.00000,-2.77691,16.33011
11911,155.00000,-3.97386,17.33446
11912,155.00000,-5.17080,18.33882
11913,155.00000,-6.36774,19.34317
11914,155.00000,-7.56469,20.34753
11915,155.00000,-8.76163,21.35188
11916,155.00000,-9.95858,22.35624
11917,155.00000,-0.43301,14.25000
11918,155.00000,-1.78618,15.03125
11919,155.00000,-3.13934,15.81250
11920,155.00000,-4.49251,16.59375
11921,155.00000,-5.84567,17.37500
11922,155.00000,-7.19884,18.15625
11923,155.00000,-8.55200,18.93750
11924,155.00000,-9.90517,19.71875
11925,155.00000,-11.25833,20.50000
11926,155.00000,-0.46985,14.17101
11927,155.00000,-1.93812,14.70542
11928,155.00000,-3.40639,15.23982
11929,155.00000,-4.87466,15.77423
11930,155.00000,-6.34293,16.30864
11931,155.00000,-7.81119,16.84304
11932,155.00000,-9.27946,17.37745
11933,155.00000,-10.74773,17.91186
11934,155.00000,-12.21600,18.44626
11935,155.00000,-0.49240,14.08682
11936,155.00000,-2.03117,14.35815
11937,155.00000,-3.56993,14.62947
11938,155.00000,-5.10869,14.90080
11939,155.00000,-6.64745,15.17213
11940,155.00000,-8.18621,15.44345
11941,155.00000,-9.72498,15.71478
11942,155.00000,-11.26374,15.98610
11943,155.00000,-12.80250,16.25743
11944,155.00000,-0.50000,14.00000
11945,155.00000,-2.06250,14.00000
11946,155.00000,-3.62500,14.00000
11947,155.00000,-5.18750,14.00000
11948,155.00000,-6.75000,14.00000
11949,155.00000,-8.31250,14.00000
11950,155.00000,-9.87500,14.00000
11951,155.00000,-11.43750,14.00000
11952,155.00000,-13.00000,14.00000
11953,155.00000,-0.49240,13.91318
11954,155.00000,-2.03117,13.64185
11955,155.00000,-3.56993,13.37053
11956,155.00000,-5.10869,13.09920
11957,155.00000,-6.64745,12.82787
11958,155.00000,-8.18621,12.55655
11959,155.00000,-9.72498,12.28522
11960,155.00000,-11.26374,12.01390
11961,155.00000,-12.80250,11.74257
11962,155.00000,-0.46985,13.82899
11963,155.00000,-1.93812,13.29458
11964,155.00000,-3.40639,12.76018
11965,155.00000,-4.87466,12.22577
11966,155.00000,-6.34293,11.69136
11967,155.00000,-7.81119,11.15696
11968,155.00000,-9.27946,10.62255
11969,155.00000,-10.74773,10.08814
11970,155.00000,-12.21600,9.55374
11971,155.00000,-0.43301,13.75000
11972,155.00000,-1.78618,12.96875
11973,155.00000,-3.13934,12.18750
11974,155.00000,-4.49251,11.40625
11975,155.00000,-5.84567,10.62500
11976,155.00000,-7.19884,9.84375
11977,155.00000,-8.55200,9.06250
11978,155.00000,-9.90517,8.28125
11979,155.00000,-11.25833,7.50000
11980,155.00000,-0.38302,13.67861
11981,155.00000,-1.57997,12.67425
11982,155.00000,-2.77691,11.66989
11983,155.00000,-3.97386,10.66554
11984,155.00000,-5.17080,9.66118
11985,155.00000,-6.36774,8.65683
11986,155.00000,-7.56469,7.65247
11987,155.00000,-8.76163,6.64812
11988,155.00000,-9.95858,5.64376
11989,155.00000,-0.32139,13.61698
11990,155.00000,-1.32575,12.42003
11991,155.00000,-2.33011,11.22309
11992,155.00000,-3.33446,10.02614
11993,155.00000,-4.33882,8.82920
11994,155.00000,-5.34317,7.63226
11995,155.00000,-6.34753,6.43531
11996,155.00000,-7.35188,5.23837
11997,155.00000,-8.35624,4.04142
11998,155.00000,-0.25000,13.56699
11999,155.00000,-1.03125,12.21382
12000,155.00000,-1.81250,10.86066
12001,155.00000,-2.59375,9.50749
12002,155.00000,-3.37500,8.15433
12003,155.00000,-4.15625,6.80116
12004,155.00000,-4.93750,5.44800
12005,155.00000,-5.71875,4.09483
12006,155.00000,-6.50000,2.74167
12007,155.00000,-0.17101,13.53015
12008,155.00000,-0.70542,12.06188
12009,155.00000,-1.23982,10.59361
12010,155.00000,-1.77423,9.12534
12011,155.00000,-2.30864,7.65707
12012,155.00000,-2.84304,6.18881
12013,155.00000,-3.37745,4.72054
12014,155.00000,-3.91186,3.25227
12015,155.00000,-4.44626,1.78400
12016,155.00000,-0.08682,13.50760
12017,155.00000,-0.35815,11.96883
12018,155.00000,-0.62947,10.43007
12019,155.00000,-0.90080,8.89131
12020,155.00000,-1.17213,7.35255
12021,155.00000,-1.44345,5.81379
12022,155.00000,-1.71478,4.27502
12023,155.00000,-1.98610,2.73626
12024,155.00000,-2.25743,1.19750
12025,155.00000,-0.00000,13.50000
12026,155.00000,-0.00000,11.93750
12027,155.00000,-0.00000,10.37500
12028,155.00000,-0.00000,8.81250
12029,155.00000,-0.00000,7.25000
12030,155.00000,-0.00000,5.68750
12031,155.00000,-0.00000,4.12500
12032,155.00000,-0.00000,2.56250
12033,155.00000,-0.00000,1.00000
12034,155.00000,0.08682,13.50760
12035,155.00000,0.35815,11.96883
12036,155.00000,0.62947,10.43007
12037,155.00000,0.90080,8.89131
12038,155.00000,1.17213,7.35255
12039,155.00000,1.44345,5.81379
12040,155.00000,1.71478,4.27502
12041,155.00000,1.98610,2.73626
12042,155.00000,2.25743,1.19750
12043,155.00000,0.17101,13.53015
12044,155.00000,0.70542,12.06188
12045,155.00000,1.23982,10.59361
12046,155.00000,1.77423,9.12534
12047,155.00000,2.30864,7.65707
12048,155.00000,2.84304,6.18881
12049,155.00000,3.37745,4.72054
12050,155.00000,3.91186,3.25227
12051,155.00000,4.44626,1.78400
12052,155.00000,0.25000,13.56699
12053,155.00000,1.03125,12.21382
12054,155.00000,1.81250,10.86066
12055,155.00000,2.59375,9.50749
12056,155.00000,3.37500,8.15433
12057,155.00000,4.15625,6.80116
12058,155.00000,4.93750,5.44800
12059,155.00000,5.71875,4.09483
12060,155.00000,6.50000,2.74167
12061,155.00000,0.32139,13.61698
12062,155.00000,1.32575,12.42003
12063,155.00000,2.33011,11.22309
12064,155.00000,3.33446,10.02614
12065,155.00000,4.33882,8.82920
12066,155.00000,5.34317,7.63226
12067,155.00000,6.34753,6.43531
12068,155.00000,7.35188,5.23837
12069,155.00000,8.35624,4.04142
12070,155.00000,0.38302,13.67861
12071,155.00000,1.57997,12.67425
12072,155.00000,2.77691,11.66989
12073,155.00000,3.97386,10.66554
12074,155.00000,5.17080,9.66118
12075,155.00000,6.36774,8.65683
12076,155.00000,7.56469,7.65247
12077,155.00000,8.76163,6.64812
12078,155.00000,9.95858,5.64376
12079,155.00000,0.43301,13.75000
12080,155.00000,1.78618,12.96875
12081,155.00000,3.13934,12.18750
12082,155.00000,4.49251,11.40625
12083,155.00000,5.84567,10.62500
12084,155.00000,7.19884,9.84375
12085,155.00000,8.55200,9.06250
12086,155.00000,9.90517,8.28125
12087,155.00000,11.25833,7.50000
12088,155.00000,0.46985,13.82899
12089,155.00000,1.93812,13.29458
12090,155.00000,3.40639,12.76018
12091,155.00000,4.87466,12.22577
12092,155.00000,6.34293,11.69136
12093,155.00000,7.81119,11.15696
12094,155.00000,9.27946,10.62255
12095,155.00000,10.74773,10.08814
12096,155.00000,12.21600,9.55374
12097,155.00000,0.49240,13.91318
12098,155.00000,2.03117,13.64185
12099,155.00000,3.56993,13.37053
12100,155.00000,5.10869,13.09920
12101,155.00000,6.64745,12.82787
12102,155.00000,8.18621,12.55655
12103,155.00000,9.72498,12.28522
12104,155.00000,11.26374,12.01390
12105,155.00000,12.80250,11.74257
12106,155.00000,0.50000,14.00000
12107,155.00000,2.06250,14.00000
12108,155.00000,3.62500,14.00000
12109,155.00000,5.18750,14.00000
12110,155.00000,6.75000,14.00000
12111,155.00000,8.31250,14.00000
12112,155.00000,9.87500,14.00000
12113,155.00000,11.43750,14.00000
12114,155.00000,13.00000,14.00000
12115,160.00000,0.50000,14.00000
12116,160.00000,2.06250,14.00000
12117,160.00000,3.62500,14.00000
12118,160.00000,5.18750,14.00000
12119,160.00000,6.75000,14.00000
12120,160.00000,8.31250,14.00000
12121,160.00000,9.87500,14.00000
12122,160.00000,11.43750,14.00000
12123,160.00000,13.00000,14.00000
12124,160.00000,0.49240,14.08682
12125,160.00000,2.03117,14.35815
12126,160.00000,3.56993,14.62947
12127,160.00000,5.10869,14.90080
12128,160.00000,6.64745,15.17213
12129,160.00000,8.18621,15.44345
12130,160.00000,9.72498,15.71478
12131,160.00000,11.26374,15.98610
12132,160.00000,12.80250,16.25743
12133,160.00000,0.46985,14.17101
12134,160.00000,1.93812,14.70542
12135,160.00000,3.40639,15.23982
12136,160.00000,4.87466,15.77423
12137,160.00000,6.34293,16.30864
12138,160.00000,7.81119,16.84304
12139,160.00000,9.27946,17.37745
12140,160.00000,10.74773,17.91186
12141,160.00000,12.21600,18.44626
12142,160.00000,0.43301,14.25000
12143,160.00000,1.78618,15.03125
12144,160.00000,3.13934,15.81250
12145,160.00000,4.49251,16.59375
12146,160.00000,5.84567,17.37500
12147,160.00000,7.19884,18.15625
12148,160.00000,8.55200,18.93750
12149,160.00000,9.90517,19.71875
12150,160.00000,11.25833,20.50000
12151,160.00000,0.38302,14.32139
12152,160.00000,1.57997,15.32575
12153,160.00000,2.77691,16.33011
12154,160.00000,3.97386,17.33446
12155,160.00000,5.17080,18.33882
12156,160.00000,6.36774,19.34317
12157,160.00000,7.56469,20.34753
12158,160.00000,8.76163,21.35188
12159,160.00000,9.95858,22.35624
12160,160.00000,0.32139,14.38302
12161,160.00000,1.32575,15.57997
12162,160.00000,2.33011,16.77691
12163,160.00000,3.33446,17.97386
12164,160.00000,4.33882,19.17080
12165,160.00000,5.34317,20.36774
12166,160.00000,6.34753,21.56469
12167,160.00000,7.35188,22.76163
12168,160.00000,8.35624,23.95858
12169,160.00000,0.25000,14.43301
12170,160.00000,1.03125,15.78618
12171,160.00000,1.81250,17.13934
12172,160.00000,2.59375,18.49251
12173,160.00000,3.37500,19.84567
12174,160.00000,4.15625,21.19884
12175,160.00000,4.93750,22.55200
12176,160.00000,5.71875,23.90517
12177,160.00000,6.50000,25.25833
12178,160.00000,0.17101,14.46985
12179,160.00000,0.70542,15.93812
12180,160.00000,1.23982,17.40639
12181,160.00000,1.77423,18.87466
12182,160.00000,2.30864,20.34293
12183,160.00000,2.84304,21.81119
12184,160.00000,3.37745,23.27946
12185,160.00000,3.91186,24.74773
12186,160.00000,4.44626,26.21600
12187,160.00000,0.08682,14.49240
12188,160.00000,0.35815,16.03117
12189,160.00000,0.62947,17.56993
12190,160.00000,0.90080,19.10869
12191,160.00000,1.17213,20.64745
12192,160.00000,1.44345,22.18621
12193,160.00000,1.71478,23.72498
12194,160.00000,1.98610,25.26374
12195,160.00000,2.25743,26.80250
12196,160.00000,0.00000,14.50000
12197,160.00000,0.00000,16.06250
12198,160.00000,0.00000,17.62500
12199,160.00000,0.00000,19.18750
12200,160.00000,0.00000,20.75000
12201,160.00000,0.00000,22.31250
12202,160.00000,0.00000,23.87500
12203,160.00000,0.00000,25.43750
12204,160.00000,0.00000,27.00000
12205,160.00000,-0.08682,14.49240
12206,160.00000,-0.35815,16.03117
12207,160.00000,-0.62947,17.56993
12208,160.00000,-0.90080,19.10869
12209,160.00000,-1.17213,20.64745
12210,160.00000,-1.44345,22.18621
12211,160.00000,-1.71478,23.72498
12212,160.00000,-1.98610,25.26374
12213,160.00000,-2.25743,26.80250
12214,160.00000,-0.17101,14.46985
12215,160.00000,-0.70542,15.93812
12216,160.00000,-1.23982,17.40639
12217,160.00000,-1.77423,18.87466
12218,160.00000,-2.30864,20.34293
12219,160.00000,-2.84304,21.81119
12220,160.00000,-3.37745,23.27946
12221,160.00000,-3.91186,24.74773
12222,160.00000,-4.44626,26.21600
12223,160.00000,-0.25000,14.43301
12224,160.00000,-1.03125,15.78618
12225,160.00000,-1.81250,17.13934
12226,160.00000,-2.59375,18.49251
12227,160.00000,-3.37500,19.84567
12228,160.00000,-4.15625,21.19884
12229,160.00000,-4.93750,22.55200
12230,160.00000,-5.71875,23.90517
12231,160.00000,-6.50000,25.25833
12232,160.00000,-0.32139,14.38302
12233,160.00000,-1.32575,15.57997
12234,160.00000,-2.33011,16.77691
12235,160.00000,-3.33446,17.97386
12236,160.00000,-4.33882,19.17080
12237,160.00000,-5.34317,20.36774
12238,160.00000,-6.34753,21.56469
12239,160.00000,-7.35188,22.76163
12240,160.00000,-8.35624,23.95858
12241,160.00000,-0.38302,14.32139
12242,160.00000,-1.57997,15.32575
12243,160.00000,-2.77691,16.33011
12244,160.00000,-3.97386,17.33446
12245,160.00000,-5.17080,18.33882
12246,160.00000,-6.36774,19.34317
12247,160.00000,-7.56469,20.34753
12248,160.00000,-8.76163,21.35188
12249,160.00000,-9.95858,22.35624
12250,160.00000,-0.43301,14.25000
12251,160.00000,-1.78618,15.03125
12252,160.00000,-3.13934,15.81250
12253,160.00000,-4.49251,16.59375
12254,160.00000,-5.84567,17.37500
12255,160.00000,-7.19884,18.15625
12256,160.00000,-8.55200,18.93750
12257,160.00000,-9.90517,19.71875
12258,160.00000,-11.25833,20.50000
12259,160.00000,-0.46985,14.17101
12260,160.00000,-1.93812,14.70542
12261,160.00000,-3.40639,15.23982
12262,160.00000,-4.87466,15.77423
12263,160.00000,-6.34293,16.30864
12264,160.00000,-7.81119,16.84304
12265,160.00000,-9.27946,17.37745
12266,160.00000,-10.74773,17.91186
12267,160.00000,-12.21600,18.44626
12268,160.00000,-0.49240,14.08682
12269,160.00000,-2.03117,14.35815
12270,160.00000,-3.56993,14.62947
12271,160.00000,-5.10869,14.90080
12272,160.00000,-6.64745,15.17213
12273,160.00000,-8.18621,15.44345
12274,160.00000,-9.72498,15.71478
12275,160.00000,-11.26374,15.98610
12276,160.00000,-12.80250,16.25743
12277,160.00000,-0.50000,14.00000
12278,160.00000,-2.06250,14.00000
12279,160.00000,-3.62500,14.00000
12280,160.00000,-5.18750,14.00000
12281,160.00000,-6.75000,14.00000
12282,160.00000,-8.31250,14.00000
12283,160.00000,-9.87500,14.00000
12284,160.00000,-11.43750,14.00000
12285,160.00000,-13.00000,14.00000
12286,160.00000,-0.49240,13.91318
12287,160.00000,-2.03117,13.64185
12288,160.00000,-3.56993,13.37053
12289,160.00000,-5.10869,13.09920
12290,160.00000,-6.64745,12.82787
12291,160.00000,-8.18621,12.55655
12292,160.00000,-9.72498,12.28522
12293,160.00000,-11.26374,12.01390
12294,160.00000,-12.80250,11.74257
12295,160.00000,-0.46985,13.82899
12296,160.00000,-1.93812,13.29458
12297,160.00000,-3.40639,12.76018
12298,160.00000,-4.87466,12.22577
12299,160.00000,-6.34293,11.69136
12300,160.00000,-7.81119,11.15696
12301,160.00000,-9.27946,10.62255
12302,160.00000,-10.74773,10.08814
12303,160.00000,-12.21600,9.55374
12304,160.00000,-0.43301,13.75000
12305,160.00000,-1.78618,12.96875
12306,160.00000,-3.13934,12.18750
12307,160.00000,-4.49251,11.40625
12308,160.00000,-5.84567,10.62500
12309,160.00000,-7.19884,9.84375
12310,160.00000,-8.55200,9.06250
12311,160.00000,-9.90517,8.28125
12312,160.00000,-11.25833,7.50000
12313,160.00000,-0.38302,13.67861
12314,160.00000,-1.57997,12.67425
12315,160.00000,-2.77691,11.66989
12316,160.00000,-3.97386,10.66554
12317,160.00000,-5.17080,9.66118
12318,160.00000,-6.36774,8.65683
12319,160.00000,-7.56469,7.65247
12320,160.00000,-8.76163,6.64812
12321,160.00000,-9.95858,5.64376
12322,160.00000,-0.32139,13.61698
12323,160.00000,-1.32575,12.42003
12324,160.00000,-2.33011,11.22309
12325,160.00000,-3.33446,10.02614
12326,160.00000,-4.33882,8.82920
12327,160.00000,-5.34317,7.63226
12328,160.00000,-6.34753,6.43531
12329,160.00000,-7.35188,5.23837
12330,160.00000,-8.35624,4.04142
12331,160.00000,-0.25000,13.56699
12332,160.00000,-1.03125,12.21382
12333,160.00000,-1.81250,10.86066
12334,160.00000,-2.59375,9.50749
12335,160.00000,-3.37500,8.15433
12336,160.00000,-4.15625,6.80116
12337,160.00000,-4.93750,5.44800
12338,160.00000,-5.71875,4.09483
12339,160.00000,-6.50000,2.74167
12340,160.00000,-0.17101,13.53015
12341,160.00000,-0.70542,12.06188
12342,160.00000,-1.23982,10.59361
12343,160.00000,-1.77423,9.12534
12344,160.00000,-2.30864,7.65707
12345,160.00000,-2.84304,6.18881
12346,160.00000,-3.37745,4.72054
12347,160.00000,-3.91186,3.25227
12348,160.00000,-4.44626,1.78400
12349,160.00000,-0.08682,13.50760
12350,160.00000,-0.35815,11.96883
12351,160.00000,-0.62947,10.43007
12352,160.00000,-0.90080,8.89131
12353,160.00000,-1.17213,7.35255
12354,160.00000,-1.44345,5.81379
12355,160.00000,-1.71478,4.27502
12356,160.00000,-1.98610,2.73626
12357,160.00000,-2.25743,1.19750
12358,160.00000,-0.00000,13.50000
12359,160.00000,-0.00000,11.93750
12360,160.00000,-0.00000,10.37500
12361,160.00000,-0.00000,8.81250
12362,160.00000,-0.00000,7.25000
12363,160.00000,-0.00000,5.68750
12364,160.00000,-0.00000,4.12500
12365,160.00000,-0.00000,2.56250
12366,160.00000,-0.00000,1.00000
12367,160.00000,0.08682,13.50760
12368,160.00000,0.35815,11.96883
12369,160.00000,0.62947,10.43007
12370,160.00000,0.90080,8.89131
12371,160.00000,1.17213,7.35255
12372,160.00000,1.44345,5.81379
12373,160.00000,1.71478,4.27502
12374,160.00000,1.98610,2.73626
12375,160.00000,2.25743,1.19750
12376,160.00000,0.17101,13.53015
12377,160.00000,0.70542,12.06188
12378,160.00000,1.23982,10.59361
12379,160.00000,1.77423,9.12534
12380,160.00000,2.30864,7.65707
12381,160.00000,2.84304,6.18881
12382,160.00000,3.37745,4.72054
12383,160.00000,3.91186,3.25227
12384,160.00000,4.44626,1.78400
12385,160.00000,0.25000,13.56699
12386,160.00000,1.03125,12.21382
12387,160.00000,1.81250,10.86066
12388,160.00000,2.59375,9.50749
12389,160.00000,3.37500,8.15433
12390,160.00000,4.15625,6.80116
12391,160.00000,4.93750,5.44800
12392,160.00000,5.71875,4.09483
12393,160.00000,6.50000,2.74167
12394,160.00000,0.32139,13.61698
12395,160.00000,1.32575,12.42003
12396,160.00000,2.33011,11.22309
12397,160.00000,3.33446,10.02614
12398,160.00000,4.33882,8.82920
12399,160.00000,5.34317,7.63226
12400,160.00000,6.34753,6.43531
12401,160.00000,7.35188,5.23837
12402,160.00000,8.35624,4.04142
12403,160.00000,0.38302,13.67861
12404,160.00000,1.57997,12.67425
12405,160.00000,2.77691,11.66989
12406,160.00000,3.97386,10.66554
12407,160.00000,5.17080,9.66118
12408,160.00000,6.36774,8.65683
12409,160.00000,7.56469,7.65247
12410,160.00000,8.76163,6.64812
12411,160.00000,9.95858,5.64376
12412,160.00000,0.43301,13.75000
12413,160.00000,1.78618,12.96875
12414,160.00000,3.13934,12.18750
12415,160.00000,4.49251,11.40625
12416,160.00000,5.84567,10.62500
12417,160.00000,7.19884,9.84375
12418,160.00000,8.55200,9.06250
12419,160.00000,9.90517,8.28125
12420,160.00000,11.25833,7.50000
12421,160.00000,0.46985,13.82899
12422,160.00000,1.93812,13.29458
12423,160.00000,3.40639,12.76018
12424,160.00000,4.87466,12.22577
12425,160.00000,6.34293,11.69136
12426,160.00000,7.81119,11.15696
12427,160.00000,9.27946,10.62255
12428,160.00000,10.74773,10.08814
12429,160.00000,12.21600,9.55374
12430,160.00000,0.49240,13.91318
12431,160.00000,2.03117,13.64185
12432,160.00000,3.56993,13.37053
12433,160.00000,5.10869,13.09920
12434,160.00000,6.64745,12.82787
12435,160.00000,8.18621,12.55655
12436,160.00000,9.72498,12.28522
12437,160.00000,11.26374,12.01390
12438,160.00000,12.80250,11.74257
12439,160.00000,0.50000,14.00000
12440,160.00000,2.06250,14.00000
12441,160.00000,3.62500,14.00000
12442,160.00000,5.18750,14.00000
12443,160.00000,6.75000,14.00000
12444,160.00000,8.31250,14.00000
12445,160.00000,9.87500,14.00000
12446,160.00000,11.43750,14.00000
12447,160.00000,13.00000,14.00000
*Element, type=C3D8R, ELSET=WPALL
200000,1459,1460,1469,1468,1792,1793,1802,1801
200001,1460,1461,1470,1469,1793,1794,1803,1802
200002,1461,1462,1471,1470,1794,1795,1804,1803
200003,1462,1463,1472,1471,1795,1796,1805,1804
200004,1463,1464,1473,1472,1796,1797,1806,1805
200005,1464,1465,1474,1473,1797,1798,1807,1806
200006,1465,1466,1475,1474,1798,1799,1808,1807
200007,1466,1467,1476,1475,1799,1800,1809,1808
200008,1468,1469,1478,1477,1801,1802,1811,1810
200009,1469,1470,1479,1478,1802,1803,1812,1811
200010,1470,1471,1480,1479,1803,1804,1813,1812
200011,1471,1472,1481,1480,1804,1805,1814,1813
200012,1472,1473,1482,1481,1805,1806,1815,1814
200013,1473,1474,1483,1482,1806,1807,1816,1815
200014,1474,1475,1484,1483,1807,1808,1817,1816
200015,1475,1476,1485,1484,1808,1809,1818,1817
200016,1477,1478,1487,1486,1810,1811,1820,1819
200017,1478,1479,1488,1487,1811,1812,1821,1820
200018,1479,1480,1489,1488,1812,1813,1822,1821
200019,1480,1481,1490,1489,1813,1814,1823,1822
200020,1481,1482,1491,1490,1814,1815,1824,1823
200021,1482,1483,1492,1491,1815,1816,1825,1824
200022,1483,1484,1493,1492,1816,1817,1826,1825
200023,1484,1485,1494,1493,1817,1818,1827,1826
200024,1486,1487,1496,1495,1819,1820,1829,1828
200025,1487,1488,1497,1496,1820,1821,1830,1829
200026,1488,1489,1498,1497,1821,1822,1831,1830
200027,1489,1490,1499,1498,1822,1823,1832,1831
200028,1490,1491,1500,1499,1823,1824,1833,1832
200029,1491,1492,1501,1500,1824,1825,1834,1833
200030,1492,1493,1502,1501,1825,1826,1835,1834
200031,1493,1494,1503,1502,1826,1827,1836,1835
200032,1495,1496,1505,1504,1828,1829,1838,1837
200033,1496,1497,1506,1505,1829,1830,1839,1838
200034,1497,1498,1507,1506,1830,1831,1840,1839
200035,1498,1499,1508,1507,1831,1832,1841,1840
200036,1499,1500,1509,1508,1832,1833,1842,1841
200037,1500,1501,1510,1509,1833,1834,1843,1842
200038,1501,1502,1511,1510,1834,1835,1844,1843
200039,1502,1503,1512,1511,1835,1836,1845,1844
200040,1504,1505,1514,1513,1837,1838,1847,1846
200041,1505,1506,1515,1514,1838,1839,1848,1847
200042,1506,1507,1516,1515,1839,1840,1849,1848
200043,1507,1508,1517,1516,1840,1841,1850,1849
200044,1508,1509,1518,1517,1841,1842,1851,1850
200045,1509,1510,1519,1518,1842,1843,1852,1851
200046,1510,1511,1520,1519,1843,1844,1853,1852
200047,1511,1512,1521,1520,1844,1845,1854,1853
200048,1513,1514,1523,1522,1846,1847,1856,1855
200049,1514,1515,1524,1523,1847,1848,1857,1856
200050,1515,1516,1525,1524,1848,1849,1858,1857
200051,1516,1517,1526,1525,1849,1850,1859,1858
200052,1517,1518,1527,1526,1850,1851,1860,1859
200053,1518,1519,1528,1527,1851,1852,1861,1860
200054,1519,1520,1529,1528,1852,1853,1862,1861
200055,1520,1521,1530,1529,1853,1854,1863,1862
200056,1522,1523,1532,1531,1855,1856,1865,1864
200057,1523,1524,1533,1532,1856,1857,1866,1865
200058,1524,1525,1534,1533,1857,1858,1867,1866
200059,1525,1526,1535,1534,1858,1859,1868,1867
200060,1526,1527,1536,1535,1859,1860,1869,1868
200061,1527,1528,1537,1536,1860,1861,1870,1869
200062,1528,1529,1538,1537,1861,1862,1871,1870
200063,1529,1530,1539,1538,1862,1863,1872,1871
200064,1531,1532,1541,1540,1864,1865,1874,1873
200065,1532,1533,1542,1541,1865,1866,1875,1874
200066,1533,1534,1543,1542,1866,1867,1876,1875
200067,1534,1535,1544,1543,1867,1868,1877,1876
200068,1535,1536,1545,1544,1868,1869,1878,1877
200069,1536,1537,1546,1545,1869,1870,1879,1878
200070,1537,1538,1547,1546,1870,1871,1880,1879
200071,1538,1539,1548,1547,1871,1872,1881,1880
200072,1540,1541,1550,1549,1873,1874,1883,1882
200073,1541,1542,1551,1550,1874,1875,1884,1883
200074,1542,1543,1552,1551,1875,1876,1885,1884
200075,1543,1544,1553,1552,1876,1877,1886,1885
200076,1544,1545,1554,1553,1877,1878,1887,1886
200077,1545,1546,1555,1554,1878,1879,1888,1887
200078,1546,1547,1556,1555,1879,1880,1889,1888
200079,1547,1548,1557,1556,1880,1881,1890,1889
200080,1549,1550,1559,1558,1882,1883,1892,1891
200081,1550,1551,1560,1559,1883,1884,1893,1892
200082,1551,1552,1561,1560,1884,1885,1894,1893
200083,1552,1553,1562,1561,1885,1886,1895,1894
200084,1553,1554,1563,1562,1886,1887,1896,1895
200085,1554,1555,1564,1563,1887,1888,1897,1896
200086,1555,1556,1565,1564,1888,1889,1898,1897
200087,1556,1557,1566,1565,1889,1890,1899,1898
200088,1558,1559,1568,1567,1891,1892,1901,1900
200089,1559,1560,1569,1568,1892,1893,1902,1901
200090,1560,1561,1570,1569,1893,1894,1903,1902
200091,1561,1562,1571,1570,1894,1895,1904,1903
200092,1562,1563,1572,1571,1895,1896,1905,1904
200093,1563,1564,1573,1572,1896,1897,1906,1905
200094,1564,1565,1574,1573,1897,1898,1907,1906
200095,1565,1566,1575,1574,1898,1899,1908,1907
200096,1567,1568,1577,1576,1900,1901,1910,1909
200097,1568,1569,1578,1577,1901,1902,1911,1910
200098,1569,1570,1579,1578,1902,1903,1912,1911
200099,1570,1571,1580,1579,1903,1904,1913,1912
200100,1571,1572,1581,1580,1904,1905,1914,1913
200101,1572,1573,1582,1581,1905,1906,1915,1914
200102,1573,1574,1583,1582,1906,1907,1916,1915
200103,1574,1575,1584,1583,1907,1908,1917,1916
200104,1576,1577,1586,1585,1909,1910,1919,1918
200105,1577,1578,1587,1586,1910,1911,1920,1919
200106,1578,1579,1588,1587,1911,1912,1921,1920
200107,1579,1580,1589,1588,1912,1913,1922,1921
200108,1580,1581,1590,1589,1913,1914,1923,1922
200109,1581,1582,1591,1590,1914,1915,1924,1923
200110,1582,1583,1592,1591,1915,1916,1925,1924
200111,1583,1584,1593,1592,1916,1917,1926,1925
200112,1585,1586,1595,1594,1918,1919,1928,1927
200113,1586,1587,1596,1595,1919,1920,1929,1928
200114,1587,1588,1597,1596,1920,1921,1930,1929
200115,1588,1589,1598,1597,1921,1922,1931,1930
200116,1589,1590,1599,1598,1922,1923,1932,1931
200117,1590,1591,1600,1599,1923,1924,1933,1932
200118,1591,1592,1601,1600,1924,1925,1934,1933
200119,1592,1593,1602,1601,1925,1926,1935,1934
200120,1594,1595,1604,1603,1927,1928,1937,1936
200121,1595,1596,1605,1604,1928,1929,1938,1937
200122,1596,1597,1606,1605,1929,1930,1939,1938
200123,1597,1598,1607,1606,1930,1931,1940,1939
200124,1598,1599,1608,1607,1931,1932,1941,1940
200125,1599,1600,1609,1608,1932,1933,1942,1941
200126,1600,1601,1610,1609,1933,1934,1943,1942
200127,1601,1602,1611,1610,1934,1935,1944,1943
200128,1603,1604,1613,1612,1936,1937,1946,1945
200129,1604,1605,1614,1613,1937,1938,1947,1946
200130,1605,1606,1615,1614,1938,1939,1948,1947
200131,1606,1607,1616,1615,1939,1940,1949,1948
200132,1607,1608,1617,1616,1940,1941,1950,1949
200133,1608,1609,1618,1617,1941,1942,1951,1950
200134,1609,1610,1619,1618,1942,1943,1952,1951
200135,1610,1611,1620,1619,1943,1944,1953,1952
200136,1612,1613,1622,1621,1945,1946,1955,1954
200137,1613,1614,1623,1622,1946,1947,1956,1955
200138,1614,1615,1624,1623,1947,1948,1957,1956
200139,1615,1616,1625,1624,1948,1949,1958,1957
200140,1616,1617,1626,1625,1949,1950,1959,1958
200141,1617,1618,1627,1626,1950,1951,1960,1959
200142,1618,1619,1628,1627,1951,1952,1961,1960
200143,1619,1620,1629,1628,1952,1953,1962,1961
200144,1621,1622,1631,1630,1954,1955,1964,1963
200145,1622,1623,1632,1631,1955,1956,1965,1964
200146,1623,1624,1633,1632,1956,1957,1966,1965
200147,1624,1625,1634,1633,1957,1958,1967,1966
200148,1625,1626,1635,1634,1958,1959,1968,1967
200149,1626,1627,1636,1635,1959,1960,1969,1968
200150,1627,1628,1637,1636,1960,1961,1970,1969
200151,1628,1629,1638,1637,1961,1962,1971,1970
200152,1630,1631,1640,1639,1963,1964,1973,1972
200153,1631,1632,1641,1640,1964,1965,1974,1973
200154,1632,1633,1642,1641,1965,1966,1975,1974
200155,1633,1634,1643,1642,1966,1967,1976,1975
200156,1634,1635,1644,1643,1967,1968,1977,1976
200157,1635,1636,1645,1644,1968,1969,1978,1977
200158,1636,1637,1646,1645,1969,1970,1979,1978
200159,1637,1638,1647,1646,1970,1971,1980,1979
200160,1639,1640,1649,1648,1972,1973,1982,1981
200161,1640,1641,1650,1649,1973,1974,1983,1982
200162,1641,1642,1651,1650,1974,1975,1984,1983
200163,1642,1643,1652,1651,1975,1976,1985,1984
200164,1643,1644,1653,1652,1976,1977,1986,1985
200165,1644,1645,1654,1653,1977,1978,1987,1986
200166,1645,1646,1655,1654,1978,1979,1988,1987
200167,1646,1647,1656,1655,1979,1980,1989,1988
200168,1648,1649,1658,1657,1981,1982,1991,1990
200169,1649,1650,1659,1658,1982,1983,1992,1991
200170,1650,1651,1660,1659,1983,1984,1993,1992
200171,1651,1652,1661,1660,1984,1985,1994,1993
200172,1652,1653,1662,1661,1985,1986,1995,1994
200173,1653,1654,1663,1662,1986,1987,1996,1995
200174,1654,1655,1664,1663,1987,1988,1997,1996
200175,1655,1656,1665,1664,1988,1989,1998,1997
200176,1657,1658,1667,1666,1990,1991,2000,1999
200177,1658,1659,1668,1667,1991,1992,2001,2000
200178,1659,1660,1669,1668,1992,1993,2002,2001
200179,1660,1661,1670,1669,1993,1994,2003,2002
200180,1661,1662,1671,1670,1994,1995,2004,2003
200181,1662,1663,1672,1671,1995,1996,2005,2004
200182,1663,1664,1673,1672,1996,1997,2006,2005
200183,1664,1665,1674,1673,1997,1998,2007,2006
200184,1666,1667,1676,1675,1999,2000,2009,2008
200185,1667,1668,1677,1676,2000,2001,2010,2009
200186,1668,1669,1678,1677,2001,2002,2011,2010
200187,1669,1670,1679,1678,2002,2003,2012,2011
200188,1670,1671,1680,1679,2003,2004,2013,2012
200189,1671,1672,1681,1680,2004,2005,2014,2013
200190,1672,1673,1682,1681,2005,2006,2015,2014
200191,1673,1674,1683,1682,2006,2007,2016,2015
200192,1675,1676,1685,1684,2008,2009,2018,2017
200193,1676,1677,1686,1685,2009,2010,2019,2018
200194,1677,1678,1687,1686,2010,2011,2020,2019
200195,1678,1679,1688,1687,2011,2012,2021,2020
200196,1679,1680,1689,1688,2012,2013,2022,2021
200197,1680,1681,1690,1689,2013,2014,2023,2022
200198,1681,1682,1691,1690,2014,2015,2024,2023
200199,1682,1683,1692,1691,2015,2016,2025,2024
200200,1684,1685,1694,1693,2017,2018,2027,2026
200201,1685,1686,1695,1694,2018,2019,2028,2027
200202,1686,1687,1696,1695,2019,2020,2029,2028
200203,1687,1688,1697,1696,2020,2021,2030,2029
200204,1688,1689,1698,1697,2021,2022,2031,2030
200205,1689,1690,1699,1698,2022,2023,2032,2031
200206,1690,1691,1700,1699,2023,2024,2033,2032
200207,1691,1692,1701,1700,2024,2025,2034,2033
200208,1693,1694,1703,1702,2026,2027,2036,2035
200209,1694,1695,1704,1703,2027,2028,2037,2036
200210,1695,1696,1705,1704,2028,2029,2038,2037
200211,1696,1697,1706,1705,2029,2030,2039,2038
200212,1697,1698,1707,1706,2030,2031,2040,2039
200213,1698,1699,1708,1707,2031,2032,2041,2040
200214,1699,1700,1709,1708,2032,2033,2042,2041
200215,1700,1701,1710,1709,2033,2034,2043,2042
200216,1702,1703,1712,1711,2035,2036,2045,2044
200217,1703,1704,1713,1712,2036,2037,2046,2045
200218,1704,1705,1714,1713,2037,2038,2047,2046
200219,1705,1706,1715,1714,2038,2039,2048,2047
200220,1706,1707,1716,1715,2039,2040,2049,2048
200221,1707,1708,1717,1716,2040,2041,2050,2049
200222,1708,1709,1718,1717,2041,2042,2051,2050
200223,1709,1710,1719,1718,2042,2043,2052,2051
200224,1711,1712,1721,1720,2044,2045,2054,2053
200225,1712,1713,1722,1721,2045,2046,2055,2054
200226,1713,1714,1723,1722,2046,2047,2056,2055
200227,1714,1715,1724,1723,2047,2048,2057,2056
200228,1715,1716,1725,1724,2048,2049,2058,2057
200229,1716,1717,1726,1725,2049,2050,2059,2058
200230,1717,1718,1727,1726,2050,2051,2060,2059
200231,1718,1719,1728,1727,2051,2052,2061,2060
200232,1720,1721,1730,1729,2053,2054,2063,2062
200233,1721,1722,1731,1730,2054,2055,2064,2063
200234,1722,1723,1732,1731,2055,2056,2065,2064
200235,1723,1724,1733,1732,2056,2057,2066,2065
200236,1724,1725,1734,1733,2057,2058,2067,2066
200237,1725,1726,1735,1734,2058,2059,2068,2067
200238,1726,1727,1736,1735,2059,2060,2069,2068
200239,1727,1728,1737,1736,2060,2061,2070,2069
200240,1729,1730,1739,1738,2062,2063,2072,2071
200241,1730,1731,1740,1739,2063,2064,2073,2072
200242,1731,1732,1741,1740,2064,2065,2074,2073
200243,1732,1733,1742,1741,2065,2066,2075,2074
200244,1733,1734,1743,1742,2066,2067,2076,2075
200245,1734,1735,1744,1743,2067,2068,2077,2076
200246,1735,1736,1745,1744,2068,2069,2078,2077
200247,1736,1737,1746,1745,2069,2070,2079,2078
200248,1738,1739,1748,1747,2071,2072,2081,2080
200249,1739,1740,1749,1748,2072,2073,2082,2081
200250,1740,1741,1750,1749,2073,2074,2083,2082
200251,1741,1742,1751,1750,2074,2075,2084,2083
200252,1742,1743,1752,1751,2075,2076,2085,2084
200253,1743,1744,1753,1752,2076,2077,2086,2085
200254,1744,1745,1754,1753,2077,2078,2087,2086
200255,1745,1746,1755,1754,2078,2079,2088,2087
200256,1747,1748,1757,1756,2080,2081,2090,2089
200257,1748,1749,1758,1757,2081,2082,2091,2090
200258,1749,1750,1759,1758,2082,2083,2092,2091
200259,1750,1751,1760,1759,2083,2084,2093,2092
200260,1751,1752,1761,1760,2084,2085,2094,2093
200261,1752,1753,1762,1761,2085,2086,2095,2094
200262,1753,1754,1763,1762,2086,2087,2096,2095
200263,1754,1755,1764,1763,2087,2088,2097,2096
200264,1756,1757,1766,1765,2089,2090,2099,2098
200265,1757,1758,1767,1766,2090,2091,2100,2099
200266,1758,1759,1768,1767,2091,2092,2101,2100
200267,1759,1760,1769,1768,2092,2093,2102,2101
200268,1760,1761,1770,1769,2093,2094,2103,2102
200269,1761,1762,1771,1770,2094,2095,2104,2103
200270,1762,1763,1772,1771,2095,2096,2105,2104
200271,1763,1764,1773,1772,2096,2097,2106,2105
200272,1765,1766,1775,1774,2098,2099,2108,2107
200273,1766,1767,1776,1775,2099,2100,2109,2108
200274,1767,1768,1777,1776,2100,2101,2110,2109
200275,1768,1769,1778,1777,2101,2102,2111,2110
200276,1769,1770,1779,1778,2102,2103,2112,2111
200277,1770,1771,1780,1779,2103,2104,2113,2112
200278,1771,1772,1781,1780,2104,2105,2114,2113
200279,1772,1773,1782,1781,2105,2106,2115,2114
200280,1774,1775,1784,1783,2107,2108,2117,2116
200281,1775,1776,1785,1784,2108,2109,2118,2117
200282,1776,1777,1786,1785,2109,2110,2119,2118
200283,1777,1778,1787,1786,2110,2111,2120,2119
200284,1778,1779,1788,1787,2111,2112,2121,2120
200285,1779,1780,1789,1788,2112,2113,2122,2121
200286,1780,1781,1790,1789,2113,2114,2123,2122
200287,1781,1782,1791,1790,2114,2115,2124,2123
200288,1792,1793,1802,1801,2125,2126,2135,2134
200289,1793,1794,1803,1802,2126,2127,2136,2135
200290,1794,1795,1804,1803,2127,2128,2137,2136
200291,1795,1796,1805,1804,2128,2129,2138,2137
200292,1796,1797,1806,1805,2129,2130,2139,2138
200293,1797,1798,1807,1806,2130,2131,2140,2139
200294,1798,1799,1808,1807,2131,2132,2141,2140
200295,1799,1800,1809,1808,2132,2133,2142,2141
200296,1801,1802,1811,1810,2134,2135,2144,2143
200297,1802,1803,1812,1811,2135,2136,2145,2144
200298,1803,1804,1813,1812,2136,2137,2146,2145
200299,1804,1805,1814,1813,2137,2138,2147,2146
200300,1805,1806,1815,1814,2138,2139,2148,2147
200301,1806,1807,1816,1815,2139,2140,2149,2148
200302,1807,1808,1817,1816,2140,2141,2150,2149
200303,1808,1809,1818,1817,2141,2142,2151,2150
200304,1810,1811,1820,1819,2143,2144,2153,2152
200305,1811,1812,1821,1820,2144,2145,2154,2153
200306,1812,1813,1822,1821,2145,2146,2155,2154
200307,1813,1814,1823,1822,2146,2147,2156,2155
200308,1814,1815,1824,1823,2147,2148,2157,2156
200309,1815,1816,1825,1824,2148,2149,2158,2157
200310,1816,1817,1826,1825,2149,2150,2159,2158
200311,1817,1818,1827,1826,2150,2151,2160,2159
200312,1819,1820,1829,1828,2152,2153,2162,2161
200313,1820,1821,1830,1829,2153,2154,2163,2162
200314,1821,1822,1831,1830,2154,2155,2164,2163
200315,1822,1823,1832,1831,2155,2156,2165,2164
200316,1823,1824,1833,1832,2156,2157,2166,2165
200317,1824,1825,1834,1833,2157,2158,2167,2166
200318,1825,1826,1835,1834,2158,2159,2168,2167
200319,1826,1827,1836,1835,2159,2160,2169,2168
200320,1828,1829,1838,1837,2161,2162,2171,2170
200321,1829,1830,1839,1838,2162,2163,2172,2171
200322,1830,1831,1840,1839,2163,2164,2173,2172
200323,1831,1832,1841,1840,2164,2165,2174,2173
200324,1832,1833,1842,1841,2165,2166,2175,2174
200325,1833,1834,1843,1842,2166,2167,2176,2175
200326,1834,1835,1844,1843,2167,2168,2177,2176
200327,1835,1836,1845,1844,2168,2169,2178,2177
200328,1837,1838,1847,1846,2170,2171,2180,2179
200329,1838,1839,1848,1847,2171,2172,2181,2180
200330,1839,1840,1849,1848,2172,2173,2182,2181
200331,1840,1841,1850,1849,2173,2174,2183,2182
200332,1841,1842,1851,1850,2174,2175,2184,2183
200333,1842,1843,1852,1851,2175,2176,2185,2184
200334,1843,1844,1853,1852,2176,2177,2186,2185
200335,1844,1845,1854,1853,2177,2178,2187,2186
200336,1846,1847,1856,1855,2179,2180,2189,2188
200337,1847,1848,1857,1856,2180,2181,2190,2189
200338,1848,1849,1858,1857,2181,2182,2191,2190
200339,1849,1850,1859,1858,2182,2183,2192,2191
200340,1850,1851,1860,1859,2183,2184,2193,2192
200341,1851,1852,1861,1860,2184,2185,2194,2193
200342,1852,1853,1862,1861,2185,2186,2195,2194
200343,1853,1854,1863,1862,2186,2187,2196,2195
200344,1855,1856,1865,1864,2188,2189,2198,2197
200345,1856,1857,1866,1865,2189,2190,2199,2198
200346,1857,1858,1867,1866,2190,2191,2200,2199
200347,1858,1859,1868,1867,2191,2192,2201,2200
200348,1859,1860,1869,1868,2192,2193,2202,2201
200349,1860,1861,1870,1869,2193,2194,2203,2202
200350,1861,1862,1871,1870,2194,2195,2204,2203
200351,1862,1863,1872,1871,2195,2196,2205,2204
200352,1864,1865,1874,1873,2197,2198,2207,2206
200353,1865,1866,1875,1874,2198,2199,2208,2207
200354,1866,1867,1876,1875,2199,2200,2209,2208
200355,1867,1868,1877,1876,2200,2201,2210,2209
200356,1868,1869,1878,1877,2201,2202,2211,2210
200357,1869,1870,1879,1878,2202,2203,2212,2211
200358,1870,1871,1880,1879,2203,2204,2213,2212
200359,1871,1872,1881,1880,2204,2205,2214,2213
200360,1873,1874,1883,1882,2206,2207,2216,2215
200361,1874,1875,1884,1883,2207,2208,2217,2216
200362,1875,1876,1885,1884,2208,2209,2218,2217
200363,1876,1877,1886,1885,2209,2210,2219,2218
200364,1877,1878,1887,1886,2210,2211,2220,2219
200365,1878,1879,1888,1887,2211,2212,2221,2220
200366,1879,1880,1889,1888,2212,2213,2222,2221
200367,1880,1881,1890,1889,2213,2214,2223,2222
200368,1882,1883,1892,1891,2215,2216,2225,2224
200369,1883,1884,1893,1892,2216,2217,2226,2225
200370,1884,1885,1894,1893,2217,2218,2227,2226
200371,1885,1886,1895,1894,2218,2219,2228,2227
200372,1886,1887,1896,1895,2219,2220,2229,2228
200373,1887,1888,1897,1896,2220,2221,2230,2229
200374,1888,1889,1898,1897,2221,2222,2231,2230
200375,1889,1890,1899,1898,2222,2223,2232,2231
200376,1891,1892,1901,1900,2224,2225,2234,2233
200377,1892,1893,1902,1901,2225,2226,2235,2234
200378,1893,1894,1903,1902,2226,2227,2236,2235
200379,1894,1895,1904,1903,2227,2228,2237,2236
200380,1895,1896,1905,1904,2228,2229,2238,2237
200381,1896,1897,1906,1905,2229,2230,2239,2238
200382,1897,1898,1907,1906,2230,2231,2240,2239
200383,1898,1899,1908,1907,2231,2232,2241,2240
200384,1900,1901,1910,1909,2233,2234,2243,2242
200385,1901,1902,1911,1910,2234,2235,2244,2243
200386,1902,1903,1912,1911,2235,2236,2245,2244
200387,1903,1904,1913,1912,2236,2237,2246,2245
200388,1904,1905,1914,1913,2237,2238,2247,2246
200389,1905,1906,1915,1914,2238,2239,2248,2247
200390,1906,1907,1916,1915,2239,2240,2249,2248
200391,1907,1908,1917,1916,2240,2241,2250,2249
200392,1909,1910,1919,1918,2242,2243,2252,2251
200393,1910,1911,1920,1919,2243,2244,2253,2252
200394,1911,1912,1921,1920,2244,2245,2254,2253
200395,1912,1913,1922,1921,2245,2246,2255,2254
200396,1913,1914,1923,1922,2246,2247,2256,2255
200397,1914,1915,1924,1923,2247,2248,2257,2256
200398,1915,1916,1925,1924,2248,2249,2258,2257
200399,1916,1917,1926,1925,2249,2250,2259,2258
200400,1918,1919,1928,1927,2251,2252,2261,2260
200401,1919,1920,1929,1928,2252,2253,2262,2261
200402,1920,1921,1930,1929,2253,2254,2263,2262
200403,1921,1922,1931,1930,2254,2255,2264,2263
200404,1922,1923,1932,1931,2255,2256,2265,2264
200405,1923,1924,1933,1932,2256,2257,2266,2265
200406,1924,1925,1934,1933,2257,2258,2267,2266
200407,1925,1926,1935,1934,2258,2259,2268,2267
200408,1927,1928,1937,1936,2260,2261,2270,2269
200409,1928,1929,1938,1937,2261,2262,2271,2270
200410,1929,1930,1939,1938,2262,2263,2272,2271
200411,1930,1931,1940,1939,2263,2264,2273,2272
200412,1931,1932,1941,1940,2264,2265,2274,2273
200413,1932,1933,1942,1941,2265,2266,2275,2274
200414,1933,1934,1943,1942,2266,2267,2276,2275
200415,1934,1935,1944,1943,2267,2268,2277,2276
200416,1936,1937,1946,1945,2269,2270,2279,2278
200417,1937,1938,1947,1946,2270,2271,2280,2279
200418,1938,1939,1948,1947,2271,2272,2281,2280
200419,1939,1940,1949,1948,2272,2273,2282,2281
200420,1940,1941,1950,1949,2273,2274,2283,2282
200421,1941,1942,1951,1950,2274,2275,2284,2283
200422,1942,1943,1952,1951,2275,2276,2285,2284
200423,1943,1944,1953,1952,2276,2277,2286,2285
200424,1945,1946,1955,1954,2278,2279,2288,2287
200425,1946,1947,1956,1955,2279,2280,2289,2288
200426,1947,1948,1957,1956,2280,2281,2290,2289
200427,1948,1949,1958,1957,2281,2282,2291,2290
200428,1949,1950,1959,1958,2282,2283,2292,2291
200429,1950,1951,1960,1959,2283,2284,2293,2292
200430,1951,1952,1961,1960,2284,2285,2294,2293
200431,1952,1953,1962,1961,2285,2286,2295,2294
200432,1954,1955,1964,1963,2287,2288,2297,2296
200433,1955,1956,1965,1964,2288,2289,2298,2297
200434,1956,1957,1966,1965,2289,2290,2299,2298
200435,1957,1958,1967,1966,2290,2291,2300,2299
200436,1958,1959,1968,1967,2291,2292,2301,2300
200437,1959,1960,1969,1968,2292,2293,2302,2301
200438,1960,1961,1970,1969,2293,2294,2303,2302
200439,1961,1962,1971,1970,2294,2295,2304,2303
200440,1963,1964,1973,1972,2296,2297,2306,2305
200441,1964,1965,1974,1973,2297,2298,2307,2306
200442,1965,1966,1975,1974,2298,2299,2308,2307
200443,1966,1967,1976,1975,2299,2300,2309,2308
200444,1967,1968,1977,1976,2300,2301,2310,2309
200445,1968,1969,1978,1977,2301,2302,2311,2310
200446,1969,1970,1979,1978,2302,2303,2312,2311
200447,1970,1971,1980,1979,2303,2304,2313,2312
200448,1972,1973,1982,1981,2305,2306,2315,2314
200449,1973,1974,1983,1982,2306,2307,2316,2315
200450,1974,1975,1984,1983,2307,2308,2317,2316
200451,1975,1976,1985,1984,2308,2309,2318,2317
200452,1976,1977,1986,1985,2309,2310,2319,2318
200453,1977,1978,1987,1986,2310,2311,2320,2319
200454,1978,1979,1988,1987,2311,2312,2321,2320
200455,1979,1980,1989,1988,2312,2313,2322,2321
200456,1981,1982,1991,1990,2314,2315,2324,2323
200457,1982,1983,1992,1991,2315,2316,2325,2324
200458,1983,1984,1993,1992,2316,2317,2326,2325
200459,1984,1985,1994,1993,2317,2318,2327,2326
200460,1985,1986,1995,1994,2318,2319,2328,2327
200461,1986,1987,1996,1995,2319,2320,2329,2328
200462,1987,1988,1997,1996,2320,2321,2330,2329
200463,1988,1989,1998,1997,2321,2322,2331,2330
200464,1990,1991,2000,1999,2323,2324,2333,2332
200465,1991,1992,2001,2000,2324,2325,2334,2333
200466,1992,1993,2002,2001,2325,2326,2335,2334
200467,1993,1994,2003,2002,2326,2327,2336,2335
200468,1994,1995,2004,2003,2327,2328,2337,2336
200469,1995,1996,2005,2004,2328,2329,2338,2337
200470,1996,1997,2006,2005,2329,2330,2339,2338
200471,1997,1998,2007,2006,2330,2331,2340,2339
200472,1999,2000,2009,2008,2332,2333,2342,2341
200473,2000,2001,2010,2009,2333,2334,2343,2342
200474,2001,2002,2011,2010,2334,2335,2344,2343
200475,2002,2003,2012,2011,2335,2336,2345,2344
200476,2003,2004,2013,2012,2336,2337,2346,2345
200477,2004,2005,2014,2013,2337,2338,2347,2346
200478,2005,2006,2015,2014,2338,2339,2348,2347
200479,2006,2007,2016,2015,2339,2340,2349,2348
200480,2008,2009,2018,2017,2341,2342,2351,2350
200481,2009,2010,2019,2018,2342,2343,2352,2351
200482,2010,2011,2020,2019,2343,2344,2353,2352
200483,2011,2012,2021,2020,2344,2345,2354,2353
200484,2012,2013,2022,2021,2345,2346,2355,2354
200485,2013,2014,2023,2022,2346,2347,2356,2355
200486,2014,2015,2024,2023,2347,2348,2357,2356
200487,2015,2016,2025,2024,2348,2349,2358,2357
200488,2017,2018,2027,2026,2350,2351,2360,2359
200489,2018,2019,2028,2027,2351,2352,2361,2360
200490,2019,2020,2029,2028,2352,2353,2362,2361
200491,2020,2021,2030,2029,2353,2354,2363,2362
200492,2021,2022,2031,2030,2354,2355,2364,2363
200493,2022,2023,2032,2031,2355,2356,2365,2364
200494,2023,2024,2033,2032,2356,2357,2366,2365
200495,2024,2025,2034,2033,2357,2358,2367,2366
200496,2026,2027,2036,2035,2359,2360,2369,2368
200497,2027,2028,2037,2036,2360,2361,2370,2369
200498,2028,2029,2038,2037,2361,2362,2371,2370
200499,2029,2030,2039,2038,2362,2363,2372,2371
200500,2030,2031,2040,2039,2363,2364,2373,2372
200501,2031,2032,2041,2040,2364,2365,2374,2373
200502,2032,2033,2042,2041,2365,2366,2375,2374
200503,2033,2034,2043,2042,2366,2367,2376,2375
200504,2035,2036,2045,2044,2368,2369,2378,2377
200505,2036,2037,2046,2045,2369,2370,2379,2378
200506,2037,2038,2047,2046,2370,2371,2380,2379
200507,2038,2039,2048,2047,2371,2372,2381,2380
200508,2039,2040,2049,2048,2372,2373,2382,2381
200509,2040,2041,2050,2049,2373,2374,2383,2382
200510,2041,2042,2051,2050,2374,2375,2384,2383
200511,2042,2043,2052,2051,2375,2376,2385,2384
200512,2044,2045,2054,2053,2377,2378,2387,2386
200513,2045,2046,2055,2054,2378,2379,2388,2387
200514,2046,2047,2056,2055,2379,2380,2389,2388
200515,2047,2048,2057,2056,2380,2381,2390,2389
200516,2048,2049,2058,2057,2381,2382,2391,2390
200517,2049,2050,2059,2058,2382,2383,2392,2391
200518,2050,2051,2060,2059,2383,2384,2393,2392
200519,2051,2052,2061,2060,2384,2385,2394,2393
200520,2053,2054,2063,2062,2386,2387,2396,2395
200521,2054,2055,2064,2063,2387,2388,2397,2396
200522,2055,2056,2065,2064,2388,2389,2398,2397
200523,2056,2057,2066,2065,2389,2390,2399,2398
200524,2057,2058,2067,2066,2390,2391,2400,2399
200525,2058,2059,2068,2067,2391,2392,2401,2400
200526,2059,2060,2069,2068,2392,2393,2402,2401
200527,2060,2061,2070,2069,2393,2394,2403,2402
200528,2062,2063,2072,2071,2395,2396,2405,2404
200529,2063,2064,2073,2072,2396,2397,2406,2405
200530,2064,2065,2074,2073,2397,2398,2407,2406
200531,2065,2066,2075,2074,2398,2399,2408,2407
200532,2066,2067,2076,2075,2399,2400,2409,2408
200533,2067,2068,2077,2076,2400,2401,2410,2409
200534,2068,2069,2078,2077,2401,2402,2411,2410
200535,2069,2070,2079,2078,2402,2403,2412,2411
200536,2071,2072,2081,2080,2404,2405,2414,2413
200537,2072,2073,2082,2081,2405,2406,2415,2414
200538,2073,2074,2083,2082,2406,2407,2416,2415
200539,2074,2075,2084,2083,2407,2408,2417,2416
200540,2075,2076,2085,2084,2408,2409,2418,2417
200541,2076,2077,2086,2085,2409,2410,2419,2418
200542,2077,2078,2087,2086,2410,2411,2420,2419
200543,2078,2079,2088,2087,2411,2412,2421,2420
200544,2080,2081,2090,2089,2413,2414,2423,2422
200545,2081,2082,2091,2090,2414,2415,2424,2423
200546,2082,2083,2092,2091,2415,2416,2425,2424
200547,2083,2084,2093,2092,2416,2417,2426,2425
200548,2084,2085,2094,2093,2417,2418,2427,2426
200549,2085,2086,2095,2094,2418,2419,2428,2427
200550,2086,2087,2096,2095,2419,2420,2429,2428
200551,2087,2088,2097,2096,2420,2421,2430,2429
200552,2089,2090,2099,2098,2422,2423,2432,2431
200553,2090,2091,2100,2099,2423,2424,2433,2432
200554,2091,2092,2101,2100,2424,2425,2434,2433
200555,2092,2093,2102,2101,2425,2426,2435,2434
200556,2093,2094,2103,2102,2426,2427,2436,2435
200557,2094,2095,2104,2103,2427,2428,2437,2436
200558,2095,2096,2105,2104,2428,2429,2438,2437
200559,2096,2097,2106,2105,2429,2430,2439,2438
200560,2098,2099,2108,2107,2431,2432,2441,2440
200561,2099,2100,2109,2108,2432,2433,2442,2441
200562,2100,2101,2110,2109,2433,2434,2443,2442
200563,2101,2102,2111,2110,2434,2435,2444,2443
200564,2102,2103,2112,2111,2435,2436,2445,2444
200565,2103,2104,2113,2112,2436,2437,2446,2445
200566,2104,2105,2114,2113,2437,2438,2447,2446
200567,2105,2106,2115,2114,2438,2439,2448,2447
200568,2107,2108,2117,2116,2440,2441,2450,2449
200569,2108,2109,2118,2117,2441,2442,2451,2450
200570,2109,2110,2119,2118,2442,2443,2452,2451
200571,2110,2111,2120,2119,2443,2444,2453,2452
200572,2111,2112,2121,2120,2444,2445,2454,2453
200573,2112,2113,2122,2121,2445,2446,2455,2454
200574,2113,2114,2123,2122,2446,2447,2456,2455
200575,2114,2115,2124,2123,2447,2448,2457,2456
200576,2125,2126,2135,2134,2458,2459,2468,2467
200577,2126,2127,2136,2135,2459,2460,2469,2468
200578,2127,2128,2137,2136,2460,2461,2470,2469
200579,2128,2129,2138,2137,2461,2462,2471,2470
200580,2129,2130,2139,2138,2462,2463,2472,2471
200581,2130,2131,2140,2139,2463,2464,2473,2472
200582,2131,2132,2141,2140,2464,2465,2474,2473
200583,2132,2133,2142,2141,2465,2466,2475,2474
200584,2134,2135,2144,2143,2467,2468,2477,2476
200585,2135,2136,2145,2144,2468,2469,2478,2477
200586,2136,2137,2146,2145,2469,2470,2479,2478
200587,2137,2138,2147,2146,2470,2471,2480,2479
200588,2138,2139,2148,2147,2471,2472,2481,2480
200589,2139,2140,2149,2148,2472,2473,2482,2481
200590,2140,2141,2150,2149,2473,2474,2483,2482
200591,2141,2142,2151,2150,2474,2475,2484,2483
200592,2143,2144,2153,2152,2476,2477,2486,2485
200593,2144,2145,2154,2153,2477,2478,2487,2486
200594,2145,2146,2155,2154,2478,2479,2488,2487
200595,2146,2147,2156,2155,2479,2480,2489,2488
200596,2147,2148,2157,2156,2480,2481,2490,2489
200597,2148,2149,2158,2157,2481,2482,2491,2490
200598,2149,2150,2159,2158,2482,2483,2492,2491
200599,2150,2151,2160,2159,2483,2484,2493,2492
200600,2152,2153,2162,2161,2485,2486,2495,2494
200601,2153,2154,2163,2162,2486,2487,2496,2495
200602,2154,2155,2164,2163,2487,2488,2497,2496
200603,2155,2156,2165,2164,2488,2489,2498,2497
200604,2156,2157,2166,2165,2489,2490,2499,2498
200605,2157,2158,2167,2166,2490,2491,2500,2499
200606,2158,2159,2168,2167,2491,2492,2501,2500
200607,2159,2160,2169,2168,2492,2493,2502,2501
200608,2161,2162,2171,2170,2494,2495,2504,2503
200609,2162,2163,2172,2171,2495,2496,2505,2504
200610,2163,2164,2173,2172,2496,2497,2506,2505
200611,2164,2165,2174,2173,2497,2498,2507,2506
200612,2165,2166,2175,2174,2498,2499,2508,2507
200613,2166,2167,2176,2175,2499,2500,2509,2508
200614,2167,2168,2177,2176,2500,2501,2510,2509
200615,2168,2169,2178,2177,2501,2502,2511,2510
200616,2170,2171,2180,2179,2503,2504,2513,2512
200617,2171,2172,2181,2180,2504,2505,2514,2513
200618,2172,2173,2182,2181,2505,2506,2515,2514
200619,2173,2174,2183,2182,2506,2507,2516,2515
200620,2174,2175,2184,2183,2507,2508,2517,2516
200621,2175,2176,2185,2184,2508,2509,2518,2517
200622,2176,2177,2186,2185,2509,2510,2519,2518
200623,2177,2178,2187,2186,2510,2511,2520,2519
200624,2179,2180,2189,2188,2512,2513,2522,2521
200625,2180,2181,2190,2189,2513,2514,2523,2522
200626,2181,2182,2191,2190,2514,2515,2524,2523
200627,2182,2183,2192,2191,2515,2516,2525,2524
200628,2183,2184,2193,2192,2516,2517,2526,2525
200629,2184,2185,2194,2193,2517,2518,2527,2526
200630,2185,2186,2195,2194,2518,2519,2528,2527
200631,2186,2187,2196,2195,2519,2520,2529,2528
200632,2188,2189,2198,2197,2521,2522,2531,2530
200633,2189,2190,2199,2198,2522,2523,2532,2531
200634,2190,2191,2200,2199,2523,2524,2533,2532
200635,2191,2192,2201,2200,2524,2525,2534,2533
200636,2192,2193,2202,2201,2525,2526,2535,2534
200637,2193,2194,2203,2202,2526,2527,2536,2535
200638,2194,2195,2204,2203,2527,2528,2537,2536
200639,2195,2196,2205,2204,2528,2529,2538,2537
200640,2197,2198,2207,2206,2530,2531,2540,2539
200641,2198,2199,2208,2207,2531,2532,2541,2540
200642,2199,2200,2209,2208,2532,2533,2542,2541
200643,2200,2201,2210,2209,2533,2534,2543,2542
200644,2201,2202,2211,2210,2534,2535,2544,2543
200645,2202,2203,2212,2211,2535,2536,2545,2544
200646,2203,2204,2213,2212,2536,2537,2546,2545
200647,2204,2205,2214,2213,2537,2538,2547,2546
200648,2206,2207,2216,2215,2539,2540,2549,2548
200649,2207,2208,2217,2216,2540,2541,2550,2549
200650,2208,2209,2218,2217,2541,2542,2551,2550
200651,2209,2210,2219,2218,2542,2543,2552,2551
200652,2210,2211,2220,2219,2543,2544,2553,2552
200653,2211,2212,2221,2220,2544,2545,2554,2553
200654,2212,2213,2222,2221,2545,2546,2555,2554
200655,2213,2214,2223,2222,2546,2547,2556,2555
200656,2215,2216,2225,2224,2548,2549,2558,2557
200657,2216,2217,2226,2225,2549,2550,2559,2558
200658,2217,2218,2227,2226,2550,2551,2560,2559
200659,2218,2219,2228,2227,2551,2552,2561,2560
200660,2219,2220,2229,2228,2552,2553,2562,2561
200661,2220,2221,2230,2229,2553,2554,2563,2562
200662,2221,2222,2231,2230,2554,2555,2564,2563
200663,2222,2223,2232,2231,2555,2556,2565,2564
200664,2224,2225,2234,2233,2557,2558,2567,2566
200665,2225,2226,2235,2234,2558,2559,2568,2567
200666,2226,2227,2236,2235,2559,2560,2569,2568
200667,2227,2228,2237,2236,2560,2561,2570,2569
200668,2228,2229,2238,2237,2561,2562,2571,2570
200669,2229,2230,2239,2238,2562,2563,2572,2571
200670,2230,2231,2240,2239,2563,2564,2573,2572
200671,2231,2232,2241,2240,2564,2565,2574,2573
200672,2233,2234,2243,2242,2566,2567,2576,2575
200673,2234,2235,2244,2243,2567,2568,2577,2576
200674,2235,2236,2245,2244,2568,2569,2578,2577
200675,2236,2237,2246,2245,2569,2570,2579,2578
200676,2237,2238,2247,2246,2570,2571,2580,2579
200677,2238,2239,2248,2247,2571,2572,2581,2580
200678,2239,2240,2249,2248,2572,2573,2582,2581
200679,2240,2241,2250,2249,2573,2574,2583,2582
200680,2242,2243,2252,2251,2575,2576,2585,2584
200681,2243,2244,2253,2252,2576,2577,2586,2585
200682,2244,2245,2254,2253,2577,2578,2587,2586
200683,2245,2246,2255,2254,2578,2579,2588,2587
200684,2246,2247,2256,2255,2579,2580,2589,2588
200685,2247,2248,2257,2256,2580,2581,2590,2589
200686,2248,2249,2258,2257,2581,2582,2591,2590
200687,2249,2250,2259,2258,2582,2583,2592,2591
200688,2251,2252,2261,2260,2584,2585,2594,2593
200689,2252,2253,2262,2261,2585,2586,2595,2594
200690,2253,2254,2263,2262,2586,2587,2596,2595
200691,2254,2255,2264,2263,2587,2588,2597,2596
200692,2255,2256,2265,2264,2588,2589,2598,2597
200693,2256,2257,2266,2265,2589,2590,2599,2598
200694,2257,2258,2267,2266,2590,2591,2600,2599
200695,2258,2259,2268,2267,2591,2592,2601,2600
200696,2260,2261,2270,2269,2593,2594,2603,2602
200697,2261,2262,2271,2270,2594,2595,2604,2603
200698,2262,2263,2272,2271,2595,2596,2605,2604
200699,2263,2264,2273,2272,2596,2597,2606,2605
200700,2264,2265,2274,2273,2597,2598,2607,2606
200701,2265,2266,2275,2274,2598,2599,2608,2607
200702,2266,2267,2276,2275,2599,2600,2609,2608
200703,2267,2268,2277,2276,2600,2601,2610,2609
200704,2269,2270,2279,2278,2602,2603,2612,2611
200705,2270,2271,2280,2279,2603,2604,2613,2612
200706,2271,2272,2281,2280,2604,2605,2614,2613
200707,2272,2273,2282,2281,2605,2606,2615,2614
200708,2273,2274,2283,2282,2606,2607,2616,2615
200709,2274,2275,2284,2283,2607,2608,2617,2616
200710,2275,2276,2285,2284,2608,2609,2618,2617
200711,2276,2277,2286,2285,2609,2610,2619,2618
200712,2278,2279,2288,2287,2611,2612,2621,2620
200713,2279,2280,2289,2288,2612,2613,2622,2621
200714,2280,2281,2290,2289,2613,2614,2623,2622
200715,2281,2282,2291,2290,2614,2615,2624,2623
200716,2282,2283,2292,2291,2615,2616,2625,2624
200717,2283,2284,2293,2292,2616,2617,2626,2625
200718,2284,2285,2294,2293,2617,2618,2627,2626
200719,2285,2286,2295,2294,2618,2619,2628,2627
200720,2287,2288,2297,2296,2620,2621,2630,2629
200721,2288,2289,2298,2297,2621,2622,2631,2630
200722,2289,2290,2299,2298,2622,2623,2632,2631
200723,2290,2291,2300,2299,2623,2624,2633,2632
200724,2291,2292,2301,2300,2624,2625,2634,2633
200725,2292,2293,2302,2301,2625,2626,2635,2634
200726,2293,2294,2303,2302,2626,2627,2636,2635
200727,2294,2295,2304,2303,2627,2628,2637,2636
200728,2296,2297,2306,2305,2629,2630,2639,2638
200729,2297,2298,2307,2306,2630,2631,2640,2639
200730,2298,2299,2308,2307,2631,2632,2641,2640
200731,2299,2300,2309,2308,2632,2633,2642,2641
200732,2300,2301,2310,2309,2633,2634,2643,2642
200733,2301,2302,2311,2310,2634,2635,2644,2643
200734,2302,2303,2312,2311,2635,2636,2645,2644
200735,2303,2304,2313,2312,2636,2637,2646,2645
200736,2305,2306,2315,2314,2638,2639,2648,2647
200737,2306,2307,2316,2315,2639,2640,2649,2648
200738,2307,2308,2317,2316,2640,2641,2650,2649
200739,2308,2309,2318,2317,2641,2642,2651,2650
200740,2309,2310,2319,2318,2642,2643,2652,2651
200741,2310,2311,2320,2319,2643,2644,2653,2652
200742,2311,2312,2321,2320,2644,2645,2654,2653
200743,2312,2313,2322,2321,2645,2646,2655,2654
200744,2314,2315,2324,2323,2647,2648,2657,2656
200745,2315,2316,2325,2324,2648,2649,2658,2657
200746,2316,2317,2326,2325,2649,2650,2659,2658
200747,2317,2318,2327,2326,2650,2651,2660,2659
200748,2318,2319,2328,2327,2651,2652,2661,2660
200749,2319,2320,2329,2328,2652,2653,2662,2661
200750,2320,2321,2330,2329,2653,2654,2663,2662
200751,2321,2322,2331,2330,2654,2655,2664,2663
200752,2323,2324,2333,2332,2656,2657,2666,2665
200753,2324,2325,2334,2333,2657,2658,2667,2666
200754,2325,2326,2335,2334,2658,2659,2668,2667
200755,2326,2327,2336,2335,2659,2660,2669,2668
200756,2327,2328,2337,2336,2660,2661,2670,2669
200757,2328,2329,2338,2337,2661,2662,2671,2670
200758,2329,2330,2339,2338,2662,2663,2672,2671
200759,2330,2331,2340,2339,2663,2664,2673,2672
200760,2332,2333,2342,2341,2665,2666,2675,2674
200761,2333,2334,2343,2342,2666,2667,2676,2675
200762,2334,2335,2344,2343,2667,2668,2677,2676
200763,2335,2336,2345,2344,2668,2669,2678,2677
200764,2336,2337,2346,2345,2669,2670,2679,2678
200765,2337,2338,2347,2346,2670,2671,2680,2679
200766,2338,2339,2348,2347,2671,2672,2681,2680
200767,2339,2340,2349,2348,2672,2673,2682,2681
200768,2341,2342,2351,2350,2674,2675,2684,2683
200769,2342,2343,2352,2351,2675,2676,2685,2684
200770,2343,2344,2353,2352,2676,2677,2686,2685
200771,2344,2345,2354,2353,2677,2678,2687,2686
200772,2345,2346,2355,2354,2678,2679,2688,2687
200773,2346,2347,2356,2355,2679,2680,2689,2688
200774,2347,2348,2357,2356,2680,2681,2690,2689
200775,2348,2349,2358,2357,2681,2682,2691,2690
200776,2350,2351,2360,2359,2683,2684,2693,2692
200777,2351,2352,2361,2360,2684,2685,2694,2693
200778,2352,2353,2362,2361,2685,2686,2695,2694
200779,2353,2354,2363,2362,2686,2687,2696,2695
200780,2354,2355,2364,2363,2687,2688,2697,2696
200781,2355,2356,2365,2364,2688,2689,2698,2697
200782,2356,2357,2366,2365,2689,2690,2699,2698
200783,2357,2358,2367,2366,2690,2691,2700,2699
200784,2359,2360,2369,2368,2692,2693,2702,2701
200785,2360,2361,2370,2369,2693,2694,2703,2702
200786,2361,2362,2371,2370,2694,2695,2704,2703
200787,2362,2363,2372,2371,2695,2696,2705,2704
200788,2363,2364,2373,2372,2696,2697,2706,2705
200789,2364,2365,2374,2373,2697,2698,2707,2706
200790,2365,2366,2375,2374,2698,2699,2708,2707
200791,2366,2367,2376,2375,2699,2700,2709,2708
200792,2368,2369,2378,2377,2701,2702,2711,2710
200793,2369,2370,2379,2378,2702,2703,2712,2711
200794,2370,2371,2380,2379,2703,2704,2713,2712
200795,2371,2372,2381,2380,2704,2705,2714,2713
200796,2372,2373,2382,2381,2705,2706,2715,2714
200797,2373,2374,2383,2382,2706,2707,2716,2715
200798,2374,2375,2384,2383,2707,2708,2717,2716
200799,2375,2376,2385,2384,2708,2709,2718,2717
200800,2377,2378,2387,2386,2710,2711,2720,2719
200801,2378,2379,2388,2387,2711,2712,2721,2720
200802,2379,2380,2389,2388,2712,2713,2722,2721
200803,2380,2381,2390,2389,2713,2714,2723,2722
200804,2381,2382,2391,2390,2714,2715,2724,2723
200805,2382,2383,2392,2391,2715,2716,2725,2724
200806,2383,2384,2393,2392,2716,2717,2726,2725
200807,2384,2385,2394,2393,2717,2718,2727,2726
200808,2386,2387,2396,2395,2719,2720,2729,2728
200809,2387,2388,2397,2396,2720,2721,2730,2729
200810,2388,2389,2398,2397,2721,2722,2731,2730
200811,2389,2390,2399,2398,2722,2723,2732,2731
200812,2390,2391,2400,2399,2723,2724,2733,2732
200813,2391,2392,2401,2400,2724,2725,2734,2733
200814,2392,2393,2402,2401,2725,2726,2735,2734
200815,2393,2394,2403,2402,2726,2727,2736,2735
200816,2395,2396,2405,2404,2728,2729,2738,2737
200817,2396,2397,2406,2405,2729,2730,2739,2738
200818,2397,2398,2407,2406,2730,2731,2740,2739
200819,2398,2399,2408,2407,2731,2732,2741,2740
200820,2399,2400,2409,2408,2732,2733,2742,2741
200821,2400,2401,2410,2409,2733,2734,2743,2742
200822,2401,2402,2411,2410,2734,2735,2744,2743
200823,2402,2403,2412,2411,2735,2736,2745,2744
200824,2404,2405,2414,2413,2737,2738,2747,2746
200825,2405,2406,2415,2414,2738,2739,2748,2747
200826,2406,2407,2416,2415,2739,2740,2749,2748
200827,2407,2408,2417,2416,2740,2741,2750,2749
200828,2408,2409,2418,2417,2741,2742,2751,2750
200829,2409,2410,2419,2418,2742,2743,2752,2751
200830,2410,2411,2420,2419,2743,2744,2753,2752
200831,2411,2412,2421,2420,2744,2745,2754,2753
200832,2413,2414,2423,2422,2746,2747,2756,2755
200833,2414,2415,2424,2423,2747,2748,2757,2756
200834,2415,2416,2425,2424,2748,2749,2758,2757
200835,2416,2417,2426,2425,2749,2750,2759,2758
200836,2417,2418,2427,2426,2750,2751,2760,2759
200837,2418,2419,2428,2427,2751,2752,2761,2760
200838,2419,2420,2429,2428,2752,2753,2762,2761
200839,2420,2421,2430,2429,2753,2754,2763,2762
200840,2422,2423,2432,2431,2755,2756,2765,2764
200841,2423,2424,2433,2432,2756,2757,2766,2765
200842,2424,2425,2434,2433,2757,2758,2767,2766
200843,2425,2426,2435,2434,2758,2759,2768,2767
200844,2426,2427,2436,2435,2759,2760,2769,2768
200845,2427,2428,2437,2436,2760,2761,2770,2769
200846,2428,2429,2438,2437,2761,2762,2771,2770
200847,2429,2430,2439,2438,2762,2763,2772,2771
200848,2431,2432,2441,2440,2764,2765,2774,2773
200849,2432,2433,2442,2441,2765,2766,2775,2774
200850,2433,2434,2443,2442,2766,2767,2776,2775
200851,2434,2435,2444,2443,2767,2768,2777,2776
200852,2435,2436,2445,2444,2768,2769,2778,2777
200853,2436,2437,2446,2445,2769,2770,2779,2778
200854,2437,2438,2447,2446,2770,2771,2780,2779
200855,2438,2439,2448,2447,2771,2772,2781,2780
200856,2440,2441,2450,2449,2773,2774,2783,2782
200857,2441,2442,2451,2450,2774,2775,2784,2783
200858,2442,2443,2452,2451,2775,2776,2785,2784
200859,2443,2444,2453,2452,2776,2777,2786,2785
200860,2444,2445,2454,2453,2777,2778,2787,2786
200861,2445,2446,2455,2454,2778,2779,2788,2787
200862,2446,2447,2456,2455,2779,2780,2789,2788
200863,2447,2448,2457,2456,2780,2781,2790,2789
200864,2458,2459,2468,2467,2791,2792,2801,2800
200865,2459,2460,2469,2468,2792,2793,2802,2801
200866,2460,2461,2470,2469,2793,2794,2803,2802
200867,2461,2462,2471,2470,2794,2795,2804,2803
200868,2462,2463,2472,2471,2795,2796,2805,2804
200869,2463,2464,2473,2472,2796,2797,2806,2805
200870,2464,2465,2474,2473,2797,2798,2807,2806
200871,2465,2466,2475,2474,2798,2799,2808,2807
200872,2467,2468,2477,2476,2800,2801,2810,2809
200873,2468,2469,2478,2477,2801,2802,2811,2810
200874,2469,2470,2479,2478,2802,2803,2812,2811
200875,2470,2471,2480,2479,2803,2804,2813,2812
200876,2471,2472,2481,2480,2804,2805,2814,2813
200877,2472,2473,2482,2481,2805,2806,2815,2814
200878,2473,2474,2483,2482,2806,2807,2816,2815
200879,2474,2475,2484,2483,2807,2808,2817,2816
200880,2476,2477,2486,2485,2809,2810,2819,2818
200881,2477,2478,2487,2486,2810,2811,2820,2819
200882,2478,2479,2488,2487,2811,2812,2821,2820
200883,2479,2480,2489,2488,2812,2813,2822,2821
200884,2480,2481,2490,2489,2813,2814,2823,2822
200885,2481,2482,2491,2490,2814,2815,2824,2823
200886,2482,2483,2492,2491,2815,2816,2825,2824
200887,2483,2484,2493,2492,2816,2817,2826,2825
200888,2485,2486,2495,2494,2818,2819,2828,2827
200889,2486,2487,2496,2495,2819,2820,2829,2828
200890,2487,2488,2497,2496,2820,2821,2830,2829
200891,2488,2489,2498,2497,2821,2822,2831,2830
200892,2489,2490,2499,2498,2822,2823,2832,2831
200893,2490,2491,2500,2499,2823,2824,2833,2832
200894,2491,2492,2501,2500,2824,2825,2834,2833
200895,2492,2493,2502,2501,2825,2826,2835,2834
200896,2494,2495,2504,2503,2827,2828,2837,2836
200897,2495,2496,2505,2504,2828,2829,2838,2837
200898,2496,2497,2506,2505,2829,2830,2839,2838
200899,2497,2498,2507,2506,2830,2831,2840,2839
200900,2498,2499,2508,2507,2831,2832,2841,2840
200901,2499,2500,2509,2508,2832,2833,2842,2841
200902,2500,2501,2510,2509,2833,2834,2843,2842
200903,2501,2502,2511,2510,2834,2835,2844,2843
200904,2503,2504,2513,2512,2836,2837,2846,2845
200905,2504,2505,2514,2513,2837,2838,2847,2846
200906,2505,2506,2515,2514,2838,2839,2848,2847
200907,2506,2507,2516,2515,2839,2840,2849,2848
200908,2507,2508,2517,2516,2840,2841,2850,2849
200909,2508,2509,2518,2517,2841,2842,2851,2850
200910,2509,2510,2519,2518,2842,2843,2852,2851
200911,2510,2511,2520,2519,2843,2844,2853,2852
200912,2512,2513,2522,2521,2845,2846,2855,2854
200913,2513,2514,2523,2522,2846,2847,2856,2855
200914,2514,2515,2524,2523,2847,2848,2857,2856
200915,2515,2516,2525,2524,2848,2849,2858,2857
200916,2516,2517,2526,2525,2849,2850,2859,2858
200917,2517,2518,2527,2526,2850,2851,2860,2859
200918,2518,2519,2528,2527,2851,2852,2861,2860
200919,2519,2520,2529,2528,2852,2853,2862,2861
200920,2521,2522,2531,2530,2854,2855,2864,2863
200921,2522,2523,2532,2531,2855,2856,2865,2864
200922,2523,2524,2533,2532,2856,2857,2866,2865
200923,2524,2525,2534,2533,2857,2858,2867,2866
200924,2525,2526,2535,2534,2858,2859,2868,2867
200925,2526,2527,2536,2535,2859,2860,2869,2868
200926,2527,2528,2537,2536,2860,2861,2870,2869
200927,2528,2529,2538,2537,2861,2862,2871,2870
200928,2530,2531,2540,2539,2863,2864,2873,2872
200929,2531,2532,2541,2540,2864,2865,2874,2873
200930,2532,2533,2542,2541,2865,2866,2875,2874
200931,2533,2534,2543,2542,2866,2867,2876,2875
200932,2534,2535,2544,2543,2867,2868,2877,2876
200933,2535,2536,2545,2544,2868,2869,2878,2877
200934,2536,2537,2546,2545,2869,2870,2879,2878
200935,2537,2538,2547,2546,2870,2871,2880,2879
200936,2539,2540,2549,2548,2872,2873,2882,2881
200937,2540,2541,2550,2549,2873,2874,2883,2882
200938,2541,2542,2551,2550,2874,2875,2884,2883
200939,2542,2543,2552,2551,2875,2876,2885,2884
200940,2543,2544,2553,2552,2876,2877,2886,2885
200941,2544,2545,2554,2553,2877,2878,2887,2886
200942,2545,2546,2555,2554,2878,2879,2888,2887
200943,2546,2547,2556,2555,2879,2880,2889,2888
200944,2548,2549,2558,2557,2881,2882,2891,2890
200945,2549,2550,2559,2558,2882,2883,2892,2891
200946,2550,2551,2560,2559,2883,2884,2893,2892
200947,2551,2552,2561,2560,2884,2885,2894,2893
200948,2552,2553,2562,2561,2885,2886,2895,2894
200949,2553,2554,2563,2562,2886,2887,2896,2895
200950,2554,2555,2564,2563,2887,2888,2897,2896
200951,2555,2556,2565,2564,2888,2889,2898,2897
200952,2557,2558,2567,2566,2890,2891,2900,2899
200953,2558,2559,2568,2567,2891,2892,2901,2900
200954,2559,2560,2569,2568,2892,2893,2902,2901
200955,2560,2561,2570,2569,2893,2894,2903,2902
200956,2561,2562,2571,2570,2894,2895,2904,2903
200957,2562,2563,2572,2571,2895,2896,2905,2904
200958,2563,2564,2573,2572,2896,2897,2906,2905
200959,2564,2565,2574,2573,2897,2898,2907,2906
200960,2566,2567,2576,2575,2899,2900,2909,2908
200961,2567,2568,2577,2576,2900,2901,2910,2909
200962,2568,2569,2578,2577,2901,2902,2911,2910
200963,2569,2570,2579,2578,2902,2903,2912,2911
200964,2570,2571,2580,2579,2903,2904,2913,2912
200965,2571,2572,2581,2580,2904,2905,2914,2913
200966,2572,2573,2582,2581,2905,2906,2915,2914
200967,2573,2574,2583,2582,2906,2907,2916,2915
200968,2575,2576,2585,2584,2908,2909,2918,2917
200969,2576,2577,2586,2585,2909,2910,2919,2918
200970,2577,2578,2587,2586,2910,2911,2920,2919
200971,2578,2579,2588,2587,2911,2912,2921,2920
200972,2579,2580,2589,2588,2912,2913,2922,2921
200973,2580,2581,2590,2589,2913,2914,2923,2922
200974,2581,2582,2591,2590,2914,2915,2924,2923
200975,2582,2583,2592,2591,2915,2916,2925,2924
200976,2584,2585,2594,2593,2917,2918,2927,2926
200977,2585,2586,2595,2594,2918,2919,2928,2927
200978,2586,2587,2596,2595,2919,2920,2929,2928
200979,2587,2588,2597,2596,2920,2921,2930,2929
200980,2588,2589,2598,2597,2921,2922,2931,2930
200981,2589,2590,2599,2598,2922,2923,2932,2931
200982,2590,2591,2600,2599,2923,2924,2933,2932
200983,2591,2592,2601,2600,2924,2925,2934,2933
200984,2593,2594,2603,2602,2926,2927,2936,2935
200985,2594,2595,2604,2603,2927,2928,2937,2936
200986,2595,2596,2605,2604,2928,2929,2938,2937
200987,2596,2597,2606,2605,2929,2930,2939,2938
200988,2597,2598,2607,2606,2930,2931,2940,2939
200989,2598,2599,2608,2607,2931,2932,2941,2940
200990,2599,2600,2609,2608,2932,2933,2942,2941
200991,2600,2601,2610,2609,2933,2934,2943,2942
200992,2602,2603,2612,2611,2935,2936,2945,2944
200993,2603,2604,2613,2612,2936,2937,2946,2945
200994,2604,2605,2614,2613,2937,2938,2947,2946
200995,2605,2606,2615,2614,2938,2939,2948,2947
200996,2606,2607,2616,2615,2939,2940,2949,2948
200997,2607,2608,2617,2616,2940,2941,2950,2949
200998,2608,2609,2618,2617,2941,2942,2951,2950
200999,2609,2610,2619,2618,2942,2943,2952,2951
201000,2611,2612,2621,2620,2944,2945,2954,2953
201001,2612,2613,2622,2621,2945,2946,2955,2954
201002,2613,2614,2623,2622,2946,2947,2956,2955
201003,2614,2615,2624,2623,2947,2948,2957,2956
201004,2615,2616,2625,2624,2948,2949,2958,2957
201005,2616,2617,2626,2625,2949,2950,2959,2958
201006,2617,2618,2627,2626,2950,2951,2960,2959
201007,2618,2619,2628,2627,2951,2952,2961,2960
201008,2620,2621,2630,2629,2953,2954,2963,2962
201009,2621,2622,2631,2630,2954,2955,2964,2963
201010,2622,2623,2632,2631,2955,2956,2965,2964
201011,2623,2624,2633,2632,2956,2957,2966,2965
201012,2624,2625,2634,2633,2957,2958,2967,2966
201013,2625,2626,2635,2634,2958,2959,2968,2967
201014,2626,2627,2636,2635,2959,2960,2969,2968
201015,2627,2628,2637,2636,2960,2961,2970,2969
201016,2629,2630,2639,2638,2962,2963,2972,2971
201017,2630,2631,2640,2639,2963,2964,2973,2972
201018,2631,2632,2641,2640,2964,2965,2974,2973
201019,2632,2633,2642,2641,2965,2966,2975,2974
201020,2633,2634,2643,2642,2966,2967,2976,2975
201021,2634,2635,2644,2643,2967,2968,2977,2976
201022,2635,2636,2645,2644,2968,2969,2978,2977
201023,2636,2637,2646,2645,2969,2970,2979,2978
201024,2638,2639,2648,2647,2971,2972,2981,2980
201025,2639,2640,2649,2648,2972,2973,2982,2981
201026,2640,2641,2650,2649,2973,2974,2983,2982
201027,2641,2642,2651,2650,2974,2975,2984,2983
201028,2642,2643,2652,2651,2975,2976,2985,2984
201029,2643,2644,2653,2652,2976,2977,2986,2985
201030,2644,2645,2654,2653,2977,2978,2987,2986
201031,2645,2646,2655,2654,2978,2979,2988,2987
201032,2647,2648,2657,2656,2980,2981,2990,2989
201033,2648,2649,2658,2657,2981,2982,2991,2990
201034,2649,2650,2659,2658,2982,2983,2992,2991
201035,2650,2651,2660,2659,2983,2984,2993,2992
201036,2651,2652,2661,2660,2984,2985,2994,2993
201037,2652,2653,2662,2661,2985,2986,2995,2994
201038,2653,2654,2663,2662,2986,2987,2996,2995
201039,2654,2655,2664,2663,2987,2988,2997,2996
201040,2656,2657,2666,2665,2989,2990,2999,2998
201041,2657,2658,2667,2666,2990,2991,3000,2999
201042,2658,2659,2668,2667,2991,2992,3001,3000
201043,2659,2660,2669,2668,2992,2993,3002,3001
201044,2660,2661,2670,2669,2993,2994,3003,3002
201045,2661,2662,2671,2670,2994,2995,3004,3003
201046,2662,2663,2672,2671,2995,2996,3005,3004
201047,2663,2664,2673,2672,2996,2997,3006,3005
201048,2665,2666,2675,2674,2998,2999,3008,3007
201049,2666,2667,2676,2675,2999,3000,3009,3008
201050,2667,2668,2677,2676,3000,3001,3010,3009
201051,2668,2669,2678,2677,3001,3002,3011,3010
201052,2669,2670,2679,2678,3002,3003,3012,3011
201053,2670,2671,2680,2679,3003,3004,3013,3012
201054,2671,2672,2681,2680,3004,3005,3014,3013
201055,2672,2673,2682,2681,3005,3006,3015,3014
201056,2674,2675,2684,2683,3007,3008,3017,3016
201057,2675,2676,2685,2684,3008,3009,3018,3017
201058,2676,2677,2686,2685,3009,3010,3019,3018
201059,2677,2678,2687,2686,3010,3011,3020,3019
201060,2678,2679,2688,2687,3011,3012,3021,3020
201061,2679,2680,2689,2688,3012,3013,3022,3021
201062,2680,2681,2690,2689,3013,3014,3023,3022
201063,2681,2682,2691,2690,3014,3015,3024,3023
201064,2683,2684,2693,2692,3016,3017,3026,3025
201065,2684,2685,2694,2693,3017,3018,3027,3026
201066,2685,2686,2695,2694,3018,3019,3028,3027
201067,2686,2687,2696,2695,3019,3020,3029,3028
201068,2687,2688,2697,2696,3020,3021,3030,3029
201069,2688,2689,2698,2697,3021,3022,3031,3030
201070,2689,2690,2699,2698,3022,3023,3032,3031
201071,2690,2691,2700,2699,3023,3024,3033,3032
201072,2692,2693,2702,2701,3025,3026,3035,3034
201073,2693,2694,2703,2702,3026,3027,3036,3035
201074,2694,2695,2704,2703,3027,3028,3037,3036
201075,2695,2696,2705,2704,3028,3029,3038,3037
201076,2696,2697,2706,2705,3029,3030,3039,3038
201077,2697,2698,2707,2706,3030,3031,3040,3039
201078,2698,2699,2708,2707,3031,3032,3041,3040
201079,2699,2700,2709,2708,3032,3033,3042,3041
201080,2701,2702,2711,2710,3034,3035,3044,3043
201081,2702,2703,2712,2711,3035,3036,3045,3044
201082,2703,2704,2713,2712,3036,3037,3046,3045
201083,2704,2705,2714,2713,3037,3038,3047,3046
201084,2705,2706,2715,2714,3038,3039,3048,3047
201085,2706,2707,2716,2715,3039,3040,3049,3048
201086,2707,2708,2717,2716,3040,3041,3050,3049
201087,2708,2709,2718,2717,3041,3042,3051,3050
201088,2710,2711,2720,2719,3043,3044,3053,3052
201089,2711,2712,2721,2720,3044,3045,3054,3053
201090,2712,2713,2722,2721,3045,3046,3055,3054
201091,2713,2714,2723,2722,3046,3047,3056,3055
201092,2714,2715,2724,2723,3047,3048,3057,3056
201093,2715,2716,2725,2724,3048,3049,3058,3057
201094,2716,2717,2726,2725,3049,3050,3059,3058
201095,2717,2718,2727,2726,3050,3051,3060,3059
201096,2719,2720,2729,2728,3052,3053,3062,3061
201097,2720,2721,2730,2729,3053,3054,3063,3062
201098,2721,2722,2731,2730,3054,3055,3064,3063
201099,2722,2723,2732,2731,3055,3056,3065,3064
201100,2723,2724,2733,2732,3056,3057,3066,3065
201101,2724,2725,2734,2733,3057,3058,3067,3066
201102,2725,2726,2735,2734,3058,3059,3068,3067
201103,2726,2727,2736,2735,3059,3060,3069,3068
201104,2728,2729,2738,2737,3061,3062,3071,3070
201105,2729,2730,2739,2738,3062,3063,3072,3071
201106,2730,2731,2740,2739,3063,3064,3073,3072
201107,2731,2732,2741,2740,3064,3065,3074,3073
201108,2732,2733,2742,2741,3065,3066,3075,3074
201109,2733,2734,2743,2742,3066,3067,3076,3075
201110,2734,2735,2744,2743,3067,3068,3077,3076
201111,2735,2736,2745,2744,3068,3069,3078,3077
201112,2737,2738,2747,2746,3070,3071,3080,3079
201113,2738,2739,2748,2747,3071,3072,3081,3080
201114,2739,2740,2749,2748,3072,3073,3082,3081
201115,2740,2741,2750,2749,3073,3074,3083,3082
201116,2741,2742,2751,2750,3074,3075,3084,3083
201117,2742,2743,2752,2751,3075,3076,3085,3084
201118,2743,2744,2753,2752,3076,3077,3086,3085
201119,2744,2745,2754,2753,3077,3078,3087,3086
201120,2746,2747,2756,2755,3079,3080,3089,3088
201121,2747,2748,2757,2756,3080,3081,3090,3089
201122,2748,2749,2758,2757,3081,3082,3091,3090
201123,2749,2750,2759,2758,3082,3083,3092,3091
201124,2750,2751,2760,2759,3083,3084,3093,3092
201125,2751,2752,2761,2760,3084,3085,3094,3093
201126,2752,2753,2762,2761,3085,3086,3095,3094
201127,2753,2754,2763,2762,3086,3087,3096,3095
201128,2755,2756,2765,2764,3088,3089,3098,3097
201129,2756,2757,2766,2765,3089,3090,3099,3098
201130,2757,2758,2767,2766,3090,3091,3100,3099
201131,2758,2759,2768,2767,3091,3092,3101,3100
201132,2759,2760,2769,2768,3092,3093,3102,3101
201133,2760,2761,2770,2769,3093,3094,3103,3102
201134,2761,2762,2771,2770,3094,3095,3104,3103
201135,2762,2763,2772,2771,3095,3096,3105,3104
201136,2764,2765,2774,2773,3097,3098,3107,3106
201137,2765,2766,2775,2774,3098,3099,3108,3107
201138,2766,2767,2776,2775,3099,3100,3109,3108
201139,2767,2768,2777,2776,3100,3101,3110,3109
201140,2768,2769,2778,2777,3101,3102,3111,3110
201141,2769,2770,2779,2778,3102,3103,3112,3111
201142,2770,2771,2780,2779,3103,3104,3113,3112
201143,2771,2772,2781,2780,3104,3105,3114,3113
201144,2773,2774,2783,2782,3106,3107,3116,3115
201145,2774,2775,2784,2783,3107,3108,3117,3116
201146,2775,2776,2785,2784,3108,3109,3118,3117
201147,2776,2777,2786,2785,3109,3110,3119,3118
201148,2777,2778,2787,2786,3110,3111,3120,3119
201149,2778,2779,2788,2787,3111,3112,3121,3120
201150,2779,2780,2789,2788,3112,3113,3122,3121
201151,2780,2781,2790,2789,3113,3114,3123,3122
201152,2791,2792,2801,2800,3124,3125,3134,3133
201153,2792,2793,2802,2801,3125,3126,3135,3134
201154,2793,2794,2803,2802,3126,3127,3136,3135
201155,2794,2795,2804,2803,3127,3128,3137,3136
201156,2795,2796,2805,2804,3128,3129,3138,3137
201157,2796,2797,2806,2805,3129,3130,3139,3138
201158,2797,2798,2807,2806,3130,3131,3140,3139
201159,2798,2799,2808,2807,3131,3132,3141,3140
201160,2800,2801,2810,2809,3133,3134,3143,3142
201161,2801,2802,2811,2810,3134,3135,3144,3143
201162,2802,2803,2812,2811,3135,3136,3145,3144
201163,2803,2804,2813,2812,3136,3137,3146,3145
201164,2804,2805,2814,2813,3137,3138,3147,3146
201165,2805,2806,2815,2814,3138,3139,3148,3147
201166,2806,2807,2816,2815,3139,3140,3149,3148
201167,2807,2808,2817,2816,3140,3141,3150,3149
201168,2809,2810,2819,2818,3142,3143,3152,3151
201169,2810,2811,2820,2819,3143,3144,3153,3152
201170,2811,2812,2821,2820,3144,3145,3154,3153
201171,2812,2813,2822,2821,3145,3146,3155,3154
201172,2813,2814,2823,2822,3146,3147,3156,3155
201173,2814,2815,2824,2823,3147,3148,3157,3156
201174,2815,2816,2825,2824,3148,3149,3158,3157
201175,2816,2817,2826,2825,3149,3150,3159,3158
201176,2818,2819,2828,2827,3151,3152,3161,3160
201177,2819,2820,2829,2828,3152,3153,3162,3161
201178,2820,2821,2830,2829,3153,3154,3163,3162
201179,2821,2822,2831,2830,3154,3155,3164,3163
201180,2822,2823,2832,2831,3155,3156,3165,3164
201181,2823,2824,2833,2832,3156,3157,3166,3165
201182,2824,2825,2834,2833,3157,3158,3167,3166
201183,2825,2826,2835,2834,3158,3159,3168,3167
201184,2827,2828,2837,2836,3160,3161,3170,3169
201185,2828,2829,2838,2837,3161,3162,3171,3170
201186,2829,2830,2839,2838,3162,3163,3172,3171
201187,2830,2831,2840,2839,3163,3164,3173,3172
201188,2831,2832,2841,2840,3164,3165,3174,3173
201189,2832,2833,2842,2841,3165,3166,3175,3174
201190,2833,2834,2843,2842,3166,3167,3176,3175
201191,2834,2835,2844,2843,3167,3168,3177,3176
201192,2836,2837,2846,2845,3169,3170,3179,3178
201193,2837,2838,2847,2846,3170,3171,3180,3179
201194,2838,2839,2848,2847,3171,3172,3181,3180
201195,2839,2840,2849,2848,3172,3173,3182,3181
201196,2840,2841,2850,2849,3173,3174,3183,3182
201197,2841,2842,2851,2850,3174,3175,3184,3183
201198,2842,2843,2852,2851,3175,3176,3185,3184
201199,2843,2844,2853,2852,3176,3177,3186,3185
201200,2845,2846,2855,2854,3178,3179,3188,3187
201201,2846,2847,2856,2855,3179,3180,3189,3188
201202,2847,2848,2857,2856,3180,3181,3190,3189
201203,2848,2849,2858,2857,3181,3182,3191,3190
201204,2849,2850,2859,2858,3182,3183,3192,3191
201205,2850,2851,2860,2859,3183,3184,3193,3192
201206,2851,2852,2861,2860,3184,3185,3194,3193
201207,2852,2853,2862,2861,3185,3186,3195,3194
201208,2854,2855,2864,2863,3187,3188,3197,3196
201209,2855,2856,2865,2864,3188,3189,3198,3197
201210,2856,2857,2866,2865,3189,3190,3199,3198
201211,2857,2858,2867,2866,3190,3191,3200,3199
201212,2858,2859,2868,2867,3191,3192,3201,3200
201213,2859,2860,2869,2868,3192,3193,3202,3201
201214,2860,2861,2870,2869,3193,3194,3203,3202
201215,2861,2862,2871,2870,3194,3195,3204,3203
201216,2863,2864,2873,2872,3196,3197,3206,3205
201217,2864,2865,2874,2873,3197,3198,3207,3206
201218,2865,2866,2875,2874,3198,3199,3208,3207
201219,2866,2867,2876,2875,3199,3200,3209,3208
201220,2867,2868,2877,2876,3200,3201,3210,3209
201221,2868,2869,2878,2877,3201,3202,3211,3210
201222,2869,2870,2879,2878,3202,3203,3212,3211
201223,2870,2871,2880,2879,3203,3204,3213,3212
201224,2872,2873,2882,2881,3205,3206,3215,3214
201225,2873,2874,2883,2882,3206,3207,3216,3215
201226,2874,2875,2884,2883,3207,3208,3217,3216
201227,2875,2876,2885,2884,3208,3209,3218,3217
201228,2876,2877,2886,2885,3209,3210,3219,3218
201229,2877,2878,2887,2886,3210,3211,3220,3219
201230,2878,2879,2888,2887,3211,3212,3221,3220
201231,2879,2880,2889,2888,3212,3213,3222,3221
201232,2881,2882,2891,2890,3214,3215,3224,3223
201233,2882,2883,2892,2891,3215,3216,3225,3224
201234,2883,2884,2893,2892,3216,3217,3226,3225
201235,2884,2885,2894,2893,3217,3218,3227,3226
201236,2885,2886,2895,2894,3218,3219,3228,3227
201237,2886,2887,2896,2895,3219,3220,3229,3228
201238,2887,2888,2897,2896,3220,3221,3230,3229
201239,2888,2889,2898,2897,3221,3222,3231,3230
201240,2890,2891,2900,2899,3223,3224,3233,3232
201241,2891,2892,2901,2900,3224,3225,3234,3233
201242,2892,2893,2902,2901,3225,3226,3235,3234
201243,2893,2894,2903,2902,3226,3227,3236,3235
201244,2894,2895,2904,2903,3227,3228,3237,3236
201245,2895,2896,2905,2904,3228,3229,3238,3237
201246,2896,2897,2906,2905,3229,3230,3239,3238
201247,2897,2898,2907,2906,3230,3231,3240,3239
201248,2899,2900,2909,2908,3232,3233,3242,3241
201249,2900,2901,2910,2909,3233,3234,3243,3242
201250,2901,2902,2911,2910,3234,3235,3244,3243
201251,2902,2903,2912,2911,3235,3236,3245,3244
201252,2903,2904,2913,2912,3236,3237,3246,3245
201253,2904,2905,2914,2913,3237,3238,3247,3246
201254,2905,2906,2915,2914,3238,3239,3248,3247
201255,2906,2907,2916,2915,3239,3240,3249,3248
201256,2908,2909,2918,2917,3241,3242,3251,3250
201257,2909,2910,2919,2918,3242,3243,3252,3251
201258,2910,2911,2920,2919,3243,3244,3253,3252
201259,2911,2912,2921,2920,3244,3245,3254,3253
201260,2912,2913,2922,2921,3245,3246,3255,3254
201261,2913,2914,2923,2922,3246,3247,3256,3255
201262,2914,2915,2924,2923,3247,3248,3257,3256
201263,2915,2916,2925,2924,3248,3249,3258,3257
201264,2917,2918,2927,2926,3250,3251,3260,3259
201265,2918,2919,2928,2927,3251,3252,3261,3260
201266,2919,2920,2929,2928,3252,3253,3262,3261
201267,2920,2921,2930,2929,3253,3254,3263,3262
201268,2921,2922,2931,2930,3254,3255,3264,3263
201269,2922,2923,2932,2931,3255,3256,3265,3264
201270,2923,2924,2933,2932,3256,3257,3266,3265
201271,2924,2925,2934,2933,3257,3258,3267,3266
201272,2926,2927,2936,2935,3259,3260,3269,3268
201273,2927,2928,2937,2936,3260,3261,3270,3269
201274,2928,2929,2938,2937,3261,3262,3271,3270
201275,2929,2930,2939,2938,3262,3263,3272,3271
201276,2930,2931,2940,2939,3263,3264,3273,3272
201277,2931,2932,2941,2940,3264,3265,3274,3273
201278,2932,2933,2942,2941,3265,3266,3275,3274
201279,2933,2934,2943,2942,3266,3267,3276,3275
201280,2935,2936,2945,2944,3268,3269,3278,3277
201281,2936,2937,2946,2945,3269,3270,3279,3278
201282,2937,2938,2947,2946,3270,3271,3280,3279
201283,2938,2939,2948,2947,3271,3272,3281,3280
201284,2939,2940,2949,2948,3272,3273,3282,3281
201285,2940,2941,2950,2949,3273,3274,3283,3282
201286,2941,2942,2951,2950,3274,3275,3284,3283
201287,2942,2943,2952,2951,3275,3276,3285,3284
201288,2944,2945,2954,2953,3277,3278,3287,3286
201289,2945,2946,2955,2954,3278,3279,3288,3287
201290,2946,2947,2956,2955,3279,3280,3289,3288
201291,2947,2948,2957,2956,3280,3281,3290,3289
201292,2948,2949,2958,2957,3281,3282,3291,3290
201293,2949,2950,2959,2958,3282,3283,3292,3291
201294,2950,2951,2960,2959,3283,3284,3293,3292
201295,2951,2952,2961,2960,3284,3285,3294,3293
201296,2953,2954,2963,2962,3286,3287,3296,3295
201297,2954,2955,2964,2963,3287,3288,3297,3296
201298,2955,2956,2965,2964,3288,3289,3298,3297
201299,2956,2957,2966,2965,3289,3290,3299,3298
201300,2957,2958,2967,2966,3290,3291,3300,3299
201301,2958,2959,2968,2967,3291,3292,3301,3300
201302,2959,2960,2969,2968,3292,3293,3302,3301
201303,2960,2961,2970,2969,3293,3294,3303,3302
201304,2962,2963,2972,2971,3295,3296,3305,3304
201305,2963,2964,2973,2972,3296,3297,3306,3305
201306,2964,2965,2974,2973,3297,3298,3307,3306
201307,2965,2966,2975,2974,3298,3299,3308,3307
201308,2966,2967,2976,2975,3299,3300,3309,3308
201309,2967,2968,2977,2976,3300,3301,3310,3309
201310,2968,2969,2978,2977,3301,3302,3311,3310
201311,2969,2970,2979,2978,3302,3303,3312,3311
201312,2971,2972,2981,2980,3304,3305,3314,3313
201313,2972,2973,2982,2981,3305,3306,3315,3314
201314,2973,2974,2983,2982,3306,3307,3316,3315
201315,2974,2975,2984,2983,3307,3308,3317,3316
201316,2975,2976,2985,2984,3308,3309,3318,3317
201317,2976,2977,2986,2985,3309,3310,3319,3318
201318,2977,2978,2987,2986,3310,3311,3320,3319
201319,2978,2979,2988,2987,3311,3312,3321,3320
201320,2980,2981,2990,2989,3313,3314,3323,3322
201321,2981,2982,2991,2990,3314,3315,3324,3323
201322,2982,2983,2992,2991,3315,3316,3325,3324
201323,2983,2984,2993,2992,3316,3317,3326,3325
201324,2984,2985,2994,2993,3317,3318,3327,3326
201325,2985,2986,2995,2994,3318,3319,3328,3327
201326,2986,2987,2996,2995,3319,3320,3329,3328
201327,2987,2988,2997,2996,3320,3321,3330,3329
201328,2989,2990,2999,2998,3322,3323,3332,3331
201329,2990,2991,3000,2999,3323,3324,3333,3332
201330,2991,2992,3001,3000,3324,3325,3334,3333
201331,2992,2993,3002,3001,3325,3326,3335,3334
201332,2993,2994,3003,3002,3326,3327,3336,3335
201333,2994,2995,3004,3003,3327,3328,3337,3336
201334,2995,2996,3005,3004,3328,3329,3338,3337
201335,2996,2997,3006,3005,3329,3330,3339,3338
201336,2998,2999,3008,3007,3331,3332,3341,3340
201337,2999,3000,3009,3008,3332,3333,3342,3341
201338,3000,3001,3010,3009,3333,3334,3343,3342
201339,3001,3002,3011,3010,3334,3335,3344,3343
201340,3002,3003,3012,3011,3335,3336,3345,3344
201341,3003,3004,3013,3012,3336,3337,3346,3345
201342,3004,3005,3014,3013,3337,3338,3347,3346
201343,3005,3006,3015,3014,3338,3339,3348,3347
201344,3007,3008,3017,3016,3340,3341,3350,3349
201345,3008,3009,3018,3017,3341,3342,3351,3350
201346,3009,3010,3019,3018,3342,3343,3352,3351
201347,3010,3011,3020,3019,3343,3344,3353,3352
201348,3011,3012,3021,3020,3344,3345,3354,3353
201349,3012,3013,3022,3021,3345,3346,3355,3354
201350,3013,3014,3023,3022,3346,3347,3356,3355
201351,3014,3015,3024,3023,3347,3348,3357,3356
201352,3016,3017,3026,3025,3349,3350,3359,3358
201353,3017,3018,3027,3026,3350,3351,3360,3359
201354,3018,3019,3028,3027,3351,3352,3361,3360
201355,3019,3020,3029,3028,3352,3353,3362,3361
201356,3020,3021,3030,3029,3353,3354,3363,3362
201357,3021,3022,3031,3030,3354,3355,3364,3363
201358,3022,3023,3032,3031,3355,3356,3365,3364
201359,3023,3024,3033,3032,3356,3357,3366,3365
201360,3025,3026,3035,3034,3358,3359,3368,3367
201361,3026,3027,3036,3035,3359,3360,3369,3368
201362,3027,3028,3037,3036,3360,3361,3370,3369
201363,3028,3029,3038,3037,3361,3362,3371,3370
201364,3029,3030,3039,3038,3362,3363,3372,3371
201365,3030,3031,3040,3039,3363,3364,3373,3372
201366,3031,3032,3041,3040,3364,3365,3374,3373
201367,3032,3033,3042,3041,3365,3366,3375,3374
201368,3034,3035,3044,3043,3367,3368,3377,3376
201369,3035,3036,3045,3044,3368,3369,3378,3377
201370,3036,3037,3046,3045,3369,3370,3379,3378
201371,3037,3038,3047,3046,3370,3371,3380,3379
201372,3038,3039,3048,3047,3371,3372,3381,3380
201373,3039,3040,3049,3048,3372,3373,3382,3381
201374,3040,3041,3050,3049,3373,3374,3383,3382
201375,3041,3042,3051,3050,3374,3375,3384,3383
201376,3043,3044,3053,3052,3376,3377,3386,3385
201377,3044,3045,3054,3053,3377,3378,3387,3386
201378,3045,3046,3055,3054,3378,3379,3388,3387
201379,3046,3047,3056,3055,3379,3380,3389,3388
201380,3047,3048,3057,3056,3380,3381,3390,3389
201381,3048,3049,3058,3057,3381,3382,3391,3390
201382,3049,3050,3059,3058,3382,3383,3392,3391
201383,3050,3051,3060,3059,3383,3384,3393,3392
201384,3052,3053,3062,3061,3385,3386,3395,3394
201385,3053,3054,3063,3062,3386,3387,3396,3395
201386,3054,3055,3064,3063,3387,3388,3397,3396
201387,3055,3056,3065,3064,3388,3389,3398,3397
201388,3056,3057,3066,3065,3389,3390,3399,3398
201389,3057,3058,3067,3066,3390,3391,3400,3399
201390,3058,3059,3068,3067,3391,3392,3401,3400
201391,3059,3060,3069,3068,3392,3393,3402,3401
201392,3061,3062,3071,3070,3394,3395,3404,3403
201393,3062,3063,3072,3071,3395,3396,3405,3404
201394,3063,3064,3073,3072,3396,3397,3406,3405
201395,3064,3065,3074,3073,3397,3398,3407,3406
201396,3065,3066,3075,3074,3398,3399,3408,3407
201397,3066,3067,3076,3075,3399,3400,3409,3408
201398,3067,3068,3077,3076,3400,3401,3410,3409
201399,3068,3069,3078,3077,3401,3402,3411,3410
201400,3070,3071,3080,3079,3403,3404,3413,3412
201401,3071,3072,3081,3080,3404,3405,3414,3413
201402,3072,3073,3082,3081,3405,3406,3415,3414
201403,3073,3074,3083,3082,3406,3407,3416,3415
201404,3074,3075,3084,3083,3407,3408,3417,3416
201405,3075,3076,3085,3084,3408,3409,3418,3417
201406,3076,3077,3086,3085,3409,3410,3419,3418
201407,3077,3078,3087,3086,3410,3411,3420,3419
201408,3079,3080,3089,3088,3412,3413,3422,3421
201409,3080,3081,3090,3089,3413,3414,3423,3422
201410,3081,3082,3091,3090,3414,3415,3424,3423
201411,3082,3083,3092,3091,3415,3416,3425,3424
201412,3083,3084,3093,3092,3416,3417,3426,3425
201413,3084,3085,3094,3093,3417,3418,3427,3426
201414,3085,3086,3095,3094,3418,3419,3428,3427
201415,3086,3087,3096,3095,3419,3420,3429,3428
201416,3088,3089,3098,3097,3421,3422,3431,3430
201417,3089,3090,3099,3098,3422,3423,3432,3431
201418,3090,3091,3100,3099,3423,3424,3433,3432
201419,3091,3092,3101,3100,3424,3425,3434,3433
201420,3092,3093,3102,3101,3425,3426,3435,3434
201421,3093,3094,3103,3102,3426,3427,3436,3435
201422,3094,3095,3104,3103,3427,3428,3437,3436
201423,3095,3096,3105,3104,3428,3429,3438,3437
201424,3097,3098,3107,3106,3430,3431,3440,3439
201425,3098,3099,3108,3107,3431,3432,3441,3440
201426,3099,3100,3109,3108,3432,3433,3442,3441
201427,3100,3101,3110,3109,3433,3434,3443,3442
201428,3101,3102,3111,3110,3434,3435,3444,3443
201429,3102,3103,3112,3111,3435,3436,3445,3444
201430,3103,3104,3113,3112,3436,3437,3446,3445
201431,3104,3105,3114,3113,3437,3438,3447,3446
201432,3106,3107,3116,3115,3439,3440,3449,3448
201433,3107,3108,3117,3116,3440,3441,3450,3449
201434,3108,3109,3118,3117,3441,3442,3451,3450
201435,3109,3110,3119,3118,3442,3443,3452,3451
201436,3110,3111,3120,3119,3443,3444,3453,3452
201437,3111,3112,3121,3120,3444,3445,3454,3453
201438,3112,3113,3122,3121,3445,3446,3455,3454
201439,3113,3114,3123,3122,3446,3447,3456,3455
201440,3124,3125,3134,3133,3457,3458,3467,3466
201441,3125,3126,3135,3134,3458,3459,3468,3467
201442,3126,3127,3136,3135,3459,3460,3469,3468
201443,3127,3128,3137,3136,3460,3461,3470,3469
201444,3128,3129,3138,3137,3461,3462,3471,3470
201445,3129,3130,3139,3138,3462,3463,3472,3471
201446,3130,3131,3140,3139,3463,3464,3473,3472
201447,3131,3132,3141,3140,3464,3465,3474,3473
201448,3133,3134,3143,3142,3466,3467,3476,3475
201449,3134,3135,3144,3143,3467,3468,3477,3476
201450,3135,3136,3145,3144,3468,3469,3478,3477
201451,3136,3137,3146,3145,3469,3470,3479,3478
201452,3137,3138,3147,3146,3470,3471,3480,3479
201453,3138,3139,3148,3147,3471,3472,3481,3480
201454,3139,3140,3149,3148,3472,3473,3482,3481
201455,3140,3141,3150,3149,3473,3474,3483,3482
201456,3142,3143,3152,3151,3475,3476,3485,3484
201457,3143,3144,3153,3152,3476,3477,3486,3485
201458,3144,3145,3154,3153,3477,3478,3487,3486
201459,3145,3146,3155,3154,3478,3479,3488,3487
201460,3146,3147,3156,3155,3479,3480,3489,3488
201461,3147,3148,3157,3156,3480,3481,3490,3489
201462,3148,3149,3158,3157,3481,3482,3491,3490
201463,3149,3150,3159,3158,3482,3483,3492,3491
201464,3151,3152,3161,3160,3484,3485,3494,3493
201465,3152,3153,3162,3161,3485,3486,3495,3494
201466,3153,3154,3163,3162,3486,3487,3496,3495
201467,3154,3155,3164,3163,3487,3488,3497,3496
201468,3155,3156,3165,3164,3488,3489,3498,3497
201469,3156,3157,3166,3165,3489,3490,3499,3498
201470,3157,3158,3167,3166,3490,3491,3500,3499
201471,3158,3159,3168,3167,3491,3492,3501,3500
201472,3160,3161,3170,3169,3493,3494,3503,3502
201473,3161,3162,3171,3170,3494,3495,3504,3503
201474,3162,3163,3172,3171,3495,3496,3505,3504
201475,3163,3164,3173,3172,3496,3497,3506,3505
201476,3164,3165,3174,3173,3497,3498,3507,3506
201477,3165,3166,3175,3174,3498,3499,3508,3507
201478,3166,3167,3176,3175,3499,3500,3509,3508
201479,3167,3168,3177,3176,3500,3501,3510,3509
201480,3169,3170,3179,3178,3502,3503,3512,3511
201481,3170,3171,3180,3179,3503,3504,3513,3512
201482,3171,3172,3181,3180,3504,3505,3514,3513
201483,3172,3173,3182,3181,3505,3506,3515,3514
201484,3173,3174,3183,3182,3506,3507,3516,3515
201485,3174,3175,3184,3183,3507,3508,3517,3516
201486,3175,3176,3185,3184,3508,3509,3518,3517
201487,3176,3177,3186,3185,3509,3510,3519,3518
201488,3178,3179,3188,3187,3511,3512,3521,3520
201489,3179,3180,3189,3188,3512,3513,3522,3521
201490,3180,3181,3190,3189,3513,3514,3523,3522
201491,3181,3182,3191,3190,3514,3515,3524,3523
201492,3182,3183,3192,3191,3515,3516,3525,3524
201493,3183,3184,3193,3192,3516,3517,3526,3525
201494,3184,3185,3194,3193,3517,3518,3527,3526
201495,3185,3186,3195,3194,3518,3519,3528,3527
201496,3187,3188,3197,3196,3520,3521,3530,3529
201497,3188,3189,3198,3197,3521,3522,3531,3530
201498,3189,3190,3199,3198,3522,3523,3532,3531
201499,3190,3191,3200,3199,3523,3524,3533,3532
201500,3191,3192,3201,3200,3524,3525,3534,3533
201501,3192,3193,3202,3201,3525,3526,3535,3534
201502,3193,3194,3203,3202,3526,3527,3536,3535
201503,3194,3195,3204,3203,3527,3528,3537,3536
201504,3196,3197,3206,3205,3529,3530,3539,3538
201505,3197,3198,3207,3206,3530,3531,3540,3539
201506,3198,3199,3208,3207,3531,3532,3541,3540
201507,3199,3200,3209,3208,3532,3533,3542,3541
201508,3200,3201,3210,3209,3533,3534,3543,3542
201509,3201,3202,3211,3210,3534,3535,3544,3543
201510,3202,3203,3212,3211,3535,3536,3545,3544
201511,3203,3204,3213,3212,3536,3537,3546,3545
201512,3205,3206,3215,3214,3538,3539,3548,3547
201513,3206,3207,3216,3215,3539,3540,3549,3548
201514,3207,3208,3217,3216,3540,3541,3550,3549
201515,3208,3209,3218,3217,3541,3542,3551,3550
201516,3209,3210,3219,3218,3542,3543,3552,3551
201517,3210,3211,3220,3219,3543,3544,3553,3552
201518,3211,3212,3221,3220,3544,3545,3554,3553
201519,3212,3213,3222,3221,3545,3546,3555,3554
201520,3214,3215,3224,3223,3547,3548,3557,3556
201521,3215,3216,3225,3224,3548,3549,3558,3557
201522,3216,3217,3226,3225,3549,3550,3559,3558
201523,3217,3218,3227,3226,3550,3551,3560,3559
201524,3218,3219,3228,3227,3551,3552,3561,3560
201525,3219,3220,3229,3228,3552,3553,3562,3561
201526,3220,3221,3230,3229,3553,3554,3563,3562
201527,3221,3222,3231,3230,3554,3555,3564,3563
201528,3223,3224,3233,3232,3556,3557,3566,3565
201529,3224,3225,3234,3233,3557,3558,3567,3566
201530,3225,3226,3235,3234,3558,3559,3568,3567
201531,3226,3227,3236,3235,3559,3560,3569,3568
201532,3227,3228,3237,3236,3560,3561,3570,3569
201533,3228,3229,3238,3237,3561,3562,3571,3570
201534,3229,3230,3239,3238,3562,3563,3572,3571
201535,3230,3231,3240,3239,3563,3564,3573,3572
201536,3232,3233,3242,3241,3565,3566,3575,3574
201537,3233,3234,3243,3242,3566,3567,3576,3575
201538,3234,3235,3244,3243,3567,3568,3577,3576
201539,3235,3236,3245,3244,3568,3569,3578,3577
201540,3236,3237,3246,3245,3569,3570,3579,3578
201541,3237,3238,3247,3246,3570,3571,3580,3579
201542,3238,3239,3248,3247,3571,3572,3581,3580
201543,3239,3240,3249,3248,3572,3573,3582,3581
201544,3241,3242,3251,3250,3574,3575,3584,3583
201545,3242,3243,3252,3251,3575,3576,3585,3584
201546,3243,3244,3253,3252,3576,3577,3586,3585
201547,3244,3245,3254,3253,3577,3578,3587,3586
201548,3245,3246,3255,3254,3578,3579,3588,3587
201549,3246,3247,3256,3255,3579,3580,3589,3588
201550,3247,3248,3257,3256,3580,3581,3590,3589
201551,3248,3249,3258,3257,3581,3582,3591,3590
201552,3250,3251,3260,3259,3583,3584,3593,3592
201553,3251,3252,3261,3260,3584,3585,3594,3593
201554,3252,3253,3262,3261,3585,3586,3595,3594
201555,3253,3254,3263,3262,3586,3587,3596,3595
201556,3254,3255,3264,3263,3587,3588,3597,3596
201557,3255,3256,3265,3264,3588,3589,3598,3597
201558,3256,3257,3266,3265,3589,3590,3599,3598
201559,3257,3258,3267,3266,3590,3591,3600,3599
201560,3259,3260,3269,3268,3592,3593,3602,3601
201561,3260,3261,3270,3269,3593,3594,3603,3602
201562,3261,3262,3271,3270,3594,3595,3604,3603
201563,3262,3263,3272,3271,3595,3596,3605,3604
201564,3263,3264,3273,3272,3596,3597,3606,3605
201565,3264,3265,3274,3273,3597,3598,3607,3606
201566,3265,3266,3275,3274,3598,3599,3608,3607
201567,3266,3267,3276,3275,3599,3600,3609,3608
201568,3268,3269,3278,3277,3601,3602,3611,3610
201569,3269,3270,3279,3278,3602,3603,3612,3611
201570,3270,3271,3280,3279,3603,3604,3613,3612
201571,3271,3272,3281,3280,3604,3605,3614,3613
201572,3272,3273,3282,3281,3605,3606,3615,3614
201573,3273,3274,3283,3282,3606,3607,3616,3615
201574,3274,3275,3284,3283,3607,3608,3617,3616
201575,3275,3276,3285,3284,3608,3609,3618,3617
201576,3277,3278,3287,3286,3610,3611,3620,3619
201577,3278,3279,3288,3287,3611,3612,3621,3620
201578,3279,3280,3289,3288,3612,3613,3622,3621
201579,3280,3281,3290,3289,3613,3614,3623,3622
201580,3281,3282,3291,3290,3614,3615,3624,3623
201581,3282,3283,3292,3291,3615,3616,3625,3624
201582,3283,3284,3293,3292,3616,3617,3626,3625
201583,3284,3285,3294,3293,3617,3618,3627,3626
201584,3286,3287,3296,3295,3619,3620,3629,3628
201585,3287,3288,3297,3296,3620,3621,3630,3629
201586,3288,3289,3298,3297,3621,3622,3631,3630
201587,3289,3290,3299,3298,3622,3623,3632,3631
201588,3290,3291,3300,3299,3623,3624,3633,3632
201589,3291,3292,3301,3300,3624,3625,3634,3633
201590,3292,3293,3302,3301,3625,3626,3635,3634
201591,3293,3294,3303,3302,3626,3627,3636,3635
201592,3295,3296,3305,3304,3628,3629,3638,3637
201593,3296,3297,3306,3305,3629,3630,3639,3638
201594,3297,3298,3307,3306,3630,3631,3640,3639
201595,3298,3299,3308,3307,3631,3632,3641,3640
201596,3299,3300,3309,3308,3632,3633,3642,3641
201597,3300,3301,3310,3309,3633,3634,3643,3642
201598,3301,3302,3311,3310,3634,3635,3644,3643
201599,3302,3303,3312,3311,3635,3636,3645,3644
201600,3304,3305,3314,3313,3637,3638,3647,3646
201601,3305,3306,3315,3314,3638,3639,3648,3647
201602,3306,3307,3316,3315,3639,3640,3649,3648
201603,3307,3308,3317,3316,3640,3641,3650,3649
201604,3308,3309,3318,3317,3641,3642,3651,3650
201605,3309,3310,3319,3318,3642,3643,3652,3651
201606,3310,3311,3320,3319,3643,3644,3653,3652
201607,3311,3312,3321,3320,3644,3645,3654,3653
201608,3313,3314,3323,3322,3646,3647,3656,3655
201609,3314,3315,3324,3323,3647,3648,3657,3656
201610,3315,3316,3325,3324,3648,3649,3658,3657
201611,3316,3317,3326,3325,3649,3650,3659,3658
201612,3317,3318,3327,3326,3650,3651,3660,3659
201613,3318,3319,3328,3327,3651,3652,3661,3660
201614,3319,3320,3329,3328,3652,3653,3662,3661
201615,3320,3321,3330,3329,3653,3654,3663,3662
201616,3322,3323,3332,3331,3655,3656,3665,3664
201617,3323,3324,3333,3332,3656,3657,3666,3665
201618,3324,3325,3334,3333,3657,3658,3667,3666
201619,3325,3326,3335,3334,3658,3659,3668,3667
201620,3326,3327,3336,3335,3659,3660,3669,3668
201621,3327,3328,3337,3336,3660,3661,3670,3669
201622,3328,3329,3338,3337,3661,3662,3671,3670
201623,3329,3330,3339,3338,3662,3663,3672,3671
201624,3331,3332,3341,3340,3664,3665,3674,3673
201625,3332,3333,3342,3341,3665,3666,3675,3674
201626,3333,3334,3343,3342,3666,3667,3676,3675
201627,3334,3335,3344,3343,3667,3668,3677,3676
201628,3335,3336,3345,3344,3668,3669,3678,3677
201629,3336,3337,3346,3345,3669,3670,3679,3678
201630,3337,3338,3347,3346,3670,3671,3680,3679
201631,3338,3339,3348,3347,3671,3672,3681,3680
201632,3340,3341,3350,3349,3673,3674,3683,3682
201633,3341,3342,3351,3350,3674,3675,3684,3683
201634,3342,3343,3352,3351,3675,3676,3685,3684
201635,3343,3344,3353,3352,3676,3677,3686,3685
201636,3344,3345,3354,3353,3677,3678,3687,3686
201637,3345,3346,3355,3354,3678,3679,3688,3687
201638,3346,3347,3356,3355,3679,3680,3689,3688
201639,3347,3348,3357,3356,3680,3681,3690,3689
201640,3349,3350,3359,3358,3682,3683,3692,3691
201641,3350,3351,3360,3359,3683,3684,3693,3692
201642,3351,3352,3361,3360,3684,3685,3694,3693
201643,3352,3353,3362,3361,3685,3686,3695,3694
201644,3353,3354,3363,3362,3686,3687,3696,3695
201645,3354,3355,3364,3363,3687,3688,3697,3696
201646,3355,3356,3365,3364,3688,3689,3698,3697
201647,3356,3357,3366,3365,3689,3690,3699,3698
201648,3358,3359,3368,3367,3691,3692,3701,3700
201649,3359,3360,3369,3368,3692,3693,3702,3701
201650,3360,3361,3370,3369,3693,3694,3703,3702
201651,3361,3362,3371,3370,3694,3695,3704,3703
201652,3362,3363,3372,3371,3695,3696,3705,3704
201653,3363,3364,3373,3372,3696,3697,3706,3705
201654,3364,3365,3374,3373,3697,3698,3707,3706
201655,3365,3366,3375,3374,3698,3699,3708,3707
201656,3367,3368,3377,3376,3700,3701,3710,3709
201657,3368,3369,3378,3377,3701,3702,3711,3710
201658,3369,3370,3379,3378,3702,3703,3712,3711
201659,3370,3371,3380,3379,3703,3704,3713,3712
201660,3371,3372,3381,3380,3704,3705,3714,3713
201661,3372,3373,3382,3381,3705,3706,3715,3714
201662,3373,3374,3383,3382,3706,3707,3716,3715
201663,3374,3375,3384,3383,3707,3708,3717,3716
201664,3376,3377,3386,3385,3709,3710,3719,3718
201665,3377,3378,3387,3386,3710,3711,3720,3719
201666,3378,3379,3388,3387,3711,3712,3721,3720
201667,3379,3380,3389,3388,3712,3713,3722,3721
201668,3380,3381,3390,3389,3713,3714,3723,3722
201669,3381,3382,3391,3390,3714,3715,3724,3723
201670,3382,3383,3392,3391,3715,3716,3725,3724
201671,3383,3384,3393,3392,3716,3717,3726,3725
201672,3385,3386,3395,3394,3718,3719,3728,3727
201673,3386,3387,3396,3395,3719,3720,3729,3728
201674,3387,3388,3397,3396,3720,3721,3730,3729
201675,3388,3389,3398,3397,3721,3722,3731,3730
201676,3389,3390,3399,3398,3722,3723,3732,3731
201677,3390,3391,3400,3399,3723,3724,3733,3732
201678,3391,3392,3401,3400,3724,3725,3734,3733
201679,3392,3393,3402,3401,3725,3726,3735,3734
201680,3394,3395,3404,3403,3727,3728,3737,3736
201681,3395,3396,3405,3404,3728,3729,3738,3737
201682,3396,3397,3406,3405,3729,3730,3739,3738
201683,3397,3398,3407,3406,3730,3731,3740,3739
201684,3398,3399,3408,3407,3731,3732,3741,3740
201685,3399,3400,3409,3408,3732,3733,3742,3741
201686,3400,3401,3410,3409,3733,3734,3743,3742
201687,3401,3402,3411,3410,3734,3735,3744,3743
201688,3403,3404,3413,3412,3736,3737,3746,3745
201689,3404,3405,3414,3413,3737,3738,3747,3746
201690,3405,3406,3415,3414,3738,3739,3748,3747
201691,3406,3407,3416,3415,3739,3740,3749,3748
201692,3407,3408,3417,3416,3740,3741,3750,3749
201693,3408,3409,3418,3417,3741,3742,3751,3750
201694,3409,3410,3419,3418,3742,3743,3752,3751
201695,3410,3411,3420,3419,3743,3744,3753,3752
201696,3412,3413,3422,3421,3745,3746,3755,3754
201697,3413,3414,3423,3422,3746,3747,3756,3755
201698,3414,3415,3424,3423,3747,3748,3757,3756
201699,3415,3416,3425,3424,3748,3749,3758,3757
201700,3416,3417,3426,3425,3749,3750,3759,3758
201701,3417,3418,3427,3426,3750,3751,3760,3759
201702,3418,3419,3428,3427,3751,3752,3761,3760
201703,3419,3420,3429,3428,3752,3753,3762,3761
201704,3421,3422,3431,3430,3754,3755,3764,3763
201705,3422,3423,3432,3431,3755,3756,3765,3764
201706,3423,3424,3433,3432,3756,3757,3766,3765
201707,3424,3425,3434,3433,3757,3758,3767,3766
201708,3425,3426,3435,3434,3758,3759,3768,3767
201709,3426,3427,3436,3435,3759,3760,3769,3768
201710,3427,3428,3437,3436,3760,3761,3770,3769
201711,3428,3429,3438,3437,3761,3762,3771,3770
201712,3430,3431,3440,3439,3763,3764,3773,3772
201713,3431,3432,3441,3440,3764,3765,3774,3773
201714,3432,3433,3442,3441,3765,3766,3775,3774
201715,3433,3434,3443,3442,3766,3767,3776,3775
201716,3434,3435,3444,3443,3767,3768,3777,3776
201717,3435,3436,3445,3444,3768,3769,3778,3777
201718,3436,3437,3446,3445,3769,3770,3779,3778
201719,3437,3438,3447,3446,3770,3771,3780,3779
201720,3439,3440,3449,3448,3772,3773,3782,3781
201721,3440,3441,3450,3449,3773,3774,3783,3782
201722,3441,3442,3451,3450,3774,3775,3784,3783
201723,3442,3443,3452,3451,3775,3776,3785,3784
201724,3443,3444,3453,3452,3776,3777,3786,3785
201725,3444,3445,3454,3453,3777,3778,3787,3786
201726,3445,3446,3455,3454,3778,3779,3788,3787
201727,3446,3447,3456,3455,3779,3780,3789,3788
201728,3457,3458,3467,3466,3790,3791,3800,3799
201729,3458,3459,3468,3467,3791,3792,3801,3800
201730,3459,3460,3469,3468,3792,3793,3802,3801
201731,3460,3461,3470,3469,3793,3794,3803,3802
201732,3461,3462,3471,3470,3794,3795,3804,3803
201733,3462,3463,3472,3471,3795,3796,3805,3804
201734,3463,3464,3473,3472,3796,3797,3806,3805
201735,3464,3465,3474,3473,3797,3798,3807,3806
201736,3466,3467,3476,3475,3799,3800,3809,3808
201737,3467,3468,3477,3476,3800,3801,3810,3809
201738,3468,3469,3478,3477,3801,3802,3811,3810
201739,3469,3470,3479,3478,3802,3803,3812,3811
201740,3470,3471,3480,3479,3803,3804,3813,3812
201741,3471,3472,3481,3480,3804,3805,3814,3813
201742,3472,3473,3482,3481,3805,3806,3815,3814
201743,3473,3474,3483,3482,3806,3807,3816,3815
201744,3475,3476,3485,3484,3808,3809,3818,3817
201745,3476,3477,3486,3485,3809,3810,3819,3818
201746,3477,3478,3487,3486,3810,3811,3820,3819
201747,3478,3479,3488,3487,3811,3812,3821,3820
201748,3479,3480,3489,3488,3812,3813,3822,3821
201749,3480,3481,3490,3489,3813,3814,3823,3822
201750,3481,3482,3491,3490,3814,3815,3824,3823
201751,3482,3483,3492,3491,3815,3816,3825,3824
201752,3484,3485,3494,3493,3817,3818,3827,3826
201753,3485,3486,3495,3494,3818,3819,3828,3827
201754,3486,3487,3496,3495,3819,3820,3829,3828
201755,3487,3488,3497,3496,3820,3821,3830,3829
201756,3488,3489,3498,3497,3821,3822,3831,3830
201757,3489,3490,3499,3498,3822,3823,3832,3831
201758,3490,3491,3500,3499,3823,3824,3833,3832
201759,3491,3492,3501,3500,3824,3825,3834,3833
201760,3493,3494,3503,3502,3826,3827,3836,3835
201761,3494,3495,3504,3503,3827,3828,3837,3836
201762,3495,3496,3505,3504,3828,3829,3838,3837
201763,3496,3497,3506,3505,3829,3830,3839,3838
201764,3497,3498,3507,3506,3830,3831,3840,3839
201765,3498,3499,3508,3507,3831,3832,3841,3840
201766,3499,3500,3509,3508,3832,3833,3842,3841
201767,3500,3501,3510,3509,3833,3834,3843,3842
201768,3502,3503,3512,3511,3835,3836,3845,3844
201769,3503,3504,3513,3512,3836,3837,3846,3845
201770,3504,3505,3514,3513,3837,3838,3847,3846
201771,3505,3506,3515,3514,3838,3839,3848,3847
201772,3506,3507,3516,3515,3839,3840,3849,3848
201773,3507,3508,3517,3516,3840,3841,3850,3849
201774,3508,3509,3518,3517,3841,3842,3851,3850
201775,3509,3510,3519,3518,3842,3843,3852,3851
201776,3511,3512,3521,3520,3844,3845,3854,3853
201777,3512,3513,3522,3521,3845,3846,3855,3854
201778,3513,3514,3523,3522,3846,3847,3856,3855
201779,3514,3515,3524,3523,3847,3848,3857,3856
201780,3515,3516,3525,3524,3848,3849,3858,3857
201781,3516,3517,3526,3525,3849,3850,3859,3858
201782,3517,3518,3527,3526,3850,3851,3860,3859
201783,3518,3519,3528,3527,3851,3852,3861,3860
201784,3520,3521,3530,3529,3853,3854,3863,3862
201785,3521,3522,3531,3530,3854,3855,3864,3863
201786,3522,3523,3532,3531,3855,3856,3865,3864
201787,3523,3524,3533,3532,3856,3857,3866,3865
201788,3524,3525,3534,3533,3857,3858,3867,3866
201789,3525,3526,3535,3534,3858,3859,3868,3867
201790,3526,3527,3536,3535,3859,3860,3869,3868
201791,3527,3528,3537,3536,3860,3861,3870,3869
201792,3529,3530,3539,3538,3862,3863,3872,3871
201793,3530,3531,3540,3539,3863,3864,3873,3872
201794,3531,3532,3541,3540,3864,3865,3874,3873
201795,3532,3533,3542,3541,3865,3866,3875,3874
201796,3533,3534,3543,3542,3866,3867,3876,3875
201797,3534,3535,3544,3543,3867,3868,3877,3876
201798,3535,3536,3545,3544,3868,3869,3878,3877
201799,3536,3537,3546,3545,3869,3870,3879,3878
201800,3538,3539,3548,3547,3871,3872,3881,3880
201801,3539,3540,3549,3548,3872,3873,3882,3881
201802,3540,3541,3550,3549,3873,3874,3883,3882
201803,3541,3542,3551,3550,3874,3875,3884,3883
201804,3542,3543,3552,3551,3875,3876,3885,3884
201805,3543,3544,3553,3552,3876,3877,3886,3885
201806,3544,3545,3554,3553,3877,3878,3887,3886
201807,3545,3546,3555,3554,3878,3879,3888,3887
201808,3547,3548,3557,3556,3880,3881,3890,3889
201809,3548,3549,3558,3557,3881,3882,3891,3890
201810,3549,3550,3559,3558,3882,3883,3892,3891
201811,3550,3551,3560,3559,3883,3884,3893,3892
201812,3551,3552,3561,3560,3884,3885,3894,3893
201813,3552,3553,3562,3561,3885,3886,3895,3894
201814,3553,3554,3563,3562,3886,3887,3896,3895
201815,3554,3555,3564,3563,3887,3888,3897,3896
201816,3556,3557,3566,3565,3889,3890,3899,3898
201817,3557,3558,3567,3566,3890,3891,3900,3899
201818,3558,3559,3568,3567,3891,3892,3901,3900
201819,3559,3560,3569,3568,3892,3893,3902,3901
201820,3560,3561,3570,3569,3893,3894,3903,3902
201821,3561,3562,3571,3570,3894,3895,3904,3903
201822,3562,3563,3572,3571,3895,3896,3905,3904
201823,3563,3564,3573,3572,3896,3897,3906,3905
201824,3565,3566,3575,3574,3898,3899,3908,3907
201825,3566,3567,3576,3575,3899,3900,3909,3908
201826,3567,3568,3577,3576,3900,3901,3910,3909
201827,3568,3569,3578,3577,3901,3902,3911,3910
201828,3569,3570,3579,3578,3902,3903,3912,3911
201829,3570,3571,3580,3579,3903,3904,3913,3912
201830,3571,3572,3581,3580,3904,3905,3914,3913
201831,3572,3573,3582,3581,3905,3906,3915,3914
201832,3574,3575,3584,3583,3907,3908,3917,3916
201833,3575,3576,3585,3584,3908,3909,3918,3917
201834,3576,3577,3586,3585,3909,3910,3919,3918
201835,3577,3578,3587,3586,3910,3911,3920,3919
201836,3578,3579,3588,3587,3911,3912,3921,3920
201837,3579,3580,3589,3588,3912,3913,3922,3921
201838,3580,3581,3590,3589,3913,3914,3923,3922
201839,3581,3582,3591,3590,3914,3915,3924,3923
201840,3583,3584,3593,3592,3916,3917,3926,3925
201841,3584,3585,3594,3593,3917,3918,3927,3926
201842,3585,3586,3595,3594,3918,3919,3928,3927
201843,3586,3587,3596,3595,3919,3920,3929,3928
201844,3587,3588,3597,3596,3920,3921,3930,3929
201845,3588,3589,3598,3597,3921,3922,3931,3930
201846,3589,3590,3599,3598,3922,3923,3932,3931
201847,3590,3591,3600,3599,3923,3924,3933,3932
201848,3592,3593,3602,3601,3925,3926,3935,3934
201849,3593,3594,3603,3602,3926,3927,3936,3935
201850,3594,3595,3604,3603,3927,3928,3937,3936
201851,3595,3596,3605,3604,3928,3929,3938,3937
201852,3596,3597,3606,3605,3929,3930,3939,3938
201853,3597,3598,3607,3606,3930,3931,3940,3939
201854,3598,3599,3608,3607,3931,3932,3941,3940
201855,3599,3600,3609,3608,3932,3933,3942,3941
201856,3601,3602,3611,3610,3934,3935,3944,3943
201857,3602,3603,3612,3611,3935,3936,3945,3944
201858,3603,3604,3613,3612,3936,3937,3946,3945
201859,3604,3605,3614,3613,3937,3938,3947,3946
201860,3605,3606,3615,3614,3938,3939,3948,3947
201861,3606,3607,3616,3615,3939,3940,3949,3948
201862,3607,3608,3617,3616,3940,3941,3950,3949
201863,3608,3609,3618,3617,3941,3942,3951,3950
201864,3610,3611,3620,3619,3943,3944,3953,3952
201865,3611,3612,3621,3620,3944,3945,3954,3953
201866,3612,3613,3622,3621,3945,3946,3955,3954
201867,3613,3614,3623,3622,3946,3947,3956,3955
201868,3614,3615,3624,3623,3947,3948,3957,3956
201869,3615,3616,3625,3624,3948,3949,3958,3957
201870,3616,3617,3626,3625,3949,3950,3959,3958
201871,3617,3618,3627,3626,3950,3951,3960,3959
201872,3619,3620,3629,3628,3952,3953,3962,3961
201873,3620,3621,3630,3629,3953,3954,3963,3962
201874,3621,3622,3631,3630,3954,3955,3964,3963
201875,3622,3623,3632,3631,3955,3956,3965,3964
201876,3623,3624,3633,3632,3956,3957,3966,3965
201877,3624,3625,3634,3633,3957,3958,3967,3966
201878,3625,3626,3635,3634,3958,3959,3968,3967
201879,3626,3627,3636,3635,3959,3960,3969,3968
201880,3628,3629,3638,3637,3961,3962,3971,3970
201881,3629,3630,3639,3638,3962,3963,3972,3971
201882,3630,3631,3640,3639,3963,3964,3973,3972
201883,3631,3632,3641,3640,3964,3965,3974,3973
201884,3632,3633,3642,3641,3965,3966,3975,3974
201885,3633,3634,3643,3642,3966,3967,3976,3975
201886,3634,3635,3644,3643,3967,3968,3977,3976
201887,3635,3636,3645,3644,3968,3969,3978,3977
201888,3637,3638,3647,3646,3970,3971,3980,3979
201889,3638,3639,3648,3647,3971,3972,3981,3980
201890,3639,3640,3649,3648,3972,3973,3982,3981
201891,3640,3641,3650,3649,3973,3974,3983,3982
201892,3641,3642,3651,3650,3974,3975,3984,3983
201893,3642,3643,3652,3651,3975,3976,3985,3984
201894,3643,3644,3653,3652,3976,3977,3986,3985
201895,3644,3645,3654,3653,3977,3978,3987,3986
201896,3646,3647,3656,3655,3979,3980,3989,3988
201897,3647,3648,3657,3656,3980,3981,3990,3989
201898,3648,3649,3658,3657,3981,3982,3991,3990
201899,3649,3650,3659,3658,3982,3983,3992,3991
201900,3650,3651,3660,3659,3983,3984,3993,3992
201901,3651,3652,3661,3660,3984,3985,3994,3993
201902,3652,3653,3662,3661,3985,3986,3995,3994
201903,3653,3654,3663,3662,3986,3987,3996,3995
201904,3655,3656,3665,3664,3988,3989,3998,3997
201905,3656,3657,3666,3665,3989,3990,3999,3998
201906,3657,3658,3667,3666,3990,3991,4000,3999
201907,3658,3659,3668,3667,3991,3992,4001,4000
201908,3659,3660,3669,3668,3992,3993,4002,4001
201909,3660,3661,3670,3669,3993,3994,4003,4002
201910,3661,3662,3671,3670,3994,3995,4004,4003
201911,3662,3663,3672,3671,3995,3996,4005,4004
201912,3664,3665,3674,3673,3997,3998,4007,4006
201913,3665,3666,3675,3674,3998,3999,4008,4007
201914,3666,3667,3676,3675,3999,4000,4009,4008
201915,3667,3668,3677,3676,4000,4001,4010,4009
201916,3668,3669,3678,3677,4001,4002,4011,4010
201917,3669,3670,3679,3678,4002,4003,4012,4011
201918,3670,3671,3680,3679,4003,4004,4013,4012
201919,3671,3672,3681,3680,4004,4005,4014,4013
201920,3673,3674,3683,3682,4006,4007,4016,4015
201921,3674,3675,3684,3683,4007,4008,4017,4016
201922,3675,3676,3685,3684,4008,4009,4018,4017
201923,3676,3677,3686,3685,4009,4010,4019,4018
201924,3677,3678,3687,3686,4010,4011,4020,4019
201925,3678,3679,3688,3687,4011,4012,4021,4020
201926,3679,3680,3689,3688,4012,4013,4022,4021
201927,3680,3681,3690,3689,4013,4014,4023,4022
201928,3682,3683,3692,3691,4015,4016,4025,4024
201929,3683,3684,3693,3692,4016,4017,4026,4025
201930,3684,3685,3694,3693,4017,4018,4027,4026
201931,3685,3686,3695,3694,4018,4019,4028,4027
201932,3686,3687,3696,3695,4019,4020,4029,4028
201933,3687,3688,3697,3696,4020,4021,4030,4029
201934,3688,3689,3698,3697,4021,4022,4031,4030
201935,3689,3690,3699,3698,4022,4023,4032,4031
201936,3691,3692,3701,3700,4024,4025,4034,4033
201937,3692,3693,3702,3701,4025,4026,4035,4034
201938,3693,3694,3703,3702,4026,4027,4036,4035
201939,3694,3695,3704,3703,4027,4028,4037,4036
201940,3695,3696,3705,3704,4028,4029,4038,4037
201941,3696,3697,3706,3705,4029,4030,4039,4038
201942,3697,3698,3707,3706,4030,4031,4040,4039
201943,3698,3699,3708,3707,4031,4032,4041,4040
201944,3700,3701,3710,3709,4033,4034,4043,4042
201945,3701,3702,3711,3710,4034,4035,4044,4043
201946,3702,3703,3712,3711,4035,4036,4045,4044
201947,3703,3704,3713,3712,4036,4037,4046,4045
201948,3704,3705,3714,3713,4037,4038,4047,4046
201949,3705,3706,3715,3714,4038,4039,4048,4047
201950,3706,3707,3716,3715,4039,4040,4049,4048
201951,3707,3708,3717,3716,4040,4041,4050,4049
201952,3709,3710,3719,3718,4042,4043,4052,4051
201953,3710,3711,3720,3719,4043,4044,4053,4052
201954,3711,3712,3721,3720,4044,4045,4054,4053
201955,3712,3713,3722,3721,4045,4046,4055,4054
201956,3713,3714,3723,3722,4046,4047,4056,4055
201957,3714,3715,3724,3723,4047,4048,4057,4056
201958,3715,3716,3725,3724,4048,4049,4058,4057
201959,3716,3717,3726,3725,4049,4050,4059,4058
201960,3718,3719,3728,3727,4051,4052,4061,4060
201961,3719,3720,3729,3728,4052,4053,4062,4061
201962,3720,3721,3730,3729,4053,4054,4063,4062
201963,3721,3722,3731,3730,4054,4055,4064,4063
201964,3722,3723,3732,3731,4055,4056,4065,4064
201965,3723,3724,3733,3732,4056,4057,4066,4065
201966,3724,3725,3734,3733,4057,4058,4067,4066
201967,3725,3726,3735,3734,4058,4059,4068,4067
201968,3727,3728,3737,3736,4060,4061,4070,4069
201969,3728,3729,3738,3737,4061,4062,4071,4070
201970,3729,3730,3739,3738,4062,4063,4072,4071
201971,3730,3731,3740,3739,4063,4064,4073,4072
201972,3731,3732,3741,3740,4064,4065,4074,4073
201973,3732,3733,3742,3741,4065,4066,4075,4074
201974,3733,3734,3743,3742,4066,4067,4076,4075
201975,3734,3735,3744,3743,4067,4068,4077,4076
201976,3736,3737,3746,3745,4069,4070,4079,4078
201977,3737,3738,3747,3746,4070,4071,4080,4079
201978,3738,3739,3748,3747,4071,4072,4081,4080
201979,3739,3740,3749,3748,4072,4073,4082,4081
201980,3740,3741,3750,3749,4073,4074,4083,4082
201981,3741,3742,3751,3750,4074,4075,4084,4083
201982,3742,3743,3752,3751,4075,4076,4085,4084
201983,3743,3744,3753,3752,4076,4077,4086,4085
201984,3745,3746,3755,3754,4078,4079,4088,4087
201985,3746,3747,3756,3755,4079,4080,4089,4088
201986,3747,3748,3757,3756,4080,4081,4090,4089
201987,3748,3749,3758,3757,4081,4082,4091,4090
201988,3749,3750,3759,3758,4082,4083,4092,4091
201989,3750,3751,3760,3759,4083,4084,4093,4092
201990,3751,3752,3761,3760,4084,4085,4094,4093
201991,3752,3753,3762,3761,4085,4086,4095,4094
201992,3754,3755,3764,3763,4087,4088,4097,4096
201993,3755,3756,3765,3764,4088,4089,4098,4097
201994,3756,3757,3766,3765,4089,4090,4099,4098
201995,3757,3758,3767,3766,4090,4091,4100,4099
201996,3758,3759,3768,3767,4091,4092,4101,4100
201997,3759,3760,3769,3768,4092,4093,4102,4101
201998,3760,3761,3770,3769,4093,4094,4103,4102
201999,3761,3762,3771,3770,4094,4095,4104,4103
202000,3763,3764,3773,3772,4096,4097,4106,4105
202001,3764,3765,3774,3773,4097,4098,4107,4106
202002,3765,3766,3775,3774,4098,4099,4108,4107
202003,3766,3767,3776,3775,4099,4100,4109,4108
202004,3767,3768,3777,3776,4100,4101,4110,4109
202005,3768,3769,3778,3777,4101,4102,4111,4110
202006,3769,3770,3779,3778,4102,4103,4112,4111
202007,3770,3771,3780,3779,4103,4104,4113,4112
202008,3772,3773,3782,3781,4105,4106,4115,4114
202009,3773,3774,3783,3782,4106,4107,4116,4115
202010,3774,3775,3784,3783,4107,4108,4117,4116
202011,3775,3776,3785,3784,4108,4109,4118,4117
202012,3776,3777,3786,3785,4109,4110,4119,4118
202013,3777,3778,3787,3786,4110,4111,4120,4119
202014,3778,3779,3788,3787,4111,4112,4121,4120
202015,3779,3780,3789,3788,4112,4113,4122,4121
202016,3790,3791,3800,3799,4123,4124,4133,4132
202017,3791,3792,3801,3800,4124,4125,4134,4133
202018,3792,3793,3802,3801,4125,4126,4135,4134
202019,3793,3794,3803,3802,4126,4127,4136,4135
202020,3794,3795,3804,3803,4127,4128,4137,4136
202021,3795,3796,3805,3804,4128,4129,4138,4137
202022,3796,3797,3806,3805,4129,4130,4139,4138
202023,3797,3798,3807,3806,4130,4131,4140,4139
202024,3799,3800,3809,3808,4132,4133,4142,4141
202025,3800,3801,3810,3809,4133,4134,4143,4142
202026,3801,3802,3811,3810,4134,4135,4144,4143
202027,3802,3803,3812,3811,4135,4136,4145,4144
202028,3803,3804,3813,3812,4136,4137,4146,4145
202029,3804,3805,3814,3813,4137,4138,4147,4146
202030,3805,3806,3815,3814,4138,4139,4148,4147
202031,3806,3807,3816,3815,4139,4140,4149,4148
202032,3808,3809,3818,3817,4141,4142,4151,4150
202033,3809,3810,3819,3818,4142,4143,4152,4151
202034,3810,3811,3820,3819,4143,4144,4153,4152
202035,3811,3812,3821,3820,4144,4145,4154,4153
202036,3812,3813,3822,3821,4145,4146,4155,4154
202037,3813,3814,3823,3822,4146,4147,4156,4155
202038,3814,3815,3824,3823,4147,4148,4157,4156
202039,3815,3816,3825,3824,4148,4149,4158,4157
202040,3817,3818,3827,3826,4150,4151,4160,4159
202041,3818,3819,3828,3827,4151,4152,4161,4160
202042,3819,3820,3829,3828,4152,4153,4162,4161
202043,3820,3821,3830,3829,4153,4154,4163,4162
202044,3821,3822,3831,3830,4154,4155,4164,4163
202045,3822,3823,3832,3831,4155,4156,4165,4164
202046,3823,3824,3833,3832,4156,4157,4166,4165
202047,3824,3825,3834,3833,4157,4158,4167,4166
202048,3826,3827,3836,3835,4159,4160,4169,4168
202049,3827,3828,3837,3836,4160,4161,4170,4169
202050,3828,3829,3838,3837,4161,4162,4171,4170
202051,3829,3830,3839,3838,4162,4163,4172,4171
202052,3830,3831,3840,3839,4163,4164,4173,4172
202053,3831,3832,3841,3840,4164,4165,4174,4173
202054,3832,3833,3842,3841,4165,4166,4175,4174
202055,3833,3834,3843,3842,4166,4167,4176,4175
202056,3835,3836,3845,3844,4168,4169,4178,4177
202057,3836,3837,3846,3845,4169,4170,4179,4178
202058,3837,3838,3847,3846,4170,4171,4180,4179
202059,3838,3839,3848,3847,4171,4172,4181,4180
202060,3839,3840,3849,3848,4172,4173,4182,4181
202061,3840,3841,3850,3849,4173,4174,4183,4182
202062,3841,3842,3851,3850,4174,4175,4184,4183
202063,3842,3843,3852,3851,4175,4176,4185,4184
202064,3844,3845,3854,3853,4177,4178,4187,4186
202065,3845,3846,3855,3854,4178,4179,4188,4187
202066,3846,3847,3856,3855,4179,4180,4189,4188
202067,3847,3848,3857,3856,4180,4181,4190,4189
202068,3848,3849,3858,3857,4181,4182,4191,4190
202069,3849,3850,3859,3858,4182,4183,4192,4191
202070,3850,3851,3860,3859,4183,4184,4193,4192
202071,3851,3852,3861,3860,4184,4185,4194,4193
202072,3853,3854,3863,3862,4186,4187,4196,4195
202073,3854,3855,3864,3863,4187,4188,4197,4196
202074,3855,3856,3865,3864,4188,4189,4198,4197
202075,3856,3857,3866,3865,4189,4190,4199,4198
202076,3857,3858,3867,3866,4190,4191,4200,4199
202077,3858,3859,3868,3867,4191,4192,4201,4200
202078,3859,3860,3869,3868,4192,4193,4202,4201
202079,3860,3861,3870,3869,4193,4194,4203,4202
202080,3862,3863,3872,3871,4195,4196,4205,4204
202081,3863,3864,3873,3872,4196,4197,4206,4205
202082,3864,3865,3874,3873,4197,4198,4207,4206
202083,3865,3866,3875,3874,4198,4199,4208,4207
202084,3866,3867,3876,3875,4199,4200,4209,4208
202085,3867,3868,3877,3876,4200,4201,4210,4209
202086,3868,3869,3878,3877,4201,4202,4211,4210
202087,3869,3870,3879,3878,4202,4203,4212,4211
202088,3871,3872,3881,3880,4204,4205,4214,4213
202089,3872,3873,3882,3881,4205,4206,4215,4214
202090,3873,3874,3883,3882,4206,4207,4216,4215
202091,3874,3875,3884,3883,4207,4208,4217,4216
202092,3875,3876,3885,3884,4208,4209,4218,4217
202093,3876,3877,3886,3885,4209,4210,4219,4218
202094,3877,3878,3887,3886,4210,4211,4220,4219
202095,3878,3879,3888,3887,4211,4212,4221,4220
202096,3880,3881,3890,3889,4213,4214,4223,4222
202097,3881,3882,3891,3890,4214,4215,4224,4223
202098,3882,3883,3892,3891,4215,4216,4225,4224
202099,3883,3884,3893,3892,4216,4217,4226,4225
202100,3884,3885,3894,3893,4217,4218,4227,4226
202101,3885,3886,3895,3894,4218,4219,4228,4227
202102,3886,3887,3896,3895,4219,4220,4229,4228
202103,3887,3888,3897,3896,4220,4221,4230,4229
202104,3889,3890,3899,3898,4222,4223,4232,4231
202105,3890,3891,3900,3899,4223,4224,4233,4232
202106,3891,3892,3901,3900,4224,4225,4234,4233
202107,3892,3893,3902,3901,4225,4226,4235,4234
202108,3893,3894,3903,3902,4226,4227,4236,4235
202109,3894,3895,3904,3903,4227,4228,4237,4236
202110,3895,3896,3905,3904,4228,4229,4238,4237
202111,3896,3897,3906,3905,4229,4230,4239,4238
202112,3898,3899,3908,3907,4231,4232,4241,4240
202113,3899,3900,3909,3908,4232,4233,4242,4241
202114,3900,3901,3910,3909,4233,4234,4243,4242
202115,3901,3902,3911,3910,4234,4235,4244,4243
202116,3902,3903,3912,3911,4235,4236,4245,4244
202117,3903,3904,3913,3912,4236,4237,4246,4245
202118,3904,3905,3914,3913,4237,4238,4247,4246
202119,3905,3906,3915,3914,4238,4239,4248,4247
202120,3907,3908,3917,3916,4240,4241,4250,4249
202121,3908,3909,3918,3917,4241,4242,4251,4250
202122,3909,3910,3919,3918,4242,4243,4252,4251
202123,3910,3911,3920,3919,4243,4244,4253,4252
202124,3911,3912,3921,3920,4244,4245,4254,4253
202125,3912,3913,3922,3921,4245,4246,4255,4254
202126,3913,3914,3923,3922,4246,4247,4256,4255
202127,3914,3915,3924,3923,4247,4248,4257,4256
202128,3916,3917,3926,3925,4249,4250,4259,4258
202129,3917,3918,3927,3926,4250,4251,4260,4259
202130,3918,3919,3928,3927,4251,4252,4261,4260
202131,3919,3920,3929,3928,4252,4253,4262,4261
202132,3920,3921,3930,3929,4253,4254,4263,4262
202133,3921,3922,3931,3930,4254,4255,4264,4263
202134,3922,3923,3932,3931,4255,4256,4265,4264
202135,3923,3924,3933,3932,4256,4257,4266,4265
202136,3925,3926,3935,3934,4258,4259,4268,4267
202137,3926,3927,3936,3935,4259,4260,4269,4268
202138,3927,3928,3937,3936,4260,4261,4270,4269
202139,3928,3929,3938,3937,4261,4262,4271,4270
202140,3929,3930,3939,3938,4262,4263,4272,4271
202141,3930,3931,3940,3939,4263,4264,4273,4272
202142,3931,3932,3941,3940,4264,4265,4274,4273
202143,3932,3933,3942,3941,4265,4266,4275,4274
202144,3934,3935,3944,3943,4267,4268,4277,4276
202145,3935,3936,3945,3944,4268,4269,4278,4277
202146,3936,3937,3946,3945,4269,4270,4279,4278
202147,3937,3938,3947,3946,4270,4271,4280,4279
202148,3938,3939,3948,3947,4271,4272,4281,4280
202149,3939,3940,3949,3948,4272,4273,4282,4281
202150,3940,3941,3950,3949,4273,4274,4283,4282
202151,3941,3942,3951,3950,4274,4275,4284,4283
202152,3943,3944,3953,3952,4276,4277,4286,4285
202153,3944,3945,3954,3953,4277,4278,4287,4286
202154,3945,3946,3955,3954,4278,4279,4288,4287
202155,3946,3947,3956,3955,4279,4280,4289,4288
202156,3947,3948,3957,3956,4280,4281,4290,4289
202157,3948,3949,3958,3957,4281,4282,4291,4290
202158,3949,3950,3959,3958,4282,4283,4292,4291
202159,3950,3951,3960,3959,4283,4284,4293,4292
202160,3952,3953,3962,3961,4285,4286,4295,4294
202161,3953,3954,3963,3962,4286,4287,4296,4295
202162,3954,3955,3964,3963,4287,4288,4297,4296
202163,3955,3956,3965,3964,4288,4289,4298,4297
202164,3956,3957,3966,3965,4289,4290,4299,4298
202165,3957,3958,3967,3966,4290,4291,4300,4299
202166,3958,3959,3968,3967,4291,4292,4301,4300
202167,3959,3960,3969,3968,4292,4293,4302,4301
202168,3961,3962,3971,3970,4294,4295,4304,4303
202169,3962,3963,3972,3971,4295,4296,4305,4304
202170,3963,3964,3973,3972,4296,4297,4306,4305
202171,3964,3965,3974,3973,4297,4298,4307,4306
202172,3965,3966,3975,3974,4298,4299,4308,4307
202173,3966,3967,3976,3975,4299,4300,4309,4308
202174,3967,3968,3977,3976,4300,4301,4310,4309
202175,3968,3969,3978,3977,4301,4302,4311,4310
202176,3970,3971,3980,3979,4303,4304,4313,4312
202177,3971,3972,3981,3980,4304,4305,4314,4313
202178,3972,3973,3982,3981,4305,4306,4315,4314
202179,3973,3974,3983,3982,4306,4307,4316,4315
202180,3974,3975,3984,3983,4307,4308,4317,4316
202181,3975,3976,3985,3984,4308,4309,4318,4317
202182,3976,3977,3986,3985,4309,4310,4319,4318
202183,3977,3978,3987,3986,4310,4311,4320,4319
202184,3979,3980,3989,3988,4312,4313,4322,4321
202185,3980,3981,3990,3989,4313,4314,4323,4322
202186,3981,3982,3991,3990,4314,4315,4324,4323
202187,3982,3983,3992,3991,4315,4316,4325,4324
202188,3983,3984,3993,3992,4316,4317,4326,4325
202189,3984,3985,3994,3993,4317,4318,4327,4326
202190,3985,3986,3995,3994,4318,4319,4328,4327
202191,3986,3987,3996,3995,4319,4320,4329,4328
202192,3988,3989,3998,3997,4321,4322,4331,4330
202193,3989,3990,3999,3998,4322,4323,4332,4331
202194,3990,3991,4000,3999,4323,4324,4333,4332
202195,3991,3992,4001,4000,4324,4325,4334,4333
202196,3992,3993,4002,4001,4325,4326,4335,4334
202197,3993,3994,4003,4002,4326,4327,4336,4335
202198,3994,3995,4004,4003,4327,4328,4337,4336
202199,3995,3996,4005,4004,4328,4329,4338,4337
202200,3997,3998,4007,4006,4330,4331,4340,4339
202201,3998,3999,4008,4007,4331,4332,4341,4340
202202,3999,4000,4009,4008,4332,4333,4342,4341
202203,4000,4001,4010,4009,4333,4334,4343,4342
202204,4001,4002,4011,4010,4334,4335,4344,4343
202205,4002,4003,4012,4011,4335,4336,4345,4344
202206,4003,4004,4013,4012,4336,4337,4346,4345
202207,4004,4005,4014,4013,4337,4338,4347,4346
202208,4006,4007,4016,4015,4339,4340,4349,4348
202209,4007,4008,4017,4016,4340,4341,4350,4349
202210,4008,4009,4018,4017,4341,4342,4351,4350
202211,4009,4010,4019,4018,4342,4343,4352,4351
202212,4010,4011,4020,4019,4343,4344,4353,4352
202213,4011,4012,4021,4020,4344,4345,4354,4353
202214,4012,4013,4022,4021,4345,4346,4355,4354
202215,4013,4014,4023,4022,4346,4347,4356,4355
202216,4015,4016,4025,4024,4348,4349,4358,4357
202217,4016,4017,4026,4025,4349,4350,4359,4358
202218,4017,4018,4027,4026,4350,4351,4360,4359
202219,4018,4019,4028,4027,4351,4352,4361,4360
202220,4019,4020,4029,4028,4352,4353,4362,4361
202221,4020,4021,4030,4029,4353,4354,4363,4362
202222,4021,4022,4031,4030,4354,4355,4364,4363
202223,4022,4023,4032,4031,4355,4356,4365,4364
202224,4024,4025,4034,4033,4357,4358,4367,4366
202225,4025,4026,4035,4034,4358,4359,4368,4367
202226,4026,4027,4036,4035,4359,4360,4369,4368
202227,4027,4028,4037,4036,4360,4361,4370,4369
202228,4028,4029,4038,4037,4361,4362,4371,4370
202229,4029,4030,4039,4038,4362,4363,4372,4371
202230,4030,4031,4040,4039,4363,4364,4373,4372
202231,4031,4032,4041,4040,4364,4365,4374,4373
202232,4033,4034,4043,4042,4366,4367,4376,4375
202233,4034,4035,4044,4043,4367,4368,4377,4376
202234,4035,4036,4045,4044,4368,4369,4378,4377
202235,4036,4037,4046,4045,4369,4370,4379,4378
202236,4037,4038,4047,4046,4370,4371,4380,4379
202237,4038,4039,4048,4047,4371,4372,4381,4380
202238,4039,4040,4049,4048,4372,4373,4382,4381
202239,4040,4041,4050,4049,4373,4374,4383,4382
202240,4042,4043,4052,4051,4375,4376,4385,4384
202241,4043,4044,4053,4052,4376,4377,4386,4385
202242,4044,4045,4054,4053,4377,4378,4387,4386
202243,4045,4046,4055,4054,4378,4379,4388,4387
202244,4046,4047,4056,4055,4379,4380,4389,4388
202245,4047,4048,4057,4056,4380,4381,4390,4389
202246,4048,4049,4058,4057,4381,4382,4391,4390
202247,4049,4050,4059,4058,4382,4383,4392,4391
202248,4051,4052,4061,4060,4384,4385,4394,4393
202249,4052,4053,4062,4061,4385,4386,4395,4394
202250,4053,4054,4063,4062,4386,4387,4396,4395
202251,4054,4055,4064,4063,4387,4388,4397,4396
202252,4055,4056,4065,4064,4388,4389,4398,4397
202253,4056,4057,4066,4065,4389,4390,4399,4398
202254,4057,4058,4067,4066,4390,4391,4400,4399
202255,4058,4059,4068,4067,4391,4392,4401,4400
202256,4060,4061,4070,4069,4393,4394,4403,4402
202257,4061,4062,4071,4070,4394,4395,4404,4403
202258,4062,4063,4072,4071,4395,4396,4405,4404
202259,4063,4064,4073,4072,4396,4397,4406,4405
202260,4064,4065,4074,4073,4397,4398,4407,4406
202261,4065,4066,4075,4074,4398,4399,4408,4407
202262,4066,4067,4076,4075,4399,4400,4409,4408
202263,4067,4068,4077,4076,4400,4401,4410,4409
202264,4069,4070,4079,4078,4402,4403,4412,4411
202265,4070,4071,4080,4079,4403,4404,4413,4412
202266,4071,4072,4081,4080,4404,4405,4414,4413
202267,4072,4073,4082,4081,4405,4406,4415,4414
202268,4073,4074,4083,4082,4406,4407,4416,4415
202269,4074,4075,4084,4083,4407,4408,4417,4416
202270,4075,4076,4085,4084,4408,4409,4418,4417
202271,4076,4077,4086,4085,4409,4410,4419,4418
202272,4078,4079,4088,4087,4411,4412,4421,4420
202273,4079,4080,4089,4088,4412,4413,4422,4421
202274,4080,4081,4090,4089,4413,4414,4423,4422
202275,4081,4082,4091,4090,4414,4415,4424,4423
202276,4082,4083,4092,4091,4415,4416,4425,4424
202277,4083,4084,4093,4092,4416,4417,4426,4425
202278,4084,4085,4094,4093,4417,4418,4427,4426
202279,4085,4086,4095,4094,4418,4419,4428,4427
202280,4087,4088,4097,4096,4420,4421,4430,4429
202281,4088,4089,4098,4097,4421,4422,4431,4430
202282,4089,4090,4099,4098,4422,4423,4432,4431
202283,4090,4091,4100,4099,4423,4424,4433,4432
202284,4091,4092,4101,4100,4424,4425,4434,4433
202285,4092,4093,4102,4101,4425,4426,4435,4434
202286,4093,4094,4103,4102,4426,4427,4436,4435
202287,4094,4095,4104,4103,4427,4428,4437,4436
202288,4096,4097,4106,4105,4429,4430,4439,4438
202289,4097,4098,4107,4106,4430,4431,4440,4439
202290,4098,4099,4108,4107,4431,4432,4441,4440
202291,4099,4100,4109,4108,4432,4433,4442,4441
202292,4100,4101,4110,4109,4433,4434,4443,4442
202293,4101,4102,4111,4110,4434,4435,4444,4443
202294,4102,4103,4112,4111,4435,4436,4445,4444
202295,4103,4104,4113,4112,4436,4437,4446,4445
202296,4105,4106,4115,4114,4438,4439,4448,4447
202297,4106,4107,4116,4115,4439,4440,4449,4448
202298,4107,4108,4117,4116,4440,4441,4450,4449
202299,4108,4109,4118,4117,4441,4442,4451,4450
202300,4109,4110,4119,4118,4442,4443,4452,4451
202301,4110,4111,4120,4119,4443,4444,4453,4452
202302,4111,4112,4121,4120,4444,4445,4454,4453
202303,4112,4113,4122,4121,4445,4446,4455,4454
202304,4123,4124,4133,4132,4456,4457,4466,4465
202305,4124,4125,4134,4133,4457,4458,4467,4466
202306,4125,4126,4135,4134,4458,4459,4468,4467
202307,4126,4127,4136,4135,4459,4460,4469,4468
202308,4127,4128,4137,4136,4460,4461,4470,4469
202309,4128,4129,4138,4137,4461,4462,4471,4470
202310,4129,4130,4139,4138,4462,4463,4472,4471
202311,4130,4131,4140,4139,4463,4464,4473,4472
202312,4132,4133,4142,4141,4465,4466,4475,4474
202313,4133,4134,4143,4142,4466,4467,4476,4475
202314,4134,4135,4144,4143,4467,4468,4477,4476
202315,4135,4136,4145,4144,4468,4469,4478,4477
202316,4136,4137,4146,4145,4469,4470,4479,4478
202317,4137,4138,4147,4146,4470,4471,4480,4479
202318,4138,4139,4148,4147,4471,4472,4481,4480
202319,4139,4140,4149,4148,4472,4473,4482,4481
202320,4141,4142,4151,4150,4474,4475,4484,4483
202321,4142,4143,4152,4151,4475,4476,4485,4484
202322,4143,4144,4153,4152,4476,4477,4486,4485
202323,4144,4145,4154,4153,4477,4478,4487,4486
202324,4145,4146,4155,4154,4478,4479,4488,4487
202325,4146,4147,4156,4155,4479,4480,4489,4488
202326,4147,4148,4157,4156,4480,4481,4490,4489
202327,4148,4149,4158,4157,4481,4482,4491,4490
202328,4150,4151,4160,4159,4483,4484,4493,4492
202329,4151,4152,4161,4160,4484,4485,4494,4493
202330,4152,4153,4162,4161,4485,4486,4495,4494
202331,4153,4154,4163,4162,4486,4487,4496,4495
202332,4154,4155,4164,4163,4487,4488,4497,4496
202333,4155,4156,4165,4164,4488,4489,4498,4497
202334,4156,4157,4166,4165,4489,4490,4499,4498
202335,4157,4158,4167,4166,4490,4491,4500,4499
202336,4159,4160,4169,4168,4492,4493,4502,4501
202337,4160,4161,4170,4169,4493,4494,4503,4502
202338,4161,4162,4171,4170,4494,4495,4504,4503
202339,4162,4163,4172,4171,4495,4496,4505,4504
202340,4163,4164,4173,4172,4496,4497,4506,4505
202341,4164,4165,4174,4173,4497,4498,4507,4506
202342,4165,4166,4175,4174,4498,4499,4508,4507
202343,4166,4167,4176,4175,4499,4500,4509,4508
202344,4168,4169,4178,4177,4501,4502,4511,4510
202345,4169,4170,4179,4178,4502,4503,4512,4511
202346,4170,4171,4180,4179,4503,4504,4513,4512
202347,4171,4172,4181,4180,4504,4505,4514,4513
202348,4172,4173,4182,4181,4505,4506,4515,4514
202349,4173,4174,4183,4182,4506,4507,4516,4515
202350,4174,4175,4184,4183,4507,4508,4517,4516
202351,4175,4176,4185,4184,4508,4509,4518,4517
202352,4177,4178,4187,4186,4510,4511,4520,4519
202353,4178,4179,4188,4187,4511,4512,4521,4520
202354,4179,4180,4189,4188,4512,4513,4522,4521
202355,4180,4181,4190,4189,4513,4514,4523,4522
202356,4181,4182,4191,4190,4514,4515,4524,4523
202357,4182,4183,4192,4191,4515,4516,4525,4524
202358,4183,4184,4193,4192,4516,4517,4526,4525
202359,4184,4185,4194,4193,4517,4518,4527,4526
202360,4186,4187,4196,4195,4519,4520,4529,4528
202361,4187,4188,4197,4196,4520,4521,4530,4529
202362,4188,4189,4198,4197,4521,4522,4531,4530
202363,4189,4190,4199,4198,4522,4523,4532,4531
202364,4190,4191,4200,4199,4523,4524,4533,4532
202365,4191,4192,4201,4200,4524,4525,4534,4533
202366,4192,4193,4202,4201,4525,4526,4535,4534
202367,4193,4194,4203,4202,4526,4527,4536,4535
202368,4195,4196,4205,4204,4528,4529,4538,4537
202369,4196,4197,4206,4205,4529,4530,4539,4538
202370,4197,4198,4207,4206,4530,4531,4540,4539
202371,4198,4199,4208,4207,4531,4532,4541,4540
202372,4199,4200,4209,4208,4532,4533,4542,4541
202373,4200,4201,4210,4209,4533,4534,4543,4542
202374,4201,4202,4211,4210,4534,4535,4544,4543
202375,4202,4203,4212,4211,4535,4536,4545,4544
202376,4204,4205,4214,4213,4537,4538,4547,4546
202377,4205,4206,4215,4214,4538,4539,4548,4547
202378,4206,4207,4216,4215,4539,4540,4549,4548
202379,4207,4208,4217,4216,4540,4541,4550,4549
202380,4208,4209,4218,4217,4541,4542,4551,4550
202381,4209,4210,4219,4218,4542,4543,4552,4551
202382,4210,4211,4220,4219,4543,4544,4553,4552
202383,4211,4212,4221,4220,4544,4545,4554,4553
202384,4213,4214,4223,4222,4546,4547,4556,4555
202385,4214,4215,4224,4223,4547,4548,4557,4556
202386,4215,4216,4225,4224,4548,4549,4558,4557
202387,4216,4217,4226,4225,4549,4550,4559,4558
202388,4217,4218,4227,4226,4550,4551,4560,4559
202389,4218,4219,4228,4227,4551,4552,4561,4560
202390,4219,4220,4229,4228,4552,4553,4562,4561
202391,4220,4221,4230,4229,4553,4554,4563,4562
202392,4222,4223,4232,4231,4555,4556,4565,4564
202393,4223,4224,4233,4232,4556,4557,4566,4565
202394,4224,4225,4234,4233,4557,4558,4567,4566
202395,4225,4226,4235,4234,4558,4559,4568,4567
202396,4226,4227,4236,4235,4559,4560,4569,4568
202397,4227,4228,4237,4236,4560,4561,4570,4569
202398,4228,4229,4238,4237,4561,4562,4571,4570
202399,4229,4230,4239,4238,4562,4563,4572,4571
202400,4231,4232,4241,4240,4564,4565,4574,4573
202401,4232,4233,4242,4241,4565,4566,4575,4574
202402,4233,4234,4243,4242,4566,4567,4576,4575
202403,4234,4235,4244,4243,4567,4568,4577,4576
202404,4235,4236,4245,4244,4568,4569,4578,4577
202405,4236,4237,4246,4245,4569,4570,4579,4578
202406,4237,4238,4247,4246,4570,4571,4580,4579
202407,4238,4239,4248,4247,4571,4572,4581,4580
202408,4240,4241,4250,4249,4573,4574,4583,4582
202409,4241,4242,4251,4250,4574,4575,4584,4583
202410,4242,4243,4252,4251,4575,4576,4585,4584
202411,4243,4244,4253,4252,4576,4577,4586,4585
202412,4244,4245,4254,4253,4577,4578,4587,4586
202413,4245,4246,4255,4254,4578,4579,4588,4587
202414,4246,4247,4256,4255,4579,4580,4589,4588
202415,4247,4248,4257,4256,4580,4581,4590,4589
202416,4249,4250,4259,4258,4582,4583,4592,4591
202417,4250,4251,4260,4259,4583,4584,4593,4592
202418,4251,4252,4261,4260,4584,4585,4594,4593
202419,4252,4253,4262,4261,4585,4586,4595,4594
202420,4253,4254,4263,4262,4586,4587,4596,4595
202421,4254,4255,4264,4263,4587,4588,4597,4596
202422,4255,4256,4265,4264,4588,4589,4598,4597
202423,4256,4257,4266,4265,4589,4590,4599,4598
202424,4258,4259,4268,4267,4591,4592,4601,4600
202425,4259,4260,4269,4268,4592,4593,4602,4601
202426,4260,4261,4270,4269,4593,4594,4603,4602
202427,4261,4262,4271,4270,4594,4595,4604,4603
202428,4262,4263,4272,4271,4595,4596,4605,4604
202429,4263,4264,4273,4272,4596,4597,4606,4605
202430,4264,4265,4274,4273,4597,4598,4607,4606
202431,4265,4266,4275,4274,4598,4599,4608,4607
202432,4267,4268,4277,4276,4600,4601,4610,4609
202433,4268,4269,4278,4277,4601,4602,4611,4610
202434,4269,4270,4279,4278,4602,4603,4612,4611
202435,4270,4271,4280,4279,4603,4604,4613,4612
202436,4271,4272,4281,4280,4604,4605,4614,4613
202437,4272,4273,4282,4281,4605,4606,4615,4614
202438,4273,4274,4283,4282,4606,4607,4616,4615
202439,4274,4275,4284,4283,4607,4608,4617,4616
202440,4276,4277,4286,4285,4609,4610,4619,4618
202441,4277,4278,4287,4286,4610,4611,4620,4619
202442,4278,4279,4288,4287,4611,4612,4621,4620
202443,4279,4280,4289,4288,4612,4613,4622,4621
202444,4280,4281,4290,4289,4613,4614,4623,4622
202445,4281,4282,4291,4290,4614,4615,4624,4623
202446,4282,4283,4292,4291,4615,4616,4625,4624
202447,4283,4284,4293,4292,4616,4617,4626,4625
202448,4285,4286,4295,4294,4618,4619,4628,4627
202449,4286,4287,4296,4295,4619,4620,4629,4628
202450,4287,4288,4297,4296,4620,4621,4630,4629
202451,4288,4289,4298,4297,4621,4622,4631,4630
202452,4289,4290,4299,4298,4622,4623,4632,4631
202453,4290,4291,4300,4299,4623,4624,4633,4632
202454,4291,4292,4301,4300,4624,4625,4634,4633
202455,4292,4293,4302,4301,4625,4626,4635,4634
202456,4294,4295,4304,4303,4627,4628,4637,4636
202457,4295,4296,4305,4304,4628,4629,4638,4637
202458,4296,4297,4306,4305,4629,4630,4639,4638
202459,4297,4298,4307,4306,4630,4631,4640,4639
202460,4298,4299,4308,4307,4631,4632,4641,4640
202461,4299,4300,4309,4308,4632,4633,4642,4641
202462,4300,4301,4310,4309,4633,4634,4643,4642
202463,4301,4302,4311,4310,4634,4635,4644,4643
202464,4303,4304,4313,4312,4636,4637,4646,4645
202465,4304,4305,4314,4313,4637,4638,4647,4646
202466,4305,4306,4315,4314,4638,4639,4648,4647
202467,4306,4307,4316,4315,4639,4640,4649,4648
202468,4307,4308,4317,4316,4640,4641,4650,4649
202469,4308,4309,4318,4317,4641,4642,4651,4650
202470,4309,4310,4319,4318,4642,4643,4652,4651
202471,4310,4311,4320,4319,4643,4644,4653,4652
202472,4312,4313,4322,4321,4645,4646,4655,4654
202473,4313,4314,4323,4322,4646,4647,4656,4655
202474,4314,4315,4324,4323,4647,4648,4657,4656
202475,4315,4316,4325,4324,4648,4649,4658,4657
202476,4316,4317,4326,4325,4649,4650,4659,4658
202477,4317,4318,4327,4326,4650,4651,4660,4659
202478,4318,4319,4328,4327,4651,4652,4661,4660
202479,4319,4320,4329,4328,4652,4653,4662,4661
202480,4321,4322,4331,4330,4654,4655,4664,4663
202481,4322,4323,4332,4331,4655,4656,4665,4664
202482,4323,4324,4333,4332,4656,4657,4666,4665
202483,4324,4325,4334,4333,4657,4658,4667,4666
202484,4325,4326,4335,4334,4658,4659,4668,4667
202485,4326,4327,4336,4335,4659,4660,4669,4668
202486,4327,4328,4337,4336,4660,4661,4670,4669
202487,4328,4329,4338,4337,4661,4662,4671,4670
202488,4330,4331,4340,4339,4663,4664,4673,4672
202489,4331,4332,4341,4340,4664,4665,4674,4673
202490,4332,4333,4342,4341,4665,4666,4675,4674
202491,4333,4334,4343,4342,4666,4667,4676,4675
202492,4334,4335,4344,4343,4667,4668,4677,4676
202493,4335,4336,4345,4344,4668,4669,4678,4677
202494,4336,4337,4346,4345,4669,4670,4679,4678
202495,4337,4338,4347,4346,4670,4671,4680,4679
202496,4339,4340,4349,4348,4672,4673,4682,4681
202497,4340,4341,4350,4349,4673,4674,4683,4682
202498,4341,4342,4351,4350,4674,4675,4684,4683
202499,4342,4343,4352,4351,4675,4676,4685,4684
202500,4343,4344,4353,4352,4676,4677,4686,4685
202501,4344,4345,4354,4353,4677,4678,4687,4686
202502,4345,4346,4355,4354,4678,4679,4688,4687
202503,4346,4347,4356,4355,4679,4680,4689,4688
202504,4348,4349,4358,4357,4681,4682,4691,4690
202505,4349,4350,4359,4358,4682,4683,4692,4691
202506,4350,4351,4360,4359,4683,4684,4693,4692
202507,4351,4352,4361,4360,4684,4685,4694,4693
202508,4352,4353,4362,4361,4685,4686,4695,4694
202509,4353,4354,4363,4362,4686,4687,4696,4695
202510,4354,4355,4364,4363,4687,4688,4697,4696
202511,4355,4356,4365,4364,4688,4689,4698,4697
202512,4357,4358,4367,4366,4690,4691,4700,4699
202513,4358,4359,4368,4367,4691,4692,4701,4700
202514,4359,4360,4369,4368,4692,4693,4702,4701
202515,4360,4361,4370,4369,4693,4694,4703,4702
202516,4361,4362,4371,4370,4694,4695,4704,4703
202517,4362,4363,4372,4371,4695,4696,4705,4704
202518,4363,4364,4373,4372,4696,4697,4706,4705
202519,4364,4365,4374,4373,4697,4698,4707,4706
202520,4366,4367,4376,4375,4699,4700,4709,4708
202521,4367,4368,4377,4376,4700,4701,4710,4709
202522,4368,4369,4378,4377,4701,4702,4711,4710
202523,4369,4370,4379,4378,4702,4703,4712,4711
202524,4370,4371,4380,4379,4703,4704,4713,4712
202525,4371,4372,4381,4380,4704,4705,4714,4713
202526,4372,4373,4382,4381,4705,4706,4715,4714
202527,4373,4374,4383,4382,4706,4707,4716,4715
202528,4375,4376,4385,4384,4708,4709,4718,4717
202529,4376,4377,4386,4385,4709,4710,4719,4718
202530,4377,4378,4387,4386,4710,4711,4720,4719
202531,4378,4379,4388,4387,4711,4712,4721,4720
202532,4379,4380,4389,4388,4712,4713,4722,4721
202533,4380,4381,4390,4389,4713,4714,4723,4722
202534,4381,4382,4391,4390,4714,4715,4724,4723
202535,4382,4383,4392,4391,4715,4716,4725,4724
202536,4384,4385,4394,4393,4717,4718,4727,4726
202537,4385,4386,4395,4394,4718,4719,4728,4727
202538,4386,4387,4396,4395,4719,4720,4729,4728
202539,4387,4388,4397,4396,4720,4721,4730,4729
202540,4388,4389,4398,4397,4721,4722,4731,4730
202541,4389,4390,4399,4398,4722,4723,4732,4731
202542,4390,4391,4400,4399,4723,4724,4733,4732
202543,4391,4392,4401,4400,4724,4725,4734,4733
202544,4393,4394,4403,4402,4726,4727,4736,4735
202545,4394,4395,4404,4403,4727,4728,4737,4736
202546,4395,4396,4405,4404,4728,4729,4738,4737
202547,4396,4397,4406,4405,4729,4730,4739,4738
202548,4397,4398,4407,4406,4730,4731,4740,4739
202549,4398,4399,4408,4407,4731,4732,4741,4740
202550,4399,4400,4409,4408,4732,4733,4742,4741
202551,4400,4401,4410,4409,4733,4734,4743,4742
202552,4402,4403,4412,4411,4735,4736,4745,4744
202553,4403,4404,4413,4412,4736,4737,4746,4745
202554,4404,4405,4414,4413,4737,4738,4747,4746
202555,4405,4406,4415,4414,4738,4739,4748,4747
202556,4406,4407,4416,4415,4739,4740,4749,4748
202557,4407,4408,4417,4416,4740,4741,4750,4749
202558,4408,4409,4418,4417,4741,4742,4751,4750
202559,4409,4410,4419,4418,4742,4743,4752,4751
202560,4411,4412,4421,4420,4744,4745,4754,4753
202561,4412,4413,4422,4421,4745,4746,4755,4754
202562,4413,4414,4423,4422,4746,4747,4756,4755
202563,4414,4415,4424,4423,4747,4748,4757,4756
202564,4415,4416,4425,4424,4748,4749,4758,4757
202565,4416,4417,4426,4425,4749,4750,4759,4758
202566,4417,4418,4427,4426,4750,4751,4760,4759
202567,4418,4419,4428,4427,4751,4752,4761,4760
202568,4420,4421,4430,4429,4753,4754,4763,4762
202569,4421,4422,4431,4430,4754,4755,4764,4763
202570,4422,4423,4432,4431,4755,4756,4765,4764
202571,4423,4424,4433,4432,4756,4757,4766,4765
202572,4424,4425,4434,4433,4757,4758,4767,4766
202573,4425,4426,4435,4434,4758,4759,4768,4767
202574,4426,4427,4436,4435,4759,4760,4769,4768
202575,4427,4428,4437,4436,4760,4761,4770,4769
202576,4429,4430,4439,4438,4762,4763,4772,4771
202577,4430,4431,4440,4439,4763,4764,4773,4772
202578,4431,4432,4441,4440,4764,4765,4774,4773
202579,4432,4433,4442,4441,4765,4766,4775,4774
202580,4433,4434,4443,4442,4766,4767,4776,4775
202581,4434,4435,4444,4443,4767,4768,4777,4776
202582,4435,4436,4445,4444,4768,4769,4778,4777
202583,4436,4437,4446,4445,4769,4770,4779,4778
202584,4438,4439,4448,4447,4771,4772,4781,4780
202585,4439,4440,4449,4448,4772,4773,4782,4781
202586,4440,4441,4450,4449,4773,4774,4783,4782
202587,4441,4442,4451,4450,4774,4775,4784,4783
202588,4442,4443,4452,4451,4775,4776,4785,4784
202589,4443,4444,4453,4452,4776,4777,4786,4785
202590,4444,4445,4454,4453,4777,4778,4787,4786
202591,4445,4446,4455,4454,4778,4779,4788,4787
202592,4456,4457,4466,4465,4789,4790,4799,4798
202593,4457,4458,4467,4466,4790,4791,4800,4799
202594,4458,4459,4468,4467,4791,4792,4801,4800
202595,4459,4460,4469,4468,4792,4793,4802,4801
202596,4460,4461,4470,4469,4793,4794,4803,4802
202597,4461,4462,4471,4470,4794,4795,4804,4803
202598,4462,4463,4472,4471,4795,4796,4805,4804
202599,4463,4464,4473,4472,4796,4797,4806,4805
202600,4465,4466,4475,4474,4798,4799,4808,4807
202601,4466,4467,4476,4475,4799,4800,4809,4808
202602,4467,4468,4477,4476,4800,4801,4810,4809
202603,4468,4469,4478,4477,4801,4802,4811,4810
202604,4469,4470,4479,4478,4802,4803,4812,4811
202605,4470,4471,4480,4479,4803,4804,4813,4812
202606,4471,4472,4481,4480,4804,4805,4814,4813
202607,4472,4473,4482,4481,4805,4806,4815,4814
202608,4474,4475,4484,4483,4807,4808,4817,4816
202609,4475,4476,4485,4484,4808,4809,4818,4817
202610,4476,4477,4486,4485,4809,4810,4819,4818
202611,4477,4478,4487,4486,4810,4811,4820,4819
202612,4478,4479,4488,4487,4811,4812,4821,4820
202613,4479,4480,4489,4488,4812,4813,4822,4821
202614,4480,4481,4490,4489,4813,4814,4823,4822
202615,4481,4482,4491,4490,4814,4815,4824,4823
202616,4483,4484,4493,4492,4816,4817,4826,4825
202617,4484,4485,4494,4493,4817,4818,4827,4826
202618,4485,4486,4495,4494,4818,4819,4828,4827
202619,4486,4487,4496,4495,4819,4820,4829,4828
202620,4487,4488,4497,4496,4820,4821,4830,4829
202621,4488,4489,4498,4497,4821,4822,4831,4830
202622,4489,4490,4499,4498,4822,4823,4832,4831
202623,4490,4491,4500,4499,4823,4824,4833,4832
202624,4492,4493,4502,4501,4825,4826,4835,4834
202625,4493,4494,4503,4502,4826,4827,4836,4835
202626,4494,4495,4504,4503,4827,4828,4837,4836
202627,4495,4496,4505,4504,4828,4829,4838,4837
202628,4496,4497,4506,4505,4829,4830,4839,4838
202629,4497,4498,4507,4506,4830,4831,4840,4839
202630,4498,4499,4508,4507,4831,4832,4841,4840
202631,4499,4500,4509,4508,4832,4833,4842,4841
202632,4501,4502,4511,4510,4834,4835,4844,4843
202633,4502,4503,4512,4511,4835,4836,4845,4844
202634,4503,4504,4513,4512,4836,4837,4846,4845
202635,4504,4505,4514,4513,4837,4838,4847,4846
202636,4505,4506,4515,4514,4838,4839,4848,4847
202637,4506,4507,4516,4515,4839,4840,4849,4848
202638,4507,4508,4517,4516,4840,4841,4850,4849
202639,4508,4509,4518,4517,4841,4842,4851,4850
202640,4510,4511,4520,4519,4843,4844,4853,4852
202641,4511,4512,4521,4520,4844,4845,4854,4853
202642,4512,4513,4522,4521,4845,4846,4855,4854
202643,4513,4514,4523,4522,4846,4847,4856,4855
202644,4514,4515,4524,4523,4847,4848,4857,4856
202645,4515,4516,4525,4524,4848,4849,4858,4857
202646,4516,4517,4526,4525,4849,4850,4859,4858
202647,4517,4518,4527,4526,4850,4851,4860,4859
202648,4519,4520,4529,4528,4852,4853,4862,4861
202649,4520,4521,4530,4529,4853,4854,4863,4862
202650,4521,4522,4531,4530,4854,4855,4864,4863
202651,4522,4523,4532,4531,4855,4856,4865,4864
202652,4523,4524,4533,4532,4856,4857,4866,4865
202653,4524,4525,4534,4533,4857,4858,4867,4866
202654,4525,4526,4535,4534,4858,4859,4868,4867
202655,4526,4527,4536,4535,4859,4860,4869,4868
202656,4528,4529,4538,4537,4861,4862,4871,4870
202657,4529,4530,4539,4538,4862,4863,4872,4871
202658,4530,4531,4540,4539,4863,4864,4873,4872
202659,4531,4532,4541,4540,4864,4865,4874,4873
202660,4532,4533,4542,4541,4865,4866,4875,4874
202661,4533,4534,4543,4542,4866,4867,4876,4875
202662,4534,4535,4544,4543,4867,4868,4877,4876
202663,4535,4536,4545,4544,4868,4869,4878,4877
202664,4537,4538,4547,4546,4870,4871,4880,4879
202665,4538,4539,4548,4547,4871,4872,4881,4880
202666,4539,4540,4549,4548,4872,4873,4882,4881
202667,4540,4541,4550,4549,4873,4874,4883,4882
202668,4541,4542,4551,4550,4874,4875,4884,4883
202669,4542,4543,4552,4551,4875,4876,4885,4884
202670,4543,4544,4553,4552,4876,4877,4886,4885
202671,4544,4545,4554,4553,4877,4878,4887,4886
202672,4546,4547,4556,4555,4879,4880,4889,4888
202673,4547,4548,4557,4556,4880,4881,4890,4889
202674,4548,4549,4558,4557,4881,4882,4891,4890
202675,4549,4550,4559,4558,4882,4883,4892,4891
202676,4550,4551,4560,4559,4883,4884,4893,4892
202677,4551,4552,4561,4560,4884,4885,4894,4893
202678,4552,4553,4562,4561,4885,4886,4895,4894
202679,4553,4554,4563,4562,4886,4887,4896,4895
202680,4555,4556,4565,4564,4888,4889,4898,4897
202681,4556,4557,4566,4565,4889,4890,4899,4898
202682,4557,4558,4567,4566,4890,4891,4900,4899
202683,4558,4559,4568,4567,4891,4892,4901,4900
202684,4559,4560,4569,4568,4892,4893,4902,4901
202685,4560,4561,4570,4569,4893,4894,4903,4902
202686,4561,4562,4571,4570,4894,4895,4904,4903
202687,4562,4563,4572,4571,4895,4896,4905,4904
202688,4564,4565,4574,4573,4897,4898,4907,4906
202689,4565,4566,4575,4574,4898,4899,4908,4907
202690,4566,4567,4576,4575,4899,4900,4909,4908
202691,4567,4568,4577,4576,4900,4901,4910,4909
202692,4568,4569,4578,4577,4901,4902,4911,4910
202693,4569,4570,4579,4578,4902,4903,4912,4911
202694,4570,4571,4580,4579,4903,4904,4913,4912
202695,4571,4572,4581,4580,4904,4905,4914,4913
202696,4573,4574,4583,4582,4906,4907,4916,4915
202697,4574,4575,4584,4583,4907,4908,4917,4916
202698,4575,4576,4585,4584,4908,4909,4918,4917
202699,4576,4577,4586,4585,4909,4910,4919,4918
202700,4577,4578,4587,4586,4910,4911,4920,4919
202701,4578,4579,4588,4587,4911,4912,4921,4920
202702,4579,4580,4589,4588,4912,4913,4922,4921
202703,4580,4581,4590,4589,4913,4914,4923,4922
202704,4582,4583,4592,4591,4915,4916,4925,4924
202705,4583,4584,4593,4592,4916,4917,4926,4925
202706,4584,4585,4594,4593,4917,4918,4927,4926
202707,4585,4586,4595,4594,4918,4919,4928,4927
202708,4586,4587,4596,4595,4919,4920,4929,4928
202709,4587,4588,4597,4596,4920,4921,4930,4929
202710,4588,4589,4598,4597,4921,4922,4931,4930
202711,4589,4590,4599,4598,4922,4923,4932,4931
202712,4591,4592,4601,4600,4924,4925,4934,4933
202713,4592,4593,4602,4601,4925,4926,4935,4934
202714,4593,4594,4603,4602,4926,4927,4936,4935
202715,4594,4595,4604,4603,4927,4928,4937,4936
202716,4595,4596,4605,4604,4928,4929,4938,4937
202717,4596,4597,4606,4605,4929,4930,4939,4938
202718,4597,4598,4607,4606,4930,4931,4940,4939
202719,4598,4599,4608,4607,4931,4932,4941,4940
202720,4600,4601,4610,4609,4933,4934,4943,4942
202721,4601,4602,4611,4610,4934,4935,4944,4943
202722,4602,4603,4612,4611,4935,4936,4945,4944
202723,4603,4604,4613,4612,4936,4937,4946,4945
202724,4604,4605,4614,4613,4937,4938,4947,4946
202725,4605,4606,4615,4614,4938,4939,4948,4947
202726,4606,4607,4616,4615,4939,4940,4949,4948
202727,4607,4608,4617,4616,4940,4941,4950,4949
202728,4609,4610,4619,4618,4942,4943,4952,4951
202729,4610,4611,4620,4619,4943,4944,4953,4952
202730,4611,4612,4621,4620,4944,4945,4954,4953
202731,4612,4613,4622,4621,4945,4946,4955,4954
202732,4613,4614,4623,4622,4946,4947,4956,4955
202733,4614,4615,4624,4623,4947,4948,4957,4956
202734,4615,4616,4625,4624,4948,4949,4958,4957
202735,4616,4617,4626,4625,4949,4950,4959,4958
202736,4618,4619,4628,4627,4951,4952,4961,4960
202737,4619,4620,4629,4628,4952,4953,4962,4961
202738,4620,4621,4630,4629,4953,4954,4963,4962
202739,4621,4622,4631,4630,4954,4955,4964,4963
202740,4622,4623,4632,4631,4955,4956,4965,4964
202741,4623,4624,4633,4632,4956,4957,4966,4965
202742,4624,4625,4634,4633,4957,4958,4967,4966
202743,4625,4626,4635,4634,4958,4959,4968,4967
202744,4627,4628,4637,4636,4960,4961,4970,4969
202745,4628,4629,4638,4637,4961,4962,4971,4970
202746,4629,4630,4639,4638,4962,4963,4972,4971
202747,4630,4631,4640,4639,4963,4964,4973,4972
202748,4631,4632,4641,4640,4964,4965,4974,4973
202749,4632,4633,4642,4641,4965,4966,4975,4974
202750,4633,4634,4643,4642,4966,4967,4976,4975
202751,4634,4635,4644,4643,4967,4968,4977,4976
202752,4636,4637,4646,4645,4969,4970,4979,4978
202753,4637,4638,4647,4646,4970,4971,4980,4979
202754,4638,4639,4648,4647,4971,4972,4981,4980
202755,4639,4640,4649,4648,4972,4973,4982,4981
202756,4640,4641,4650,4649,4973,4974,4983,4982
202757,4641,4642,4651,4650,4974,4975,4984,4983
202758,4642,4643,4652,4651,4975,4976,4985,4984
202759,4643,4644,4653,4652,4976,4977,4986,4985
202760,4645,4646,4655,4654,4978,4979,4988,4987
202761,4646,4647,4656,4655,4979,4980,4989,4988
202762,4647,4648,4657,4656,4980,4981,4990,4989
202763,4648,4649,4658,4657,4981,4982,4991,4990
202764,4649,4650,4659,4658,4982,4983,4992,4991
202765,4650,4651,4660,4659,4983,4984,4993,4992
202766,4651,4652,4661,4660,4984,4985,4994,4993
202767,4652,4653,4662,4661,4985,4986,4995,4994
202768,4654,4655,4664,4663,4987,4988,4997,4996
202769,4655,4656,4665,4664,4988,4989,4998,4997
202770,4656,4657,4666,4665,4989,4990,4999,4998
202771,4657,4658,4667,4666,4990,4991,5000,4999
202772,4658,4659,4668,4667,4991,4992,5001,5000
202773,4659,4660,4669,4668,4992,4993,5002,5001
202774,4660,4661,4670,4669,4993,4994,5003,5002
202775,4661,4662,4671,4670,4994,4995,5004,5003
202776,4663,4664,4673,4672,4996,4997,5006,5005
202777,4664,4665,4674,4673,4997,4998,5007,5006
202778,4665,4666,4675,4674,4998,4999,5008,5007
202779,4666,4667,4676,4675,4999,5000,5009,5008
202780,4667,4668,4677,4676,5000,5001,5010,5009
202781,4668,4669,4678,4677,5001,5002,5011,5010
202782,4669,4670,4679,4678,5002,5003,5012,5011
202783,4670,4671,4680,4679,5003,5004,5013,5012
202784,4672,4673,4682,4681,5005,5006,5015,5014
202785,4673,4674,4683,4682,5006,5007,5016,5015
202786,4674,4675,4684,4683,5007,5008,5017,5016
202787,4675,4676,4685,4684,5008,5009,5018,5017
202788,4676,4677,4686,4685,5009,5010,5019,5018
202789,4677,4678,4687,4686,5010,5011,5020,5019
202790,4678,4679,4688,4687,5011,5012,5021,5020
202791,4679,4680,4689,4688,5012,5013,5022,5021
202792,4681,4682,4691,4690,5014,5015,5024,5023
202793,4682,4683,4692,4691,5015,5016,5025,5024
202794,4683,4684,4693,4692,5016,5017,5026,5025
202795,4684,4685,4694,4693,5017,5018,5027,5026
202796,4685,4686,4695,4694,5018,5019,5028,5027
202797,4686,4687,4696,4695,5019,5020,5029,5028
202798,4687,4688,4697,4696,5020,5021,5030,5029
202799,4688,4689,4698,4697,5021,5022,5031,5030
202800,4690,4691,4700,4699,5023,5024,5033,5032
202801,4691,4692,4701,4700,5024,5025,5034,5033
202802,4692,4693,4702,4701,5025,5026,5035,5034
202803,4693,4694,4703,4702,5026,5027,5036,5035
202804,4694,4695,4704,4703,5027,5028,5037,5036
202805,4695,4696,4705,4704,5028,5029,5038,5037
202806,4696,4697,4706,4705,5029,5030,5039,5038
202807,4697,4698,4707,4706,5030,5031,5040,5039
202808,4699,4700,4709,4708,5032,5033,5042,5041
202809,4700,4701,4710,4709,5033,5034,5043,5042
202810,4701,4702,4711,4710,5034,5035,5044,5043
202811,4702,4703,4712,4711,5035,5036,5045,5044
202812,4703,4704,4713,4712,5036,5037,5046,5045
202813,4704,4705,4714,4713,5037,5038,5047,5046
202814,4705,4706,4715,4714,5038,5039,5048,5047
202815,4706,4707,4716,4715,5039,5040,5049,5048
202816,4708,4709,4718,4717,5041,5042,5051,5050
202817,4709,4710,4719,4718,5042,5043,5052,5051
202818,4710,4711,4720,4719,5043,5044,5053,5052
202819,4711,4712,4721,4720,5044,5045,5054,5053
202820,4712,4713,4722,4721,5045,5046,5055,5054
202821,4713,4714,4723,4722,5046,5047,5056,5055
202822,4714,4715,4724,4723,5047,5048,5057,5056
202823,4715,4716,4725,4724,5048,5049,5058,5057
202824,4717,4718,4727,4726,5050,5051,5060,5059
202825,4718,4719,4728,4727,5051,5052,5061,5060
202826,4719,4720,4729,4728,5052,5053,5062,5061
202827,4720,4721,4730,4729,5053,5054,5063,5062
202828,4721,4722,4731,4730,5054,5055,5064,5063
202829,4722,4723,4732,4731,5055,5056,5065,5064
202830,4723,4724,4733,4732,5056,5057,5066,5065
202831,4724,4725,4734,4733,5057,5058,5067,5066
202832,4726,4727,4736,4735,5059,5060,5069,5068
202833,4727,4728,4737,4736,5060,5061,5070,5069
202834,4728,4729,4738,4737,5061,5062,5071,5070
202835,4729,4730,4739,4738,5062,5063,5072,5071
202836,4730,4731,4740,4739,5063,5064,5073,5072
202837,4731,4732,4741,4740,5064,5065,5074,5073
202838,4732,4733,4742,4741,5065,5066,5075,5074
202839,4733,4734,4743,4742,5066,5067,5076,5075
202840,4735,4736,4745,4744,5068,5069,5078,5077
202841,4736,4737,4746,4745,5069,5070,5079,5078
202842,4737,4738,4747,4746,5070,5071,5080,5079
202843,4738,4739,4748,4747,5071,5072,5081,5080
202844,4739,4740,4749,4748,5072,5073,5082,5081
202845,4740,4741,4750,4749,5073,5074,5083,5082
202846,4741,4742,4751,4750,5074,5075,5084,5083
202847,4742,4743,4752,4751,5075,5076,5085,5084
202848,4744,4745,4754,4753,5077,5078,5087,5086
202849,4745,4746,4755,4754,5078,5079,5088,5087
202850,4746,4747,4756,4755,5079,5080,5089,5088
202851,4747,4748,4757,4756,5080,5081,5090,5089
202852,4748,4749,4758,4757,5081,5082,5091,5090
202853,4749,4750,4759,4758,5082,5083,5092,5091
202854,4750,4751,4760,4759,5083,5084,5093,5092
202855,4751,4752,4761,4760,5084,5085,5094,5093
202856,4753,4754,4763,4762,5086,5087,5096,5095
202857,4754,4755,4764,4763,5087,5088,5097,5096
202858,4755,4756,4765,4764,5088,5089,5098,5097
202859,4756,4757,4766,4765,5089,5090,5099,5098
202860,4757,4758,4767,4766,5090,5091,5100,5099
202861,4758,4759,4768,4767,5091,5092,5101,5100
202862,4759,4760,4769,4768,5092,5093,5102,5101
202863,4760,4761,4770,4769,5093,5094,5103,5102
202864,4762,4763,4772,4771,5095,5096,5105,5104
202865,4763,4764,4773,4772,5096,5097,5106,5105
202866,4764,4765,4774,4773,5097,5098,5107,5106
202867,4765,4766,4775,4774,5098,5099,5108,5107
202868,4766,4767,4776,4775,5099,5100,5109,5108
202869,4767,4768,4777,4776,5100,5101,5110,5109
202870,4768,4769,4778,4777,5101,5102,5111,5110
202871,4769,4770,4779,4778,5102,5103,5112,5111
202872,4771,4772,4781,4780,5104,5105,5114,5113
202873,4772,4773,4782,4781,5105,5106,5115,5114
202874,4773,4774,4783,4782,5106,5107,5116,5115
202875,4774,4775,4784,4783,5107,5108,5117,5116
202876,4775,4776,4785,4784,5108,5109,5118,5117
202877,4776,4777,4786,4785,5109,5110,5119,5118
202878,4777,4778,4787,4786,5110,5111,5120,5119
202879,4778,4779,4788,4787,5111,5112,5121,5120
202880,4789,4790,4799,4798,5122,5123,5132,5131
202881,4790,4791,4800,4799,5123,5124,5133,5132
202882,4791,4792,4801,4800,5124,5125,5134,5133
202883,4792,4793,4802,4801,5125,5126,5135,5134
202884,4793,4794,4803,4802,5126,5127,5136,5135
202885,4794,4795,4804,4803,5127,5128,5137,5136
202886,4795,4796,4805,4804,5128,5129,5138,5137
202887,4796,4797,4806,4805,5129,5130,5139,5138
202888,4798,4799,4808,4807,5131,5132,5141,5140
202889,4799,4800,4809,4808,5132,5133,5142,5141
202890,4800,4801,4810,4809,5133,5134,5143,5142
202891,4801,4802,4811,4810,5134,5135,5144,5143
202892,4802,4803,4812,4811,5135,5136,5145,5144
202893,4803,4804,4813,4812,5136,5137,5146,5145
202894,4804,4805,4814,4813,5137,5138,5147,5146
202895,4805,4806,4815,4814,5138,5139,5148,5147
202896,4807,4808,4817,4816,5140,5141,5150,5149
202897,4808,4809,4818,4817,5141,5142,5151,5150
202898,4809,4810,4819,4818,5142,5143,5152,5151
202899,4810,4811,4820,4819,5143,5144,5153,5152
202900,4811,4812,4821,4820,5144,5145,5154,5153
202901,4812,4813,4822,4821,5145,5146,5155,5154
202902,4813,4814,4823,4822,5146,5147,5156,5155
202903,4814,4815,4824,4823,5147,5148,5157,5156
202904,4816,4817,4826,4825,5149,5150,5159,5158
202905,4817,4818,4827,4826,5150,5151,5160,5159
202906,4818,4819,4828,4827,5151,5152,5161,5160
202907,4819,4820,4829,4828,5152,5153,5162,5161
202908,4820,4821,4830,4829,5153,5154,5163,5162
202909,4821,4822,4831,4830,5154,5155,5164,5163
202910,4822,4823,4832,4831,5155,5156,5165,5164
202911,4823,4824,4833,4832,5156,5157,5166,5165
202912,4825,4826,4835,4834,5158,5159,5168,5167
202913,4826,4827,4836,4835,5159,5160,5169,5168
202914,4827,4828,4837,4836,5160,5161,5170,5169
202915,4828,4829,4838,4837,5161,5162,5171,5170
202916,4829,4830,4839,4838,5162,5163,5172,5171
202917,4830,4831,4840,4839,5163,5164,5173,5172
202918,4831,4832,4841,4840,5164,5165,5174,5173
202919,4832,4833,4842,4841,5165,5166,5175,5174
202920,4834,4835,4844,4843,5167,5168,5177,5176
202921,4835,4836,4845,4844,5168,5169,5178,5177
202922,4836,4837,4846,4845,5169,5170,5179,5178
202923,4837,4838,4847,4846,5170,5171,5180,5179
202924,4838,4839,4848,4847,5171,5172,5181,5180
202925,4839,4840,4849,4848,5172,5173,5182,5181
202926,4840,4841,4850,4849,5173,5174,5183,5182
202927,4841,4842,4851,4850,5174,5175,5184,5183
202928,4843,4844,4853,4852,5176,5177,5186,5185
202929,4844,4845,4854,4853,5177,5178,5187,5186
202930,4845,4846,4855,4854,5178,5179,5188,5187
202931,4846,4847,4856,4855,5179,5180,5189,5188
202932,4847,4848,4857,4856,5180,5181,5190,5189
202933,4848,4849,4858,4857,5181,5182,5191,5190
202934,4849,4850,4859,4858,5182,5183,5192,5191
202935,4850,4851,4860,4859,5183,5184,5193,5192
202936,4852,4853,4862,4861,5185,5186,5195,5194
202937,4853,4854,4863,4862,5186,5187,5196,5195
202938,4854,4855,4864,4863,5187,5188,5197,5196
202939,4855,4856,4865,4864,5188,5189,5198,5197
202940,4856,4857,4866,4865,5189,5190,5199,5198
202941,4857,4858,4867,4866,5190,5191,5200,5199
202942,4858,4859,4868,4867,5191,5192,5201,5200
202943,4859,4860,4869,4868,5192,5193,5202,5201
202944,4861,4862,4871,4870,5194,5195,5204,5203
202945,4862,4863,4872,4871,5195,5196,5205,5204
202946,4863,4864,4873,4872,5196,5197,5206,5205
202947,4864,4865,4874,4873,5197,5198,5207,5206
202948,4865,4866,4875,4874,5198,5199,5208,5207
202949,4866,4867,4876,4875,5199,5200,5209,5208
202950,4867,4868,4877,4876,5200,5201,5210,5209
202951,4868,4869,4878,4877,5201,5202,5211,5210
202952,4870,4871,4880,4879,5203,5204,5213,5212
202953,4871,4872,4881,4880,5204,5205,5214,5213
202954,4872,4873,4882,4881,5205,5206,5215,5214
202955,4873,4874,4883,4882,5206,5207,5216,5215
202956,4874,4875,4884,4883,5207,5208,5217,5216
202957,4875,4876,4885,4884,5208,5209,5218,5217
202958,4876,4877,4886,4885,5209,5210,5219,5218
202959,4877,4878,4887,4886,5210,5211,5220,5219
202960,4879,4880,4889,4888,5212,5213,5222,5221
202961,4880,4881,4890,4889,5213,5214,5223,5222
202962,4881,4882,4891,4890,5214,5215,5224,5223
202963,4882,4883,4892,4891,5215,5216,5225,5224
202964,4883,4884,4893,4892,5216,5217,5226,5225
202965,4884,4885,4894,4893,5217,5218,5227,5226
202966,4885,4886,4895,4894,5218,5219,5228,5227
202967,4886,4887,4896,4895,5219,5220,5229,5228
202968,4888,4889,4898,4897,5221,5222,5231,5230
202969,4889,4890,4899,4898,5222,5223,5232,5231
202970,4890,4891,4900,4899,5223,5224,5233,5232
202971,4891,4892,4901,4900,5224,5225,5234,5233
202972,4892,4893,4902,4901,5225,5226,5235,5234
202973,4893,4894,4903,4902,5226,5227,5236,5235
202974,4894,4895,4904,4903,5227,5228,5237,5236
202975,4895,4896,4905,4904,5228,5229,5238,5237
202976,4897,4898,4907,4906,5230,5231,5240,5239
202977,4898,4899,4908,4907,5231,5232,5241,5240
202978,4899,4900,4909,4908,5232,5233,5242,5241
202979,4900,4901,4910,4909,5233,5234,5243,5242
202980,4901,4902,4911,4910,5234,5235,5244,5243
202981,4902,4903,4912,4911,5235,5236,5245,5244
202982,4903,4904,4913,4912,5236,5237,5246,5245
202983,4904,4905,4914,4913,5237,5238,5247,5246
202984,4906,4907,4916,4915,5239,5240,5249,5248
202985,4907,4908,4917,4916,5240,5241,5250,5249
202986,4908,4909,4918,4917,5241,5242,5251,5250
202987,4909,4910,4919,4918,5242,5243,5252,5251
202988,4910,4911,4920,4919,5243,5244,5253,5252
202989,4911,4912,4921,4920,5244,5245,5254,5253
202990,4912,4913,4922,4921,5245,5246,5255,5254
202991,4913,4914,4923,4922,5246,5247,5256,5255
202992,4915,4916,4925,4924,5248,5249,5258,5257
202993,4916,4917,4926,4925,5249,5250,5259,5258
202994,4917,4918,4927,4926,5250,5251,5260,5259
202995,4918,4919,4928,4927,5251,5252,5261,5260
202996,4919,4920,4929,4928,5252,5253,5262,5261
202997,4920,4921,4930,4929,5253,5254,5263,5262
202998,4921,4922,4931,4930,5254,5255,5264,5263
202999,4922,4923,4932,4931,5255,5256,5265,5264
203000,4924,4925,4934,4933,5257,5258,5267,5266
203001,4925,4926,4935,4934,5258,5259,5268,5267
203002,4926,4927,4936,4935,5259,5260,5269,5268
203003,4927,4928,4937,4936,5260,5261,5270,5269
203004,4928,4929,4938,4937,5261,5262,5271,5270
203005,4929,4930,4939,4938,5262,5263,5272,5271
203006,4930,4931,4940,4939,5263,5264,5273,5272
203007,4931,4932,4941,4940,5264,5265,5274,5273
203008,4933,4934,4943,4942,5266,5267,5276,5275
203009,4934,4935,4944,4943,5267,5268,5277,5276
203010,4935,4936,4945,4944,5268,5269,5278,5277
203011,4936,4937,4946,4945,5269,5270,5279,5278
203012,4937,4938,4947,4946,5270,5271,5280,5279
203013,4938,4939,4948,4947,5271,5272,5281,5280
203014,4939,4940,4949,4948,5272,5273,5282,5281
203015,4940,4941,4950,4949,5273,5274,5283,5282
203016,4942,4943,4952,4951,5275,5276,5285,5284
203017,4943,4944,4953,4952,5276,5277,5286,5285
203018,4944,4945,4954,4953,5277,5278,5287,5286
203019,4945,4946,4955,4954,5278,5279,5288,5287
203020,4946,4947,4956,4955,5279,5280,5289,5288
203021,4947,4948,4957,4956,5280,5281,5290,5289
203022,4948,4949,4958,4957,5281,5282,5291,5290
203023,4949,4950,4959,4958,5282,5283,5292,5291
203024,4951,4952,4961,4960,5284,5285,5294,5293
203025,4952,4953,4962,4961,5285,5286,5295,5294
203026,4953,4954,4963,4962,5286,5287,5296,5295
203027,4954,4955,4964,4963,5287,5288,5297,5296
203028,4955,4956,4965,4964,5288,5289,5298,5297
203029,4956,4957,4966,4965,5289,5290,5299,5298
203030,4957,4958,4967,4966,5290,5291,5300,5299
203031,4958,4959,4968,4967,5291,5292,5301,5300
203032,4960,4961,4970,4969,5293,5294,5303,5302
203033,4961,4962,4971,4970,5294,5295,5304,5303
203034,4962,4963,4972,4971,5295,5296,5305,5304
203035,4963,4964,4973,4972,5296,5297,5306,5305
203036,4964,4965,4974,4973,5297,5298,5307,5306
203037,4965,4966,4975,4974,5298,5299,5308,5307
203038,4966,4967,4976,4975,5299,5300,5309,5308
203039,4967,4968,4977,4976,5300,5301,5310,5309
203040,4969,4970,4979,4978,5302,5303,5312,5311
203041,4970,4971,4980,4979,5303,5304,5313,5312
203042,4971,4972,4981,4980,5304,5305,5314,5313
203043,4972,4973,4982,4981,5305,5306,5315,5314
203044,4973,4974,4983,4982,5306,5307,5316,5315
203045,4974,4975,4984,4983,5307,5308,5317,5316
203046,4975,4976,4985,4984,5308,5309,5318,5317
203047,4976,4977,4986,4985,5309,5310,5319,5318
203048,4978,4979,4988,4987,5311,5312,5321,5320
203049,4979,4980,4989,4988,5312,5313,5322,5321
203050,4980,4981,4990,4989,5313,5314,5323,5322
203051,4981,4982,4991,4990,5314,5315,5324,5323
203052,4982,4983,4992,4991,5315,5316,5325,5324
203053,4983,4984,4993,4992,5316,5317,5326,5325
203054,4984,4985,4994,4993,5317,5318,5327,5326
203055,4985,4986,4995,4994,5318,5319,5328,5327
203056,4987,4988,4997,4996,5320,5321,5330,5329
203057,4988,4989,4998,4997,5321,5322,5331,5330
203058,4989,4990,4999,4998,5322,5323,5332,5331
203059,4990,4991,5000,4999,5323,5324,5333,5332
203060,4991,4992,5001,5000,5324,5325,5334,5333
203061,4992,4993,5002,5001,5325,5326,5335,5334
203062,4993,4994,5003,5002,5326,5327,5336,5335
203063,4994,4995,5004,5003,5327,5328,5337,5336
203064,4996,4997,5006,5005,5329,5330,5339,5338
203065,4997,4998,5007,5006,5330,5331,5340,5339
203066,4998,4999,5008,5007,5331,5332,5341,5340
203067,4999,5000,5009,5008,5332,5333,5342,5341
203068,5000,5001,5010,5009,5333,5334,5343,5342
203069,5001,5002,5011,5010,5334,5335,5344,5343
203070,5002,5003,5012,5011,5335,5336,5345,5344
203071,5003,5004,5013,5012,5336,5337,5346,5345
203072,5005,5006,5015,5014,5338,5339,5348,5347
203073,5006,5007,5016,5015,5339,5340,5349,5348
203074,5007,5008,5017,5016,5340,5341,5350,5349
203075,5008,5009,5018,5017,5341,5342,5351,5350
203076,5009,5010,5019,5018,5342,5343,5352,5351
203077,5010,5011,5020,5019,5343,5344,5353,5352
203078,5011,5012,5021,5020,5344,5345,5354,5353
203079,5012,5013,5022,5021,5345,5346,5355,5354
203080,5014,5015,5024,5023,5347,5348,5357,5356
203081,5015,5016,5025,5024,5348,5349,5358,5357
203082,5016,5017,5026,5025,5349,5350,5359,5358
203083,5017,5018,5027,5026,5350,5351,5360,5359
203084,5018,5019,5028,5027,5351,5352,5361,5360
203085,5019,5020,5029,5028,5352,5353,5362,5361
203086,5020,5021,5030,5029,5353,5354,5363,5362
203087,5021,5022,5031,5030,5354,5355,5364,5363
203088,5023,5024,5033,5032,5356,5357,5366,5365
203089,5024,5025,5034,5033,5357,5358,5367,5366
203090,5025,5026,5035,5034,5358,5359,5368,5367
203091,5026,5027,5036,5035,5359,5360,5369,5368
203092,5027,5028,5037,5036,5360,5361,5370,5369
203093,5028,5029,5038,5037,5361,5362,5371,5370
203094,5029,5030,5039,5038,5362,5363,5372,5371
203095,5030,5031,5040,5039,5363,5364,5373,5372
203096,5032,5033,5042,5041,5365,5366,5375,5374
203097,5033,5034,5043,5042,5366,5367,5376,5375
203098,5034,5035,5044,5043,5367,5368,5377,5376
203099,5035,5036,5045,5044,5368,5369,5378,5377
203100,5036,5037,5046,5045,5369,5370,5379,5378
203101,5037,5038,5047,5046,5370,5371,5380,5379
203102,5038,5039,5048,5047,5371,5372,5381,5380
203103,5039,5040,5049,5048,5372,5373,5382,5381
203104,5041,5042,5051,5050,5374,5375,5384,5383
203105,5042,5043,5052,5051,5375,5376,5385,5384
203106,5043,5044,5053,5052,5376,5377,5386,5385
203107,5044,5045,5054,5053,5377,5378,5387,5386
203108,5045,5046,5055,5054,5378,5379,5388,5387
203109,5046,5047,5056,5055,5379,5380,5389,5388
203110,5047,5048,5057,5056,5380,5381,5390,5389
203111,5048,5049,5058,5057,5381,5382,5391,5390
203112,5050,5051,5060,5059,5383,5384,5393,5392
203113,5051,5052,5061,5060,5384,5385,5394,5393
203114,5052,5053,5062,5061,5385,5386,5395,5394
203115,5053,5054,5063,5062,5386,5387,5396,5395
203116,5054,5055,5064,5063,5387,5388,5397,5396
203117,5055,5056,5065,5064,5388,5389,5398,5397
203118,5056,5057,5066,5065,5389,5390,5399,5398
203119,5057,5058,5067,5066,5390,5391,5400,5399
203120,5059,5060,5069,5068,5392,5393,5402,5401
203121,5060,5061,5070,5069,5393,5394,5403,5402
203122,5061,5062,5071,5070,5394,5395,5404,5403
203123,5062,5063,5072,5071,5395,5396,5405,5404
203124,5063,5064,5073,5072,5396,5397,5406,5405
203125,5064,5065,5074,5073,5397,5398,5407,5406
203126,5065,5066,5075,5074,5398,5399,5408,5407
203127,5066,5067,5076,5075,5399,5400,5409,5408
203128,5068,5069,5078,5077,5401,5402,5411,5410
203129,5069,5070,5079,5078,5402,5403,5412,5411
203130,5070,5071,5080,5079,5403,5404,5413,5412
203131,5071,5072,5081,5080,5404,5405,5414,5413
203132,5072,5073,5082,5081,5405,5406,5415,5414
203133,5073,5074,5083,5082,5406,5407,5416,5415
203134,5074,5075,5084,5083,5407,5408,5417,5416
203135,5075,5076,5085,5084,5408,5409,5418,5417
203136,5077,5078,5087,5086,5410,5411,5420,5419
203137,5078,5079,5088,5087,5411,5412,5421,5420
203138,5079,5080,5089,5088,5412,5413,5422,5421
203139,5080,5081,5090,5089,5413,5414,5423,5422
203140,5081,5082,5091,5090,5414,5415,5424,5423
203141,5082,5083,5092,5091,5415,5416,5425,5424
203142,5083,5084,5093,5092,5416,5417,5426,5425
203143,5084,5085,5094,5093,5417,5418,5427,5426
203144,5086,5087,5096,5095,5419,5420,5429,5428
203145,5087,5088,5097,5096,5420,5421,5430,5429
203146,5088,5089,5098,5097,5421,5422,5431,5430
203147,5089,5090,5099,5098,5422,5423,5432,5431
203148,5090,5091,5100,5099,5423,5424,5433,5432
203149,5091,5092,5101,5100,5424,5425,5434,5433
203150,5092,5093,5102,5101,5425,5426,5435,5434
203151,5093,5094,5103,5102,5426,5427,5436,5435
203152,5095,5096,5105,5104,5428,5429,5438,5437
203153,5096,5097,5106,5105,5429,5430,5439,5438
203154,5097,5098,5107,5106,5430,5431,5440,5439
203155,5098,5099,5108,5107,5431,5432,5441,5440
203156,5099,5100,5109,5108,5432,5433,5442,5441
203157,5100,5101,5110,5109,5433,5434,5443,5442
203158,5101,5102,5111,5110,5434,5435,5444,5443
203159,5102,5103,5112,5111,5435,5436,5445,5444
203160,5104,5105,5114,5113,5437,5438,5447,5446
203161,5105,5106,5115,5114,5438,5439,5448,5447
203162,5106,5107,5116,5115,5439,5440,5449,5448
203163,5107,5108,5117,5116,5440,5441,5450,5449
203164,5108,5109,5118,5117,5441,5442,5451,5450
203165,5109,5110,5119,5118,5442,5443,5452,5451
203166,5110,5111,5120,5119,5443,5444,5453,5452
203167,5111,5112,5121,5120,5444,5445,5454,5453
203168,5122,5123,5132,5131,5455,5456,5465,5464
203169,5123,5124,5133,5132,5456,5457,5466,5465
203170,5124,5125,5134,5133,5457,5458,5467,5466
203171,5125,5126,5135,5134,5458,5459,5468,5467
203172,5126,5127,5136,5135,5459,5460,5469,5468
203173,5127,5128,5137,5136,5460,5461,5470,5469
203174,5128,5129,5138,5137,5461,5462,5471,5470
203175,5129,5130,5139,5138,5462,5463,5472,5471
203176,5131,5132,5141,5140,5464,5465,5474,5473
203177,5132,5133,5142,5141,5465,5466,5475,5474
203178,5133,5134,5143,5142,5466,5467,5476,5475
203179,5134,5135,5144,5143,5467,5468,5477,5476
203180,5135,5136,5145,5144,5468,5469,5478,5477
203181,5136,5137,5146,5145,5469,5470,5479,5478
203182,5137,5138,5147,5146,5470,5471,5480,5479
203183,5138,5139,5148,5147,5471,5472,5481,5480
203184,5140,5141,5150,5149,5473,5474,5483,5482
203185,5141,5142,5151,5150,5474,5475,5484,5483
203186,5142,5143,5152,5151,5475,5476,5485,5484
203187,5143,5144,5153,5152,5476,5477,5486,5485
203188,5144,5145,5154,5153,5477,5478,5487,5486
203189,5145,5146,5155,5154,5478,5479,5488,5487
203190,5146,5147,5156,5155,5479,5480,5489,5488
203191,5147,5148,5157,5156,5480,5481,5490,5489
203192,5149,5150,5159,5158,5482,5483,5492,5491
203193,5150,5151,5160,5159,5483,5484,5493,5492
203194,5151,5152,5161,5160,5484,5485,5494,5493
203195,5152,5153,5162,5161,5485,5486,5495,5494
203196,5153,5154,5163,5162,5486,5487,5496,5495
203197,5154,5155,5164,5163,5487,5488,5497,5496
203198,5155,5156,5165,5164,5488,5489,5498,5497
203199,5156,5157,5166,5165,5489,5490,5499,5498
203200,5158,5159,5168,5167,5491,5492,5501,5500
203201,5159,5160,5169,5168,5492,5493,5502,5501
203202,5160,5161,5170,5169,5493,5494,5503,5502
203203,5161,5162,5171,5170,5494,5495,5504,5503
203204,5162,5163,5172,5171,5495,5496,5505,5504
203205,5163,5164,5173,5172,5496,5497,5506,5505
203206,5164,5165,5174,5173,5497,5498,5507,5506
203207,5165,5166,5175,5174,5498,5499,5508,5507
203208,5167,5168,5177,5176,5500,5501,5510,5509
203209,5168,5169,5178,5177,5501,5502,5511,5510
203210,5169,5170,5179,5178,5502,5503,5512,5511
203211,5170,5171,5180,5179,5503,5504,5513,5512
203212,5171,5172,5181,5180,5504,5505,5514,5513
203213,5172,5173,5182,5181,5505,5506,5515,5514
203214,5173,5174,5183,5182,5506,5507,5516,5515
203215,5174,5175,5184,5183,5507,5508,5517,5516
203216,5176,5177,5186,5185,5509,5510,5519,5518
203217,5177,5178,5187,5186,5510,5511,5520,5519
203218,5178,5179,5188,5187,5511,5512,5521,5520
203219,5179,5180,5189,5188,5512,5513,5522,5521
203220,5180,5181,5190,5189,5513,5514,5523,5522
203221,5181,5182,5191,5190,5514,5515,5524,5523
203222,5182,5183,5192,5191,5515,5516,5525,5524
203223,5183,5184,5193,5192,5516,5517,5526,5525
203224,5185,5186,5195,5194,5518,5519,5528,5527
203225,5186,5187,5196,5195,5519,5520,5529,5528
203226,5187,5188,5197,5196,5520,5521,5530,5529
203227,5188,5189,5198,5197,5521,5522,5531,5530
203228,5189,5190,5199,5198,5522,5523,5532,5531
203229,5190,5191,5200,5199,5523,5524,5533,5532
203230,5191,5192,5201,5200,5524,5525,5534,5533
203231,5192,5193,5202,5201,5525,5526,5535,5534
203232,5194,5195,5204,5203,5527,5528,5537,5536
203233,5195,5196,5205,5204,5528,5529,5538,5537
203234,5196,5197,5206,5205,5529,5530,5539,5538
203235,5197,5198,5207,5206,5530,5531,5540,5539
203236,5198,5199,5208,5207,5531,5532,5541,5540
203237,5199,5200,5209,5208,5532,5533,5542,5541
203238,5200,5201,5210,5209,5533,5534,5543,5542
203239,5201,5202,5211,5210,5534,5535,5544,5543
203240,5203,5204,5213,5212,5536,5537,5546,5545
203241,5204,5205,5214,5213,5537,5538,5547,5546
203242,5205,5206,5215,5214,5538,5539,5548,5547
203243,5206,5207,5216,5215,5539,5540,5549,5548
203244,5207,5208,5217,5216,5540,5541,5550,5549
203245,5208,5209,5218,5217,5541,5542,5551,5550
203246,5209,5210,5219,5218,5542,5543,5552,5551
203247,5210,5211,5220,5219,5543,5544,5553,5552
203248,5212,5213,5222,5221,5545,5546,5555,5554
203249,5213,5214,5223,5222,5546,5547,5556,5555
203250,5214,5215,5224,5223,5547,5548,5557,5556
203251,5215,5216,5225,5224,5548,5549,5558,5557
203252,5216,5217,5226,5225,5549,5550,5559,5558
203253,5217,5218,5227,5226,5550,5551,5560,5559
203254,5218,5219,5228,5227,5551,5552,5561,5560
203255,5219,5220,5229,5228,5552,5553,5562,5561
203256,5221,5222,5231,5230,5554,5555,5564,5563
203257,5222,5223,5232,5231,5555,5556,5565,5564
203258,5223,5224,5233,5232,5556,5557,5566,5565
203259,5224,5225,5234,5233,5557,5558,5567,5566
203260,5225,5226,5235,5234,5558,5559,5568,5567
203261,5226,5227,5236,5235,5559,5560,5569,5568
203262,5227,5228,5237,5236,5560,5561,5570,5569
203263,5228,5229,5238,5237,5561,5562,5571,5570
203264,5230,5231,5240,5239,5563,5564,5573,5572
203265,5231,5232,5241,5240,5564,5565,5574,5573
203266,5232,5233,5242,5241,5565,5566,5575,5574
203267,5233,5234,5243,5242,5566,5567,5576,5575
203268,5234,5235,5244,5243,5567,5568,5577,5576
203269,5235,5236,5245,5244,5568,5569,5578,5577
203270,5236,5237,5246,5245,5569,5570,5579,5578
203271,5237,5238,5247,5246,5570,5571,5580,5579
203272,5239,5240,5249,5248,5572,5573,5582,5581
203273,5240,5241,5250,5249,5573,5574,5583,5582
203274,5241,5242,5251,5250,5574,5575,5584,5583
203275,5242,5243,5252,5251,5575,5576,5585,5584
203276,5243,5244,5253,5252,5576,5577,5586,5585
203277,5244,5245,5254,5253,5577,5578,5587,5586
203278,5245,5246,5255,5254,5578,5579,5588,5587
203279,5246,5247,5256,5255,5579,5580,5589,5588
203280,5248,5249,5258,5257,5581,5582,5591,5590
203281,5249,5250,5259,5258,5582,5583,5592,5591
203282,5250,5251,5260,5259,5583,5584,5593,5592
203283,5251,5252,5261,5260,5584,5585,5594,5593
203284,5252,5253,5262,5261,5585,5586,5595,5594
203285,5253,5254,5263,5262,5586,5587,5596,5595
203286,5254,5255,5264,5263,5587,5588,5597,5596
203287,5255,5256,5265,5264,5588,5589,5598,5597
203288,5257,5258,5267,5266,5590,5591,5600,5599
203289,5258,5259,5268,5267,5591,5592,5601,5600
203290,5259,5260,5269,5268,5592,5593,5602,5601
203291,5260,5261,5270,5269,5593,5594,5603,5602
203292,5261,5262,5271,5270,5594,5595,5604,5603
203293,5262,5263,5272,5271,5595,5596,5605,5604
203294,5263,5264,5273,5272,5596,5597,5606,5605
203295,5264,5265,5274,5273,5597,5598,5607,5606
203296,5266,5267,5276,5275,5599,5600,5609,5608
203297,5267,5268,5277,5276,5600,5601,5610,5609
203298,5268,5269,5278,5277,5601,5602,5611,5610
203299,5269,5270,5279,5278,5602,5603,5612,5611
203300,5270,5271,5280,5279,5603,5604,5613,5612
203301,5271,5272,5281,5280,5604,5605,5614,5613
203302,5272,5273,5282,5281,5605,5606,5615,5614
203303,5273,5274,5283,5282,5606,5607,5616,5615
203304,5275,5276,5285,5284,5608,5609,5618,5617
203305,5276,5277,5286,5285,5609,5610,5619,5618
203306,5277,5278,5287,5286,5610,5611,5620,5619
203307,5278,5279,5288,5287,5611,5612,5621,5620
203308,5279,5280,5289,5288,5612,5613,5622,5621
203309,5280,5281,5290,5289,5613,5614,5623,5622
203310,5281,5282,5291,5290,5614,5615,5624,5623
203311,5282,5283,5292,5291,5615,5616,5625,5624
203312,5284,5285,5294,5293,5617,5618,5627,5626
203313,5285,5286,5295,5294,5618,5619,5628,5627
203314,5286,5287,5296,5295,5619,5620,5629,5628
203315,5287,5288,5297,5296,5620,5621,5630,5629
203316,5288,5289,5298,5297,5621,5622,5631,5630
203317,5289,5290,5299,5298,5622,5623,5632,5631
203318,5290,5291,5300,5299,5623,5624,5633,5632
203319,5291,5292,5301,5300,5624,5625,5634,5633
203320,5293,5294,5303,5302,5626,5627,5636,5635
203321,5294,5295,5304,5303,5627,5628,5637,5636
203322,5295,5296,5305,5304,5628,5629,5638,5637
203323,5296,5297,5306,5305,5629,5630,5639,5638
203324,5297,5298,5307,5306,5630,5631,5640,5639
203325,5298,5299,5308,5307,5631,5632,5641,5640
203326,5299,5300,5309,5308,5632,5633,5642,5641
203327,5300,5301,5310,5309,5633,5634,5643,5642
203328,5302,5303,5312,5311,5635,5636,5645,5644
203329,5303,5304,5313,5312,5636,5637,5646,5645
203330,5304,5305,5314,5313,5637,5638,5647,5646
203331,5305,5306,5315,5314,5638,5639,5648,5647
203332,5306,5307,5316,5315,5639,5640,5649,5648
203333,5307,5308,5317,5316,5640,5641,5650,5649
203334,5308,5309,5318,5317,5641,5642,5651,5650
203335,5309,5310,5319,5318,5642,5643,5652,5651
203336,5311,5312,5321,5320,5644,5645,5654,5653
203337,5312,5313,5322,5321,5645,5646,5655,5654
203338,5313,5314,5323,5322,5646,5647,5656,5655
203339,5314,5315,5324,5323,5647,5648,5657,5656
203340,5315,5316,5325,5324,5648,5649,5658,5657
203341,5316,5317,5326,5325,5649,5650,5659,5658
203342,5317,5318,5327,5326,5650,5651,5660,5659
203343,5318,5319,5328,5327,5651,5652,5661,5660
203344,5320,5321,5330,5329,5653,5654,5663,5662
203345,5321,5322,5331,5330,5654,5655,5664,5663
203346,5322,5323,5332,5331,5655,5656,5665,5664
203347,5323,5324,5333,5332,5656,5657,5666,5665
203348,5324,5325,5334,5333,5657,5658,5667,5666
203349,5325,5326,5335,5334,5658,5659,5668,5667
203350,5326,5327,5336,5335,5659,5660,5669,5668
203351,5327,5328,5337,5336,5660,5661,5670,5669
203352,5329,5330,5339,5338,5662,5663,5672,5671
203353,5330,5331,5340,5339,5663,5664,5673,5672
203354,5331,5332,5341,5340,5664,5665,5674,5673
203355,5332,5333,5342,5341,5665,5666,5675,5674
203356,5333,5334,5343,5342,5666,5667,5676,5675
203357,5334,5335,5344,5343,5667,5668,5677,5676
203358,5335,5336,5345,5344,5668,5669,5678,5677
203359,5336,5337,5346,5345,5669,5670,5679,5678
203360,5338,5339,5348,5347,5671,5672,5681,5680
203361,5339,5340,5349,5348,5672,5673,5682,5681
203362,5340,5341,5350,5349,5673,5674,5683,5682
203363,5341,5342,5351,5350,5674,5675,5684,5683
203364,5342,5343,5352,5351,5675,5676,5685,5684
203365,5343,5344,5353,5352,5676,5677,5686,5685
203366,5344,5345,5354,5353,5677,5678,5687,5686
203367,5345,5346,5355,5354,5678,5679,5688,5687
203368,5347,5348,5357,5356,5680,5681,5690,5689
203369,5348,5349,5358,5357,5681,5682,5691,5690
203370,5349,5350,5359,5358,5682,5683,5692,5691
203371,5350,5351,5360,5359,5683,5684,5693,5692
203372,5351,5352,5361,5360,5684,5685,5694,5693
203373,5352,5353,5362,5361,5685,5686,5695,5694
203374,5353,5354,5363,5362,5686,5687,5696,5695
203375,5354,5355,5364,5363,5687,5688,5697,5696
203376,5356,5357,5366,5365,5689,5690,5699,5698
203377,5357,5358,5367,5366,5690,5691,5700,5699
203378,5358,5359,5368,5367,5691,5692,5701,5700
203379,5359,5360,5369,5368,5692,5693,5702,5701
203380,5360,5361,5370,5369,5693,5694,5703,5702
203381,5361,5362,5371,5370,5694,5695,5704,5703
203382,5362,5363,5372,5371,5695,5696,5705,5704
203383,5363,5364,5373,5372,5696,5697,5706,5705
203384,5365,5366,5375,5374,5698,5699,5708,5707
203385,5366,5367,5376,5375,5699,5700,5709,5708
203386,5367,5368,5377,5376,5700,5701,5710,5709
203387,5368,5369,5378,5377,5701,5702,5711,5710
203388,5369,5370,5379,5378,5702,5703,5712,5711
203389,5370,5371,5380,5379,5703,5704,5713,5712
203390,5371,5372,5381,5380,5704,5705,5714,5713
203391,5372,5373,5382,5381,5705,5706,5715,5714
203392,5374,5375,5384,5383,5707,5708,5717,5716
203393,5375,5376,5385,5384,5708,5709,5718,5717
203394,5376,5377,5386,5385,5709,5710,5719,5718
203395,5377,5378,5387,5386,5710,5711,5720,5719
203396,5378,5379,5388,5387,5711,5712,5721,5720
203397,5379,5380,5389,5388,5712,5713,5722,5721
203398,5380,5381,5390,5389,5713,5714,5723,5722
203399,5381,5382,5391,5390,5714,5715,5724,5723
203400,5383,5384,5393,5392,5716,5717,5726,5725
203401,5384,5385,5394,5393,5717,5718,5727,5726
203402,5385,5386,5395,5394,5718,5719,5728,5727
203403,5386,5387,5396,5395,5719,5720,5729,5728
203404,5387,5388,5397,5396,5720,5721,5730,5729
203405,5388,5389,5398,5397,5721,5722,5731,5730
203406,5389,5390,5399,5398,5722,5723,5732,5731
203407,5390,5391,5400,5399,5723,5724,5733,5732
203408,5392,5393,5402,5401,5725,5726,5735,5734
203409,5393,5394,5403,5402,5726,5727,5736,5735
203410,5394,5395,5404,5403,5727,5728,5737,5736
203411,5395,5396,5405,5404,5728,5729,5738,5737
203412,5396,5397,5406,5405,5729,5730,5739,5738
203413,5397,5398,5407,5406,5730,5731,5740,5739
203414,5398,5399,5408,5407,5731,5732,5741,5740
203415,5399,5400,5409,5408,5732,5733,5742,5741
203416,5401,5402,5411,5410,5734,5735,5744,5743
203417,5402,5403,5412,5411,5735,5736,5745,5744
203418,5403,5404,5413,5412,5736,5737,5746,5745
203419,5404,5405,5414,5413,5737,5738,5747,5746
203420,5405,5406,5415,5414,5738,5739,5748,5747
203421,5406,5407,5416,5415,5739,5740,5749,5748
203422,5407,5408,5417,5416,5740,5741,5750,5749
203423,5408,5409,5418,5417,5741,5742,5751,5750
203424,5410,5411,5420,5419,5743,5744,5753,5752
203425,5411,5412,5421,5420,5744,5745,5754,5753
203426,5412,5413,5422,5421,5745,5746,5755,5754
203427,5413,5414,5423,5422,5746,5747,5756,5755
203428,5414,5415,5424,5423,5747,5748,5757,5756
203429,5415,5416,5425,5424,5748,5749,5758,5757
203430,5416,5417,5426,5425,5749,5750,5759,5758
203431,5417,5418,5427,5426,5750,5751,5760,5759
203432,5419,5420,5429,5428,5752,5753,5762,5761
203433,5420,5421,5430,5429,5753,5754,5763,5762
203434,5421,5422,5431,5430,5754,5755,5764,5763
203435,5422,5423,5432,5431,5755,5756,5765,5764
203436,5423,5424,5433,5432,5756,5757,5766,5765
203437,5424,5425,5434,5433,5757,5758,5767,5766
203438,5425,5426,5435,5434,5758,5759,5768,5767
203439,5426,5427,5436,5435,5759,5760,5769,5768
203440,5428,5429,5438,5437,5761,5762,5771,5770
203441,5429,5430,5439,5438,5762,5763,5772,5771
203442,5430,5431,5440,5439,5763,5764,5773,5772
203443,5431,5432,5441,5440,5764,5765,5774,5773
203444,5432,5433,5442,5441,5765,5766,5775,5774
203445,5433,5434,5443,5442,5766,5767,5776,5775
203446,5434,5435,5444,5443,5767,5768,5777,5776
203447,5435,5436,5445,5444,5768,5769,5778,5777
203448,5437,5438,5447,5446,5770,5771,5780,5779
203449,5438,5439,5448,5447,5771,5772,5781,5780
203450,5439,5440,5449,5448,5772,5773,5782,5781
203451,5440,5441,5450,5449,5773,5774,5783,5782
203452,5441,5442,5451,5450,5774,5775,5784,5783
203453,5442,5443,5452,5451,5775,5776,5785,5784
203454,5443,5444,5453,5452,5776,5777,5786,5785
203455,5444,5445,5454,5453,5777,5778,5787,5786
203456,5455,5456,5465,5464,5788,5789,5798,5797
203457,5456,5457,5466,5465,5789,5790,5799,5798
203458,5457,5458,5467,5466,5790,5791,5800,5799
203459,5458,5459,5468,5467,5791,5792,5801,5800
203460,5459,5460,5469,5468,5792,5793,5802,5801
203461,5460,5461,5470,5469,5793,5794,5803,5802
203462,5461,5462,5471,5470,5794,5795,5804,5803
203463,5462,5463,5472,5471,5795,5796,5805,5804
203464,5464,5465,5474,5473,5797,5798,5807,5806
203465,5465,5466,5475,5474,5798,5799,5808,5807
203466,5466,5467,5476,5475,5799,5800,5809,5808
203467,5467,5468,5477,5476,5800,5801,5810,5809
203468,5468,5469,5478,5477,5801,5802,5811,5810
203469,5469,5470,5479,5478,5802,5803,5812,5811
203470,5470,5471,5480,5479,5803,5804,5813,5812
203471,5471,5472,5481,5480,5804,5805,5814,5813
203472,5473,5474,5483,5482,5806,5807,5816,5815
203473,5474,5475,5484,5483,5807,5808,5817,5816
203474,5475,5476,5485,5484,5808,5809,5818,5817
203475,5476,5477,5486,5485,5809,5810,5819,5818
203476,5477,5478,5487,5486,5810,5811,5820,5819
203477,5478,5479,5488,5487,5811,5812,5821,5820
203478,5479,5480,5489,5488,5812,5813,5822,5821
203479,5480,5481,5490,5489,5813,5814,5823,5822
203480,5482,5483,5492,5491,5815,5816,5825,5824
203481,5483,5484,5493,5492,5816,5817,5826,5825
203482,5484,5485,5494,5493,5817,5818,5827,5826
203483,5485,5486,5495,5494,5818,5819,5828,5827
203484,5486,5487,5496,5495,5819,5820,5829,5828
203485,5487,5488,5497,5496,5820,5821,5830,5829
203486,5488,5489,5498,5497,5821,5822,5831,5830
203487,5489,5490,5499,5498,5822,5823,5832,5831
203488,5491,5492,5501,5500,5824,5825,5834,5833
203489,5492,5493,5502,5501,5825,5826,5835,5834
203490,5493,5494,5503,5502,5826,5827,5836,5835
203491,5494,5495,5504,5503,5827,5828,5837,5836
203492,5495,5496,5505,5504,5828,5829,5838,5837
203493,5496,5497,5506,5505,5829,5830,5839,5838
203494,5497,5498,5507,5506,5830,5831,5840,5839
203495,5498,5499,5508,5507,5831,5832,5841,5840
203496,5500,5501,5510,5509,5833,5834,5843,5842
203497,5501,5502,5511,5510,5834,5835,5844,5843
203498,5502,5503,5512,5511,5835,5836,5845,5844
203499,5503,5504,5513,5512,5836,5837,5846,5845
203500,5504,5505,5514,5513,5837,5838,5847,5846
203501,5505,5506,5515,5514,5838,5839,5848,5847
203502,5506,5507,5516,5515,5839,5840,5849,5848
203503,5507,5508,5517,5516,5840,5841,5850,5849
203504,5509,5510,5519,5518,5842,5843,5852,5851
203505,5510,5511,5520,5519,5843,5844,5853,5852
203506,5511,5512,5521,5520,5844,5845,5854,5853
203507,5512,5513,5522,5521,5845,5846,5855,5854
203508,5513,5514,5523,5522,5846,5847,5856,5855
203509,5514,5515,5524,5523,5847,5848,5857,5856
203510,5515,5516,5525,5524,5848,5849,5858,5857
203511,5516,5517,5526,5525,5849,5850,5859,5858
203512,5518,5519,5528,5527,5851,5852,5861,5860
203513,5519,5520,5529,5528,5852,5853,5862,5861
203514,5520,5521,5530,5529,5853,5854,5863,5862
203515,5521,5522,5531,5530,5854,5855,5864,5863
203516,5522,5523,5532,5531,5855,5856,5865,5864
203517,5523,5524,5533,5532,5856,5857,5866,5865
203518,5524,5525,5534,5533,5857,5858,5867,5866
203519,5525,5526,5535,5534,5858,5859,5868,5867
203520,5527,5528,5537,5536,5860,5861,5870,5869
203521,5528,5529,5538,5537,5861,5862,5871,5870
203522,5529,5530,5539,5538,5862,5863,5872,5871
203523,5530,5531,5540,5539,5863,5864,5873,5872
203524,5531,5532,5541,5540,5864,5865,5874,5873
203525,5532,5533,5542,5541,5865,5866,5875,5874
203526,5533,5534,5543,5542,5866,5867,5876,5875
203527,5534,5535,5544,5543,5867,5868,5877,5876
203528,5536,5537,5546,5545,5869,5870,5879,5878
203529,5537,5538,5547,5546,5870,5871,5880,5879
203530,5538,5539,5548,5547,5871,5872,5881,5880
203531,5539,5540,5549,5548,5872,5873,5882,5881
203532,5540,5541,5550,5549,5873,5874,5883,5882
203533,5541,5542,5551,5550,5874,5875,5884,5883
203534,5542,5543,5552,5551,5875,5876,5885,5884
203535,5543,5544,5553,5552,5876,5877,5886,5885
203536,5545,5546,5555,5554,5878,5879,5888,5887
203537,5546,5547,5556,5555,5879,5880,5889,5888
203538,5547,5548,5557,5556,5880,5881,5890,5889
203539,5548,5549,5558,5557,5881,5882,5891,5890
203540,5549,5550,5559,5558,5882,5883,5892,5891
203541,5550,5551,5560,5559,5883,5884,5893,5892
203542,5551,5552,5561,5560,5884,5885,5894,5893
203543,5552,5553,5562,5561,5885,5886,5895,5894
203544,5554,5555,5564,5563,5887,5888,5897,5896
203545,5555,5556,5565,5564,5888,5889,5898,5897
203546,5556,5557,5566,5565,5889,5890,5899,5898
203547,5557,5558,5567,5566,5890,5891,5900,5899
203548,5558,5559,5568,5567,5891,5892,5901,5900
203549,5559,5560,5569,5568,5892,5893,5902,5901
203550,5560,5561,5570,5569,5893,5894,5903,5902
203551,5561,5562,5571,5570,5894,5895,5904,5903
203552,5563,5564,5573,5572,5896,5897,5906,5905
203553,5564,5565,5574,5573,5897,5898,5907,5906
203554,5565,5566,5575,5574,5898,5899,5908,5907
203555,5566,5567,5576,5575,5899,5900,5909,5908
203556,5567,5568,5577,5576,5900,5901,5910,5909
203557,5568,5569,5578,5577,5901,5902,5911,5910
203558,5569,5570,5579,5578,5902,5903,5912,5911
203559,5570,5571,5580,5579,5903,5904,5913,5912
203560,5572,5573,5582,5581,5905,5906,5915,5914
203561,5573,5574,5583,5582,5906,5907,5916,5915
203562,5574,5575,5584,5583,5907,5908,5917,5916
203563,5575,5576,5585,5584,5908,5909,5918,5917
203564,5576,5577,5586,5585,5909,5910,5919,5918
203565,5577,5578,5587,5586,5910,5911,5920,5919
203566,5578,5579,5588,5587,5911,5912,5921,5920
203567,5579,5580,5589,5588,5912,5913,5922,5921
203568,5581,5582,5591,5590,5914,5915,5924,5923
203569,5582,5583,5592,5591,5915,5916,5925,5924
203570,5583,5584,5593,5592,5916,5917,5926,5925
203571,5584,5585,5594,5593,5917,5918,5927,5926
203572,5585,5586,5595,5594,5918,5919,5928,5927
203573,5586,5587,5596,5595,5919,5920,5929,5928
203574,5587,5588,5597,5596,5920,5921,5930,5929
203575,5588,5589,5598,5597,5921,5922,5931,5930
203576,5590,5591,5600,5599,5923,5924,5933,5932
203577,5591,5592,5601,5600,5924,5925,5934,5933
203578,5592,5593,5602,5601,5925,5926,5935,5934
203579,5593,5594,5603,5602,5926,5927,5936,5935
203580,5594,5595,5604,5603,5927,5928,5937,5936
203581,5595,5596,5605,5604,5928,5929,5938,5937
203582,5596,5597,5606,5605,5929,5930,5939,5938
203583,5597,5598,5607,5606,5930,5931,5940,5939
203584,5599,5600,5609,5608,5932,5933,5942,5941
203585,5600,5601,5610,5609,5933,5934,5943,5942
203586,5601,5602,5611,5610,5934,5935,5944,5943
203587,5602,5603,5612,5611,5935,5936,5945,5944
203588,5603,5604,5613,5612,5936,5937,5946,5945
203589,5604,5605,5614,5613,5937,5938,5947,5946
203590,5605,5606,5615,5614,5938,5939,5948,5947
203591,5606,5607,5616,5615,5939,5940,5949,5948
203592,5608,5609,5618,5617,5941,5942,5951,5950
203593,5609,5610,5619,5618,5942,5943,5952,5951
203594,5610,5611,5620,5619,5943,5944,5953,5952
203595,5611,5612,5621,5620,5944,5945,5954,5953
203596,5612,5613,5622,5621,5945,5946,5955,5954
203597,5613,5614,5623,5622,5946,5947,5956,5955
203598,5614,5615,5624,5623,5947,5948,5957,5956
203599,5615,5616,5625,5624,5948,5949,5958,5957
203600,5617,5618,5627,5626,5950,5951,5960,5959
203601,5618,5619,5628,5627,5951,5952,5961,5960
203602,5619,5620,5629,5628,5952,5953,5962,5961
203603,5620,5621,5630,5629,5953,5954,5963,5962
203604,5621,5622,5631,5630,5954,5955,5964,5963
203605,5622,5623,5632,5631,5955,5956,5965,5964
203606,5623,5624,5633,5632,5956,5957,5966,5965
203607,5624,5625,5634,5633,5957,5958,5967,5966
203608,5626,5627,5636,5635,5959,5960,5969,5968
203609,5627,5628,5637,5636,5960,5961,5970,5969
203610,5628,5629,5638,5637,5961,5962,5971,5970
203611,5629,5630,5639,5638,5962,5963,5972,5971
203612,5630,5631,5640,5639,5963,5964,5973,5972
203613,5631,5632,5641,5640,5964,5965,5974,5973
203614,5632,5633,5642,5641,5965,5966,5975,5974
203615,5633,5634,5643,5642,5966,5967,5976,5975
203616,5635,5636,5645,5644,5968,5969,5978,5977
203617,5636,5637,5646,5645,5969,5970,5979,5978
203618,5637,5638,5647,5646,5970,5971,5980,5979
203619,5638,5639,5648,5647,5971,5972,5981,5980
203620,5639,5640,5649,5648,5972,5973,5982,5981
203621,5640,5641,5650,5649,5973,5974,5983,5982
203622,5641,5642,5651,5650,5974,5975,5984,5983
203623,5642,5643,5652,5651,5975,5976,5985,5984
203624,5644,5645,5654,5653,5977,5978,5987,5986
203625,5645,5646,5655,5654,5978,5979,5988,5987
203626,5646,5647,5656,5655,5979,5980,5989,5988
203627,5647,5648,5657,5656,5980,5981,5990,5989
203628,5648,5649,5658,5657,5981,5982,5991,5990
203629,5649,5650,5659,5658,5982,5983,5992,5991
203630,5650,5651,5660,5659,5983,5984,5993,5992
203631,5651,5652,5661,5660,5984,5985,5994,5993
203632,5653,5654,5663,5662,5986,5987,5996,5995
203633,5654,5655,5664,5663,5987,5988,5997,5996
203634,5655,5656,5665,5664,5988,5989,5998,5997
203635,5656,5657,5666,5665,5989,5990,5999,5998
203636,5657,5658,5667,5666,5990,5991,6000,5999
203637,5658,5659,5668,5667,5991,5992,6001,6000
203638,5659,5660,5669,5668,5992,5993,6002,6001
203639,5660,5661,5670,5669,5993,5994,6003,6002
203640,5662,5663,5672,5671,5995,5996,6005,6004
203641,5663,5664,5673,5672,5996,5997,6006,6005
203642,5664,5665,5674,5673,5997,5998,6007,6006
203643,5665,5666,5675,5674,5998,5999,6008,6007
203644,5666,5667,5676,5675,5999,6000,6009,6008
203645,5667,5668,5677,5676,6000,6001,6010,6009
203646,5668,5669,5678,5677,6001,6002,6011,6010
203647,5669,5670,5679,5678,6002,6003,6012,6011
203648,5671,5672,5681,5680,6004,6005,6014,6013
203649,5672,5673,5682,5681,6005,6006,6015,6014
203650,5673,5674,5683,5682,6006,6007,6016,6015
203651,5674,5675,5684,5683,6007,6008,6017,6016
203652,5675,5676,5685,5684,6008,6009,6018,6017
203653,5676,5677,5686,5685,6009,6010,6019,6018
203654,5677,5678,5687,5686,6010,6011,6020,6019
203655,5678,5679,5688,5687,6011,6012,6021,6020
203656,5680,5681,5690,5689,6013,6014,6023,6022
203657,5681,5682,5691,5690,6014,6015,6024,6023
203658,5682,5683,5692,5691,6015,6016,6025,6024
203659,5683,5684,5693,5692,6016,6017,6026,6025
203660,5684,5685,5694,5693,6017,6018,6027,6026
203661,5685,5686,5695,5694,6018,6019,6028,6027
203662,5686,5687,5696,5695,6019,6020,6029,6028
203663,5687,5688,5697,5696,6020,6021,6030,6029
203664,5689,5690,5699,5698,6022,6023,6032,6031
203665,5690,5691,5700,5699,6023,6024,6033,6032
203666,5691,5692,5701,5700,6024,6025,6034,6033
203667,5692,5693,5702,5701,6025,6026,6035,6034
203668,5693,5694,5703,5702,6026,6027,6036,6035
203669,5694,5695,5704,5703,6027,6028,6037,6036
203670,5695,5696,5705,5704,6028,6029,6038,6037
203671,5696,5697,5706,5705,6029,6030,6039,6038
203672,5698,5699,5708,5707,6031,6032,6041,6040
203673,5699,5700,5709,5708,6032,6033,6042,6041
203674,5700,5701,5710,5709,6033,6034,6043,6042
203675,5701,5702,5711,5710,6034,6035,6044,6043
203676,5702,5703,5712,5711,6035,6036,6045,6044
203677,5703,5704,5713,5712,6036,6037,6046,6045
203678,5704,5705,5714,5713,6037,6038,6047,6046
203679,5705,5706,5715,5714,6038,6039,6048,6047
203680,5707,5708,5717,5716,6040,6041,6050,6049
203681,5708,5709,5718,5717,6041,6042,6051,6050
203682,5709,5710,5719,5718,6042,6043,6052,6051
203683,5710,5711,5720,5719,6043,6044,6053,6052
203684,5711,5712,5721,5720,6044,6045,6054,6053
203685,5712,5713,5722,5721,6045,6046,6055,6054
203686,5713,5714,5723,5722,6046,6047,6056,6055
203687,5714,5715,5724,5723,6047,6048,6057,6056
203688,5716,5717,5726,5725,6049,6050,6059,6058
203689,5717,5718,5727,5726,6050,6051,6060,6059
203690,5718,5719,5728,5727,6051,6052,6061,6060
203691,5719,5720,5729,5728,6052,6053,6062,6061
203692,5720,5721,5730,5729,6053,6054,6063,6062
203693,5721,5722,5731,5730,6054,6055,6064,6063
203694,5722,5723,5732,5731,6055,6056,6065,6064
203695,5723,5724,5733,5732,6056,6057,6066,6065
203696,5725,5726,5735,5734,6058,6059,6068,6067
203697,5726,5727,5736,5735,6059,6060,6069,6068
203698,5727,5728,5737,5736,6060,6061,6070,6069
203699,5728,5729,5738,5737,6061,6062,6071,6070
203700,5729,5730,5739,5738,6062,6063,6072,6071
203701,5730,5731,5740,5739,6063,6064,6073,6072
203702,5731,5732,5741,5740,6064,6065,6074,6073
203703,5732,5733,5742,5741,6065,6066,6075,6074
203704,5734,5735,5744,5743,6067,6068,6077,6076
203705,5735,5736,5745,5744,6068,6069,6078,6077
203706,5736,5737,5746,5745,6069,6070,6079,6078
203707,5737,5738,5747,5746,6070,6071,6080,6079
203708,5738,5739,5748,5747,6071,6072,6081,6080
203709,5739,5740,5749,5748,6072,6073,6082,6081
203710,5740,5741,5750,5749,6073,6074,6083,6082
203711,5741,5742,5751,5750,6074,6075,6084,6083
203712,5743,5744,5753,5752,6076,6077,6086,6085
203713,5744,5745,5754,5753,6077,6078,6087,6086
203714,5745,5746,5755,5754,6078,6079,6088,6087
203715,5746,5747,5756,5755,6079,6080,6089,6088
203716,5747,5748,5757,5756,6080,6081,6090,6089
203717,5748,5749,5758,5757,6081,6082,6091,6090
203718,5749,5750,5759,5758,6082,6083,6092,6091
203719,5750,5751,5760,5759,6083,6084,6093,6092
203720,5752,5753,5762,5761,6085,6086,6095,6094
203721,5753,5754,5763,5762,6086,6087,6096,6095
203722,5754,5755,5764,5763,6087,6088,6097,6096
203723,5755,5756,5765,5764,6088,6089,6098,6097
203724,5756,5757,5766,5765,6089,6090,6099,6098
203725,5757,5758,5767,5766,6090,6091,6100,6099
203726,5758,5759,5768,5767,6091,6092,6101,6100
203727,5759,5760,5769,5768,6092,6093,6102,6101
203728,5761,5762,5771,5770,6094,6095,6104,6103
203729,5762,5763,5772,5771,6095,6096,6105,6104
203730,5763,5764,5773,5772,6096,6097,6106,6105
203731,5764,5765,5774,5773,6097,6098,6107,6106
203732,5765,5766,5775,5774,6098,6099,6108,6107
203733,5766,5767,5776,5775,6099,6100,6109,6108
203734,5767,5768,5777,5776,6100,6101,6110,6109
203735,5768,5769,5778,5777,6101,6102,6111,6110
203736,5770,5771,5780,5779,6103,6104,6113,6112
203737,5771,5772,5781,5780,6104,6105,6114,6113
203738,5772,5773,5782,5781,6105,6106,6115,6114
203739,5773,5774,5783,5782,6106,6107,6116,6115
203740,5774,5775,5784,5783,6107,6108,6117,6116
203741,5775,5776,5785,5784,6108,6109,6118,6117
203742,5776,5777,5786,5785,6109,6110,6119,6118
203743,5777,5778,5787,5786,6110,6111,6120,6119
203744,5788,5789,5798,5797,6121,6122,6131,6130
203745,5789,5790,5799,5798,6122,6123,6132,6131
203746,5790,5791,5800,5799,6123,6124,6133,6132
203747,5791,5792,5801,5800,6124,6125,6134,6133
203748,5792,5793,5802,5801,6125,6126,6135,6134
203749,5793,5794,5803,5802,6126,6127,6136,6135
203750,5794,5795,5804,5803,6127,6128,6137,6136
203751,5795,5796,5805,5804,6128,6129,6138,6137
203752,5797,5798,5807,5806,6130,6131,6140,6139
203753,5798,5799,5808,5807,6131,6132,6141,6140
203754,5799,5800,5809,5808,6132,6133,6142,6141
203755,5800,5801,5810,5809,6133,6134,6143,6142
203756,5801,5802,5811,5810,6134,6135,6144,6143
203757,5802,5803,5812,5811,6135,6136,6145,6144
203758,5803,5804,5813,5812,6136,6137,6146,6145
203759,5804,5805,5814,5813,6137,6138,6147,6146
203760,5806,5807,5816,5815,6139,6140,6149,6148
203761,5807,5808,5817,5816,6140,6141,6150,6149
203762,5808,5809,5818,5817,6141,6142,6151,6150
203763,5809,5810,5819,5818,6142,6143,6152,6151
203764,5810,5811,5820,5819,6143,6144,6153,6152
203765,5811,5812,5821,5820,6144,6145,6154,6153
203766,5812,5813,5822,5821,6145,6146,6155,6154
203767,5813,5814,5823,5822,6146,6147,6156,6155
203768,5815,5816,5825,5824,6148,6149,6158,6157
203769,5816,5817,5826,5825,6149,6150,6159,6158
203770,5817,5818,5827,5826,6150,6151,6160,6159
203771,5818,5819,5828,5827,6151,6152,6161,6160
203772,5819,5820,5829,5828,6152,6153,6162,6161
203773,5820,5821,5830,5829,6153,6154,6163,6162
203774,5821,5822,5831,5830,6154,6155,6164,6163
203775,5822,5823,5832,5831,6155,6156,6165,6164
203776,5824,5825,5834,5833,6157,6158,6167,6166
203777,5825,5826,5835,5834,6158,6159,6168,6167
203778,5826,5827,5836,5835,6159,6160,6169,6168
203779,5827,5828,5837,5836,6160,6161,6170,6169
203780,5828,5829,5838,5837,6161,6162,6171,6170
203781,5829,5830,5839,5838,6162,6163,6172,6171
203782,5830,5831,5840,5839,6163,6164,6173,6172
203783,5831,5832,5841,5840,6164,6165,6174,6173
203784,5833,5834,5843,5842,6166,6167,6176,6175
203785,5834,5835,5844,5843,6167,6168,6177,6176
203786,5835,5836,5845,5844,6168,6169,6178,6177
203787,5836,5837,5846,5845,6169,6170,6179,6178
203788,5837,5838,5847,5846,6170,6171,6180,6179
203789,5838,5839,5848,5847,6171,6172,6181,6180
203790,5839,5840,5849,5848,6172,6173,6182,6181
203791,5840,5841,5850,5849,6173,6174,6183,6182
203792,5842,5843,5852,5851,6175,6176,6185,6184
203793,5843,5844,5853,5852,6176,6177,6186,6185
203794,5844,5845,5854,5853,6177,6178,6187,6186
203795,5845,5846,5855,5854,6178,6179,6188,6187
203796,5846,5847,5856,5855,6179,6180,6189,6188
203797,5847,5848,5857,5856,6180,6181,6190,6189
203798,5848,5849,5858,5857,6181,6182,6191,6190
203799,5849,5850,5859,5858,6182,6183,6192,6191
203800,5851,5852,5861,5860,6184,6185,6194,6193
203801,5852,5853,5862,5861,6185,6186,6195,6194
203802,5853,5854,5863,5862,6186,6187,6196,6195
203803,5854,5855,5864,5863,6187,6188,6197,6196
203804,5855,5856,5865,5864,6188,6189,6198,6197
203805,5856,5857,5866,5865,6189,6190,6199,6198
203806,5857,5858,5867,5866,6190,6191,6200,6199
203807,5858,5859,5868,5867,6191,6192,6201,6200
203808,5860,5861,5870,5869,6193,6194,6203,6202
203809,5861,5862,5871,5870,6194,6195,6204,6203
203810,5862,5863,5872,5871,6195,6196,6205,6204
203811,5863,5864,5873,5872,6196,6197,6206,6205
203812,5864,5865,5874,5873,6197,6198,6207,6206
203813,5865,5866,5875,5874,6198,6199,6208,6207
203814,5866,5867,5876,5875,6199,6200,6209,6208
203815,5867,5868,5877,5876,6200,6201,6210,6209
203816,5869,5870,5879,5878,6202,6203,6212,6211
203817,5870,5871,5880,5879,6203,6204,6213,6212
203818,5871,5872,5881,5880,6204,6205,6214,6213
203819,5872,5873,5882,5881,6205,6206,6215,6214
203820,5873,5874,5883,5882,6206,6207,6216,6215
203821,5874,5875,5884,5883,6207,6208,6217,6216
203822,5875,5876,5885,5884,6208,6209,6218,6217
203823,5876,5877,5886,5885,6209,6210,6219,6218
203824,5878,5879,5888,5887,6211,6212,6221,6220
203825,5879,5880,5889,5888,6212,6213,6222,6221
203826,5880,5881,5890,5889,6213,6214,6223,6222
203827,5881,5882,5891,5890,6214,6215,6224,6223
203828,5882,5883,5892,5891,6215,6216,6225,6224
203829,5883,5884,5893,5892,6216,6217,6226,6225
203830,5884,5885,5894,5893,6217,6218,6227,6226
203831,5885,5886,5895,5894,6218,6219,6228,6227
203832,5887,5888,5897,5896,6220,6221,6230,6229
203833,5888,5889,5898,5897,6221,6222,6231,6230
203834,5889,5890,5899,5898,6222,6223,6232,6231
203835,5890,5891,5900,5899,6223,6224,6233,6232
203836,5891,5892,5901,5900,6224,6225,6234,6233
203837,5892,5893,5902,5901,6225,6226,6235,6234
203838,5893,5894,5903,5902,6226,6227,6236,6235
203839,5894,5895,5904,5903,6227,6228,6237,6236
203840,5896,5897,5906,5905,6229,6230,6239,6238
203841,5897,5898,5907,5906,6230,6231,6240,6239
203842,5898,5899,5908,5907,6231,6232,6241,6240
203843,5899,5900,5909,5908,6232,6233,6242,6241
203844,5900,5901,5910,5909,6233,6234,6243,6242
203845,5901,5902,5911,5910,6234,6235,6244,6243
203846,5902,5903,5912,5911,6235,6236,6245,6244
203847,5903,5904,5913,5912,6236,6237,6246,6245
203848,5905,5906,5915,5914,6238,6239,6248,6247
203849,5906,5907,5916,5915,6239,6240,6249,6248
203850,5907,5908,5917,5916,6240,6241,6250,6249
203851,5908,5909,5918,5917,6241,6242,6251,6250
203852,5909,5910,5919,5918,6242,6243,6252,6251
203853,5910,5911,5920,5919,6243,6244,6253,6252
203854,5911,5912,5921,5920,6244,6245,6254,6253
203855,5912,5913,5922,5921,6245,6246,6255,6254
203856,5914,5915,5924,5923,6247,6248,6257,6256
203857,5915,5916,5925,5924,6248,6249,6258,6257
203858,5916,5917,5926,5925,6249,6250,6259,6258
203859,5917,5918,5927,5926,6250,6251,6260,6259
203860,5918,5919,5928,5927,6251,6252,6261,6260
203861,5919,5920,5929,5928,6252,6253,6262,6261
203862,5920,5921,5930,5929,6253,6254,6263,6262
203863,5921,5922,5931,5930,6254,6255,6264,6263
203864,5923,5924,5933,5932,6256,6257,6266,6265
203865,5924,5925,5934,5933,6257,6258,6267,6266
203866,5925,5926,5935,5934,6258,6259,6268,6267
203867,5926,5927,5936,5935,6259,6260,6269,6268
203868,5927,5928,5937,5936,6260,6261,6270,6269
203869,5928,5929,5938,5937,6261,6262,6271,6270
203870,5929,5930,5939,5938,6262,6263,6272,6271
203871,5930,5931,5940,5939,6263,6264,6273,6272
203872,5932,5933,5942,5941,6265,6266,6275,6274
203873,5933,5934,5943,5942,6266,6267,6276,6275
203874,5934,5935,5944,5943,6267,6268,6277,6276
203875,5935,5936,5945,5944,6268,6269,6278,6277
203876,5936,5937,5946,5945,6269,6270,6279,6278
203877,5937,5938,5947,5946,6270,6271,6280,6279
203878,5938,5939,5948,5947,6271,6272,6281,6280
203879,5939,5940,5949,5948,6272,6273,6282,6281
203880,5941,5942,5951,5950,6274,6275,6284,6283
203881,5942,5943,5952,5951,6275,6276,6285,6284
203882,5943,5944,5953,5952,6276,6277,6286,6285
203883,5944,5945,5954,5953,6277,6278,6287,6286
203884,5945,5946,5955,5954,6278,6279,6288,6287
203885,5946,5947,5956,5955,6279,6280,6289,6288
203886,5947,5948,5957,5956,6280,6281,6290,6289
203887,5948,5949,5958,5957,6281,6282,6291,6290
203888,5950,5951,5960,5959,6283,6284,6293,6292
203889,5951,5952,5961,5960,6284,6285,6294,6293
203890,5952,5953,5962,5961,6285,6286,6295,6294
203891,5953,5954,5963,5962,6286,6287,6296,6295
203892,5954,5955,5964,5963,6287,6288,6297,6296
203893,5955,5956,5965,5964,6288,6289,6298,6297
203894,5956,5957,5966,5965,6289,6290,6299,6298
203895,5957,5958,5967,5966,6290,6291,6300,6299
203896,5959,5960,5969,5968,6292,6293,6302,6301
203897,5960,5961,5970,5969,6293,6294,6303,6302
203898,5961,5962,5971,5970,6294,6295,6304,6303
203899,5962,5963,5972,5971,6295,6296,6305,6304
203900,5963,5964,5973,5972,6296,6297,6306,6305
203901,5964,5965,5974,5973,6297,6298,6307,6306
203902,5965,5966,5975,5974,6298,6299,6308,6307
203903,5966,5967,5976,5975,6299,6300,6309,6308
203904,5968,5969,5978,5977,6301,6302,6311,6310
203905,5969,5970,5979,5978,6302,6303,6312,6311
203906,5970,5971,5980,5979,6303,6304,6313,6312
203907,5971,5972,5981,5980,6304,6305,6314,6313
203908,5972,5973,5982,5981,6305,6306,6315,6314
203909,5973,5974,5983,5982,6306,6307,6316,6315
203910,5974,5975,5984,5983,6307,6308,6317,6316
203911,5975,5976,5985,5984,6308,6309,6318,6317
203912,5977,5978,5987,5986,6310,6311,6320,6319
203913,5978,5979,5988,5987,6311,6312,6321,6320
203914,5979,5980,5989,5988,6312,6313,6322,6321
203915,5980,5981,5990,5989,6313,6314,6323,6322
203916,5981,5982,5991,5990,6314,6315,6324,6323
203917,5982,5983,5992,5991,6315,6316,6325,6324
203918,5983,5984,5993,5992,6316,6317,6326,6325
203919,5984,5985,5994,5993,6317,6318,6327,6326
203920,5986,5987,5996,5995,6319,6320,6329,6328
203921,5987,5988,5997,5996,6320,6321,6330,6329
203922,5988,5989,5998,5997,6321,6322,6331,6330
203923,5989,5990,5999,5998,6322,6323,6332,6331
203924,5990,5991,6000,5999,6323,6324,6333,6332
203925,5991,5992,6001,6000,6324,6325,6334,6333
203926,5992,5993,6002,6001,6325,6326,6335,6334
203927,5993,5994,6003,6002,6326,6327,6336,6335
203928,5995,5996,6005,6004,6328,6329,6338,6337
203929,5996,5997,6006,6005,6329,6330,6339,6338
203930,5997,5998,6007,6006,6330,6331,6340,6339
203931,5998,5999,6008,6007,6331,6332,6341,6340
203932,5999,6000,6009,6008,6332,6333,6342,6341
203933,6000,6001,6010,6009,6333,6334,6343,6342
203934,6001,6002,6011,6010,6334,6335,6344,6343
203935,6002,6003,6012,6011,6335,6336,6345,6344
203936,6004,6005,6014,6013,6337,6338,6347,6346
203937,6005,6006,6015,6014,6338,6339,6348,6347
203938,6006,6007,6016,6015,6339,6340,6349,6348
203939,6007,6008,6017,6016,6340,6341,6350,6349
203940,6008,6009,6018,6017,6341,6342,6351,6350
203941,6009,6010,6019,6018,6342,6343,6352,6351
203942,6010,6011,6020,6019,6343,6344,6353,6352
203943,6011,6012,6021,6020,6344,6345,6354,6353
203944,6013,6014,6023,6022,6346,6347,6356,6355
203945,6014,6015,6024,6023,6347,6348,6357,6356
203946,6015,6016,6025,6024,6348,6349,6358,6357
203947,6016,6017,6026,6025,6349,6350,6359,6358
203948,6017,6018,6027,6026,6350,6351,6360,6359
203949,6018,6019,6028,6027,6351,6352,6361,6360
203950,6019,6020,6029,6028,6352,6353,6362,6361
203951,6020,6021,6030,6029,6353,6354,6363,6362
203952,6022,6023,6032,6031,6355,6356,6365,6364
203953,6023,6024,6033,6032,6356,6357,6366,6365
203954,6024,6025,6034,6033,6357,6358,6367,6366
203955,6025,6026,6035,6034,6358,6359,6368,6367
203956,6026,6027,6036,6035,6359,6360,6369,6368
203957,6027,6028,6037,6036,6360,6361,6370,6369
203958,6028,6029,6038,6037,6361,6362,6371,6370
203959,6029,6030,6039,6038,6362,6363,6372,6371
203960,6031,6032,6041,6040,6364,6365,6374,6373
203961,6032,6033,6042,6041,6365,6366,6375,6374
203962,6033,6034,6043,6042,6366,6367,6376,6375
203963,6034,6035,6044,6043,6367,6368,6377,6376
203964,6035,6036,6045,6044,6368,6369,6378,6377
203965,6036,6037,6046,6045,6369,6370,6379,6378
203966,6037,6038,6047,6046,6370,6371,6380,6379
203967,6038,6039,6048,6047,6371,6372,6381,6380
203968,6040,6041,6050,6049,6373,6374,6383,6382
203969,6041,6042,6051,6050,6374,6375,6384,6383
203970,6042,6043,6052,6051,6375,6376,6385,6384
203971,6043,6044,6053,6052,6376,6377,6386,6385
203972,6044,6045,6054,6053,6377,6378,6387,6386
203973,6045,6046,6055,6054,6378,6379,6388,6387
203974,6046,6047,6056,6055,6379,6380,6389,6388
203975,6047,6048,6057,6056,6380,6381,6390,6389
203976,6049,6050,6059,6058,6382,6383,6392,6391
203977,6050,6051,6060,6059,6383,6384,6393,6392
203978,6051,6052,6061,6060,6384,6385,6394,6393
203979,6052,6053,6062,6061,6385,6386,6395,6394
203980,6053,6054,6063,6062,6386,6387,6396,6395
203981,6054,6055,6064,6063,6387,6388,6397,6396
203982,6055,6056,6065,6064,6388,6389,6398,6397
203983,6056,6057,6066,6065,6389,6390,6399,6398
203984,6058,6059,6068,6067,6391,6392,6401,6400
203985,6059,6060,6069,6068,6392,6393,6402,6401
203986,6060,6061,6070,6069,6393,6394,6403,6402
203987,6061,6062,6071,6070,6394,6395,6404,6403
203988,6062,6063,6072,6071,6395,6396,6405,6404
203989,6063,6064,6073,6072,6396,6397,6406,6405
203990,6064,6065,6074,6073,6397,6398,6407,6406
203991,6065,6066,6075,6074,6398,6399,6408,6407
203992,6067,6068,6077,6076,6400,6401,6410,6409
203993,6068,6069,6078,6077,6401,6402,6411,6410
203994,6069,6070,6079,6078,6402,6403,6412,6411
203995,6070,6071,6080,6079,6403,6404,6413,6412
203996,6071,6072,6081,6080,6404,6405,6414,6413
203997,6072,6073,6082,6081,6405,6406,6415,6414
203998,6073,6074,6083,6082,6406,6407,6416,6415
203999,6074,6075,6084,6083,6407,6408,6417,6416
204000,6076,6077,6086,6085,6409,6410,6419,6418
204001,6077,6078,6087,6086,6410,6411,6420,6419
204002,6078,6079,6088,6087,6411,6412,6421,6420
204003,6079,6080,6089,6088,6412,6413,6422,6421
204004,6080,6081,6090,6089,6413,6414,6423,6422
204005,6081,6082,6091,6090,6414,6415,6424,6423
204006,6082,6083,6092,6091,6415,6416,6425,6424
204007,6083,6084,6093,6092,6416,6417,6426,6425
204008,6085,6086,6095,6094,6418,6419,6428,6427
204009,6086,6087,6096,6095,6419,6420,6429,6428
204010,6087,6088,6097,6096,6420,6421,6430,6429
204011,6088,6089,6098,6097,6421,6422,6431,6430
204012,6089,6090,6099,6098,6422,6423,6432,6431
204013,6090,6091,6100,6099,6423,6424,6433,6432
204014,6091,6092,6101,6100,6424,6425,6434,6433
204015,6092,6093,6102,6101,6425,6426,6435,6434
204016,6094,6095,6104,6103,6427,6428,6437,6436
204017,6095,6096,6105,6104,6428,6429,6438,6437
204018,6096,6097,6106,6105,6429,6430,6439,6438
204019,6097,6098,6107,6106,6430,6431,6440,6439
204020,6098,6099,6108,6107,6431,6432,6441,6440
204021,6099,6100,6109,6108,6432,6433,6442,6441
204022,6100,6101,6110,6109,6433,6434,6443,6442
204023,6101,6102,6111,6110,6434,6435,6444,6443
204024,6103,6104,6113,6112,6436,6437,6446,6445
204025,6104,6105,6114,6113,6437,6438,6447,6446
204026,6105,6106,6115,6114,6438,6439,6448,6447
204027,6106,6107,6116,6115,6439,6440,6449,6448
204028,6107,6108,6117,6116,6440,6441,6450,6449
204029,6108,6109,6118,6117,6441,6442,6451,6450
204030,6109,6110,6119,6118,6442,6443,6452,6451
204031,6110,6111,6120,6119,6443,6444,6453,6452
204032,6121,6122,6131,6130,6454,6455,6464,6463
204033,6122,6123,6132,6131,6455,6456,6465,6464
204034,6123,6124,6133,6132,6456,6457,6466,6465
204035,6124,6125,6134,6133,6457,6458,6467,6466
204036,6125,6126,6135,6134,6458,6459,6468,6467
204037,6126,6127,6136,6135,6459,6460,6469,6468
204038,6127,6128,6137,6136,6460,6461,6470,6469
204039,6128,6129,6138,6137,6461,6462,6471,6470
204040,6130,6131,6140,6139,6463,6464,6473,6472
204041,6131,6132,6141,6140,6464,6465,6474,6473
204042,6132,6133,6142,6141,6465,6466,6475,6474
204043,6133,6134,6143,6142,6466,6467,6476,6475
204044,6134,6135,6144,6143,6467,6468,6477,6476
204045,6135,6136,6145,6144,6468,6469,6478,6477
204046,6136,6137,6146,6145,6469,6470,6479,6478
204047,6137,6138,6147,6146,6470,6471,6480,6479
204048,6139,6140,6149,6148,6472,6473,6482,6481
204049,6140,6141,6150,6149,6473,6474,6483,6482
204050,6141,6142,6151,6150,6474,6475,6484,6483
204051,6142,6143,6152,6151,6475,6476,6485,6484
204052,6143,6144,6153,6152,6476,6477,6486,6485
204053,6144,6145,6154,6153,6477,6478,6487,6486
204054,6145,6146,6155,6154,6478,6479,6488,6487
204055,6146,6147,6156,6155,6479,6480,6489,6488
204056,6148,6149,6158,6157,6481,6482,6491,6490
204057,6149,6150,6159,6158,6482,6483,6492,6491
204058,6150,6151,6160,6159,6483,6484,6493,6492
204059,6151,6152,6161,6160,6484,6485,6494,6493
204060,6152,6153,6162,6161,6485,6486,6495,6494
204061,6153,6154,6163,6162,6486,6487,6496,6495
204062,6154,6155,6164,6163,6487,6488,6497,6496
204063,6155,6156,6165,6164,6488,6489,6498,6497
204064,6157,6158,6167,6166,6490,6491,6500,6499
204065,6158,6159,6168,6167,6491,6492,6501,6500
204066,6159,6160,6169,6168,6492,6493,6502,6501
204067,6160,6161,6170,6169,6493,6494,6503,6502
204068,6161,6162,6171,6170,6494,6495,6504,6503
204069,6162,6163,6172,6171,6495,6496,6505,6504
204070,6163,6164,6173,6172,6496,6497,6506,6505
204071,6164,6165,6174,6173,6497,6498,6507,6506
204072,6166,6167,6176,6175,6499,6500,6509,6508
204073,6167,6168,6177,6176,6500,6501,6510,6509
204074,6168,6169,6178,6177,6501,6502,6511,6510
204075,6169,6170,6179,6178,6502,6503,6512,6511
204076,6170,6171,6180,6179,6503,6504,6513,6512
204077,6171,6172,6181,6180,6504,6505,6514,6513
204078,6172,6173,6182,6181,6505,6506,6515,6514
204079,6173,6174,6183,6182,6506,6507,6516,6515
204080,6175,6176,6185,6184,6508,6509,6518,6517
204081,6176,6177,6186,6185,6509,6510,6519,6518
204082,6177,6178,6187,6186,6510,6511,6520,6519
204083,6178,6179,6188,6187,6511,6512,6521,6520
204084,6179,6180,6189,6188,6512,6513,6522,6521
204085,6180,6181,6190,6189,6513,6514,6523,6522
204086,6181,6182,6191,6190,6514,6515,6524,6523
204087,6182,6183,6192,6191,6515,6516,6525,6524
204088,6184,6185,6194,6193,6517,6518,6527,6526
204089,6185,6186,6195,6194,6518,6519,6528,6527
204090,6186,6187,6196,6195,6519,6520,6529,6528
204091,6187,6188,6197,6196,6520,6521,6530,6529
204092,6188,6189,6198,6197,6521,6522,6531,6530
204093,6189,6190,6199,6198,6522,6523,6532,6531
204094,6190,6191,6200,6199,6523,6524,6533,6532
204095,6191,6192,6201,6200,6524,6525,6534,6533
204096,6193,6194,6203,6202,6526,6527,6536,6535
204097,6194,6195,6204,6203,6527,6528,6537,6536
204098,6195,6196,6205,6204,6528,6529,6538,6537
204099,6196,6197,6206,6205,6529,6530,6539,6538
204100,6197,6198,6207,6206,6530,6531,6540,6539
204101,6198,6199,6208,6207,6531,6532,6541,6540
204102,6199,6200,6209,6208,6532,6533,6542,6541
204103,6200,6201,6210,6209,6533,6534,6543,6542
204104,6202,6203,6212,6211,6535,6536,6545,6544
204105,6203,6204,6213,6212,6536,6537,6546,6545
204106,6204,6205,6214,6213,6537,6538,6547,6546
204107,6205,6206,6215,6214,6538,6539,6548,6547
204108,6206,6207,6216,6215,6539,6540,6549,6548
204109,6207,6208,6217,6216,6540,6541,6550,6549
204110,6208,6209,6218,6217,6541,6542,6551,6550
204111,6209,6210,6219,6218,6542,6543,6552,6551
204112,6211,6212,6221,6220,6544,6545,6554,6553
204113,6212,6213,6222,6221,6545,6546,6555,6554
204114,6213,6214,6223,6222,6546,6547,6556,6555
204115,6214,6215,6224,6223,6547,6548,6557,6556
204116,6215,6216,6225,6224,6548,6549,6558,6557
204117,6216,6217,6226,6225,6549,6550,6559,6558
204118,6217,6218,6227,6226,6550,6551,6560,6559
204119,6218,6219,6228,6227,6551,6552,6561,6560
204120,6220,6221,6230,6229,6553,6554,6563,6562
204121,6221,6222,6231,6230,6554,6555,6564,6563
204122,6222,6223,6232,6231,6555,6556,6565,6564
204123,6223,6224,6233,6232,6556,6557,6566,6565
204124,6224,6225,6234,6233,6557,6558,6567,6566
204125,6225,6226,6235,6234,6558,6559,6568,6567
204126,6226,6227,6236,6235,6559,6560,6569,6568
204127,6227,6228,6237,6236,6560,6561,6570,6569
204128,6229,6230,6239,6238,6562,6563,6572,6571
204129,6230,6231,6240,6239,6563,6564,6573,6572
204130,6231,6232,6241,6240,6564,6565,6574,6573
204131,6232,6233,6242,6241,6565,6566,6575,6574
204132,6233,6234,6243,6242,6566,6567,6576,6575
204133,6234,6235,6244,6243,6567,6568,6577,6576
204134,6235,6236,6245,6244,6568,6569,6578,6577
204135,6236,6237,6246,6245,6569,6570,6579,6578
204136,6238,6239,6248,6247,6571,6572,6581,6580
204137,6239,6240,6249,6248,6572,6573,6582,6581
204138,6240,6241,6250,6249,6573,6574,6583,6582
204139,6241,6242,6251,6250,6574,6575,6584,6583
204140,6242,6243,6252,6251,6575,6576,6585,6584
204141,6243,6244,6253,6252,6576,6577,6586,6585
204142,6244,6245,6254,6253,6577,6578,6587,6586
204143,6245,6246,6255,6254,6578,6579,6588,6587
204144,6247,6248,6257,6256,6580,6581,6590,6589
204145,6248,6249,6258,6257,6581,6582,6591,6590
204146,6249,6250,6259,6258,6582,6583,6592,6591
204147,6250,6251,6260,6259,6583,6584,6593,6592
204148,6251,6252,6261,6260,6584,6585,6594,6593
204149,6252,6253,6262,6261,6585,6586,6595,6594
204150,6253,6254,6263,6262,6586,6587,6596,6595
204151,6254,6255,6264,6263,6587,6588,6597,6596
204152,6256,6257,6266,6265,6589,6590,6599,6598
204153,6257,6258,6267,6266,6590,6591,6600,6599
204154,6258,6259,6268,6267,6591,6592,6601,6600
204155,6259,6260,6269,6268,6592,6593,6602,6601
204156,6260,6261,6270,6269,6593,6594,6603,6602
204157,6261,6262,6271,6270,6594,6595,6604,6603
204158,6262,6263,6272,6271,6595,6596,6605,6604
204159,6263,6264,6273,6272,6596,6597,6606,6605
204160,6265,6266,6275,6274,6598,6599,6608,6607
204161,6266,6267,6276,6275,6599,6600,6609,6608
204162,6267,6268,6277,6276,6600,6601,6610,6609
204163,6268,6269,6278,6277,6601,6602,6611,6610
204164,6269,6270,6279,6278,6602,6603,6612,6611
204165,6270,6271,6280,6279,6603,6604,6613,6612
204166,6271,6272,6281,6280,6604,6605,6614,6613
204167,6272,6273,6282,6281,6605,6606,6615,6614
204168,6274,6275,6284,6283,6607,6608,6617,6616
204169,6275,6276,6285,6284,6608,6609,6618,6617
204170,6276,6277,6286,6285,6609,6610,6619,6618
204171,6277,6278,6287,6286,6610,6611,6620,6619
204172,6278,6279,6288,6287,6611,6612,6621,6620
204173,6279,6280,6289,6288,6612,6613,6622,6621
204174,6280,6281,6290,6289,6613,6614,6623,6622
204175,6281,6282,6291,6290,6614,6615,6624,6623
204176,6283,6284,6293,6292,6616,6617,6626,6625
204177,6284,6285,6294,6293,6617,6618,6627,6626
204178,6285,6286,6295,6294,6618,6619,6628,6627
204179,6286,6287,6296,6295,6619,6620,6629,6628
204180,6287,6288,6297,6296,6620,6621,6630,6629
204181,6288,6289,6298,6297,6621,6622,6631,6630
204182,6289,6290,6299,6298,6622,6623,6632,6631
204183,6290,6291,6300,6299,6623,6624,6633,6632
204184,6292,6293,6302,6301,6625,6626,6635,6634
204185,6293,6294,6303,6302,6626,6627,6636,6635
204186,6294,6295,6304,6303,6627,6628,6637,6636
204187,6295,6296,6305,6304,6628,6629,6638,6637
204188,6296,6297,6306,6305,6629,6630,6639,6638
204189,6297,6298,6307,6306,6630,6631,6640,6639
204190,6298,6299,6308,6307,6631,6632,6641,6640
204191,6299,6300,6309,6308,6632,6633,6642,6641
204192,6301,6302,6311,6310,6634,6635,6644,6643
204193,6302,6303,6312,6311,6635,6636,6645,6644
204194,6303,6304,6313,6312,6636,6637,6646,6645
204195,6304,6305,6314,6313,6637,6638,6647,6646
204196,6305,6306,6315,6314,6638,6639,6648,6647
204197,6306,6307,6316,6315,6639,6640,6649,6648
204198,6307,6308,6317,6316,6640,6641,6650,6649
204199,6308,6309,6318,6317,6641,6642,6651,6650
204200,6310,6311,6320,6319,6643,6644,6653,6652
204201,6311,6312,6321,6320,6644,6645,6654,6653
204202,6312,6313,6322,6321,6645,6646,6655,6654
204203,6313,6314,6323,6322,6646,6647,6656,6655
204204,6314,6315,6324,6323,6647,6648,6657,6656
204205,6315,6316,6325,6324,6648,6649,6658,6657
204206,6316,6317,6326,6325,6649,6650,6659,6658
204207,6317,6318,6327,6326,6650,6651,6660,6659
204208,6319,6320,6329,6328,6652,6653,6662,6661
204209,6320,6321,6330,6329,6653,6654,6663,6662
204210,6321,6322,6331,6330,6654,6655,6664,6663
204211,6322,6323,6332,6331,6655,6656,6665,6664
204212,6323,6324,6333,6332,6656,6657,6666,6665
204213,6324,6325,6334,6333,6657,6658,6667,6666
204214,6325,6326,6335,6334,6658,6659,6668,6667
204215,6326,6327,6336,6335,6659,6660,6669,6668
204216,6328,6329,6338,6337,6661,6662,6671,6670
204217,6329,6330,6339,6338,6662,6663,6672,6671
204218,6330,6331,6340,6339,6663,6664,6673,6672
204219,6331,6332,6341,6340,6664,6665,6674,6673
204220,6332,6333,6342,6341,6665,6666,6675,6674
204221,6333,6334,6343,6342,6666,6667,6676,6675
204222,6334,6335,6344,6343,6667,6668,6677,6676
204223,6335,6336,6345,6344,6668,6669,6678,6677
204224,6337,6338,6347,6346,6670,6671,6680,6679
204225,6338,6339,6348,6347,6671,6672,6681,6680
204226,6339,6340,6349,6348,6672,6673,6682,6681
204227,6340,6341,6350,6349,6673,6674,6683,6682
204228,6341,6342,6351,6350,6674,6675,6684,6683
204229,6342,6343,6352,6351,6675,6676,6685,6684
204230,6343,6344,6353,6352,6676,6677,6686,6685
204231,6344,6345,6354,6353,6677,6678,6687,6686
204232,6346,6347,6356,6355,6679,6680,6689,6688
204233,6347,6348,6357,6356,6680,6681,6690,6689
204234,6348,6349,6358,6357,6681,6682,6691,6690
204235,6349,6350,6359,6358,6682,6683,6692,6691
204236,6350,6351,6360,6359,6683,6684,6693,6692
204237,6351,6352,6361,6360,6684,6685,6694,6693
204238,6352,6353,6362,6361,6685,6686,6695,6694
204239,6353,6354,6363,6362,6686,6687,6696,6695
204240,6355,6356,6365,6364,6688,6689,6698,6697
204241,6356,6357,6366,6365,6689,6690,6699,6698
204242,6357,6358,6367,6366,6690,6691,6700,6699
204243,6358,6359,6368,6367,6691,6692,6701,6700
204244,6359,6360,6369,6368,6692,6693,6702,6701
204245,6360,6361,6370,6369,6693,6694,6703,6702
204246,6361,6362,6371,6370,6694,6695,6704,6703
204247,6362,6363,6372,6371,6695,6696,6705,6704
204248,6364,6365,6374,6373,6697,6698,6707,6706
204249,6365,6366,6375,6374,6698,6699,6708,6707
204250,6366,6367,6376,6375,6699,6700,6709,6708
204251,6367,6368,6377,6376,6700,6701,6710,6709
204252,6368,6369,6378,6377,6701,6702,6711,6710
204253,6369,6370,6379,6378,6702,6703,6712,6711
204254,6370,6371,6380,6379,6703,6704,6713,6712
204255,6371,6372,6381,6380,6704,6705,6714,6713
204256,6373,6374,6383,6382,6706,6707,6716,6715
204257,6374,6375,6384,6383,6707,6708,6717,6716
204258,6375,6376,6385,6384,6708,6709,6718,6717
204259,6376,6377,6386,6385,6709,6710,6719,6718
204260,6377,6378,6387,6386,6710,6711,6720,6719
204261,6378,6379,6388,6387,6711,6712,6721,6720
204262,6379,6380,6389,6388,6712,6713,6722,6721
204263,6380,6381,6390,6389,6713,6714,6723,6722
204264,6382,6383,6392,6391,6715,6716,6725,6724
204265,6383,6384,6393,6392,6716,6717,6726,6725
204266,6384,6385,6394,6393,6717,6718,6727,6726
204267,6385,6386,6395,6394,6718,6719,6728,6727
204268,6386,6387,6396,6395,6719,6720,6729,6728
204269,6387,6388,6397,6396,6720,6721,6730,6729
204270,6388,6389,6398,6397,6721,6722,6731,6730
204271,6389,6390,6399,6398,6722,6723,6732,6731
204272,6391,6392,6401,6400,6724,6725,6734,6733
204273,6392,6393,6402,6401,6725,6726,6735,6734
204274,6393,6394,6403,6402,6726,6727,6736,6735
204275,6394,6395,6404,6403,6727,6728,6737,6736
204276,6395,6396,6405,6404,6728,6729,6738,6737
204277,6396,6397,6406,6405,6729,6730,6739,6738
204278,6397,6398,6407,6406,6730,6731,6740,6739
204279,6398,6399,6408,6407,6731,6732,6741,6740
204280,6400,6401,6410,6409,6733,6734,6743,6742
204281,6401,6402,6411,6410,6734,6735,6744,6743
204282,6402,6403,6412,6411,6735,6736,6745,6744
204283,6403,6404,6413,6412,6736,6737,6746,6745
204284,6404,6405,6414,6413,6737,6738,6747,6746
204285,6405,6406,6415,6414,6738,6739,6748,6747
204286,6406,6407,6416,6415,6739,6740,6749,6748
204287,6407,6408,6417,6416,6740,6741,6750,6749
204288,6409,6410,6419,6418,6742,6743,6752,6751
204289,6410,6411,6420,6419,6743,6744,6753,6752
204290,6411,6412,6421,6420,6744,6745,6754,6753
204291,6412,6413,6422,6421,6745,6746,6755,6754
204292,6413,6414,6423,6422,6746,6747,6756,6755
204293,6414,6415,6424,6423,6747,6748,6757,6756
204294,6415,6416,6425,6424,6748,6749,6758,6757
204295,6416,6417,6426,6425,6749,6750,6759,6758
204296,6418,6419,6428,6427,6751,6752,6761,6760
204297,6419,6420,6429,6428,6752,6753,6762,6761
204298,6420,6421,6430,6429,6753,6754,6763,6762
204299,6421,6422,6431,6430,6754,6755,6764,6763
204300,6422,6423,6432,6431,6755,6756,6765,6764
204301,6423,6424,6433,6432,6756,6757,6766,6765
204302,6424,6425,6434,6433,6757,6758,6767,6766
204303,6425,6426,6435,6434,6758,6759,6768,6767
204304,6427,6428,6437,6436,6760,6761,6770,6769
204305,6428,6429,6438,6437,6761,6762,6771,6770
204306,6429,6430,6439,6438,6762,6763,6772,6771
204307,6430,6431,6440,6439,6763,6764,6773,6772
204308,6431,6432,6441,6440,6764,6765,6774,6773
204309,6432,6433,6442,6441,6765,6766,6775,6774
204310,6433,6434,6443,6442,6766,6767,6776,6775
204311,6434,6435,6444,6443,6767,6768,6777,6776
204312,6436,6437,6446,6445,6769,6770,6779,6778
204313,6437,6438,6447,6446,6770,6771,6780,6779
204314,6438,6439,6448,6447,6771,6772,6781,6780
204315,6439,6440,6449,6448,6772,6773,6782,6781
204316,6440,6441,6450,6449,6773,6774,6783,6782
204317,6441,6442,6451,6450,6774,6775,6784,6783
204318,6442,6443,6452,6451,6775,6776,6785,6784
204319,6443,6444,6453,6452,6776,6777,6786,6785
204320,6454,6455,6464,6463,6787,6788,6797,6796
204321,6455,6456,6465,6464,6788,6789,6798,6797
204322,6456,6457,6466,6465,6789,6790,6799,6798
204323,6457,6458,6467,6466,6790,6791,6800,6799
204324,6458,6459,6468,6467,6791,6792,6801,6800
204325,6459,6460,6469,6468,6792,6793,6802,6801
204326,6460,6461,6470,6469,6793,6794,6803,6802
204327,6461,6462,6471,6470,6794,6795,6804,6803
204328,6463,6464,6473,6472,6796,6797,6806,6805
204329,6464,6465,6474,6473,6797,6798,6807,6806
204330,6465,6466,6475,6474,6798,6799,6808,6807
204331,6466,6467,6476,6475,6799,6800,6809,6808
204332,6467,6468,6477,6476,6800,6801,6810,6809
204333,6468,6469,6478,6477,6801,6802,6811,6810
204334,6469,6470,6479,6478,6802,6803,6812,6811
204335,6470,6471,6480,6479,6803,6804,6813,6812
204336,6472,6473,6482,6481,6805,6806,6815,6814
204337,6473,6474,6483,6482,6806,6807,6816,6815
204338,6474,6475,6484,6483,6807,6808,6817,6816
204339,6475,6476,6485,6484,6808,6809,6818,6817
204340,6476,6477,6486,6485,6809,6810,6819,6818
204341,6477,6478,6487,6486,6810,6811,6820,6819
204342,6478,6479,6488,6487,6811,6812,6821,6820
204343,6479,6480,6489,6488,6812,6813,6822,6821
204344,6481,6482,6491,6490,6814,6815,6824,6823
204345,6482,6483,6492,6491,6815,6816,6825,6824
204346,6483,6484,6493,6492,6816,6817,6826,6825
204347,6484,6485,6494,6493,6817,6818,6827,6826
204348,6485,6486,6495,6494,6818,6819,6828,6827
204349,6486,6487,6496,6495,6819,6820,6829,6828
204350,6487,6488,6497,6496,6820,6821,6830,6829
204351,6488,6489,6498,6497,6821,6822,6831,6830
204352,6490,6491,6500,6499,6823,6824,6833,6832
204353,6491,6492,6501,6500,6824,6825,6834,6833
204354,6492,6493,6502,6501,6825,6826,6835,6834
204355,6493,6494,6503,6502,6826,6827,6836,6835
204356,6494,6495,6504,6503,6827,6828,6837,6836
204357,6495,6496,6505,6504,6828,6829,6838,6837
204358,6496,6497,6506,6505,6829,6830,6839,6838
204359,6497,6498,6507,6506,6830,6831,6840,6839
204360,6499,6500,6509,6508,6832,6833,6842,6841
204361,6500,6501,6510,6509,6833,6834,6843,6842
204362,6501,6502,6511,6510,6834,6835,6844,6843
204363,6502,6503,6512,6511,6835,6836,6845,6844
204364,6503,6504,6513,6512,6836,6837,6846,6845
204365,6504,6505,6514,6513,6837,6838,6847,6846
204366,6505,6506,6515,6514,6838,6839,6848,6847
204367,6506,6507,6516,6515,6839,6840,6849,6848
204368,6508,6509,6518,6517,6841,6842,6851,6850
204369,6509,6510,6519,6518,6842,6843,6852,6851
204370,6510,6511,6520,6519,6843,6844,6853,6852
204371,6511,6512,6521,6520,6844,6845,6854,6853
204372,6512,6513,6522,6521,6845,6846,6855,6854
204373,6513,6514,6523,6522,6846,6847,6856,6855
204374,6514,6515,6524,6523,6847,6848,6857,6856
204375,6515,6516,6525,6524,6848,6849,6858,6857
204376,6517,6518,6527,6526,6850,6851,6860,6859
204377,6518,6519,6528,6527,6851,6852,6861,6860
204378,6519,6520,6529,6528,6852,6853,6862,6861
204379,6520,6521,6530,6529,6853,6854,6863,6862
204380,6521,6522,6531,6530,6854,6855,6864,6863
204381,6522,6523,6532,6531,6855,6856,6865,6864
204382,6523,6524,6533,6532,6856,6857,6866,6865
204383,6524,6525,6534,6533,6857,6858,6867,6866
204384,6526,6527,6536,6535,6859,6860,6869,6868
204385,6527,6528,6537,6536,6860,6861,6870,6869
204386,6528,6529,6538,6537,6861,6862,6871,6870
204387,6529,6530,6539,6538,6862,6863,6872,6871
204388,6530,6531,6540,6539,6863,6864,6873,6872
204389,6531,6532,6541,6540,6864,6865,6874,6873
204390,6532,6533,6542,6541,6865,6866,6875,6874
204391,6533,6534,6543,6542,6866,6867,6876,6875
204392,6535,6536,6545,6544,6868,6869,6878,6877
204393,6536,6537,6546,6545,6869,6870,6879,6878
204394,6537,6538,6547,6546,6870,6871,6880,6879
204395,6538,6539,6548,6547,6871,6872,6881,6880
204396,6539,6540,6549,6548,6872,6873,6882,6881
204397,6540,6541,6550,6549,6873,6874,6883,6882
204398,6541,6542,6551,6550,6874,6875,6884,6883
204399,6542,6543,6552,6551,6875,6876,6885,6884
204400,6544,6545,6554,6553,6877,6878,6887,6886
204401,6545,6546,6555,6554,6878,6879,6888,6887
204402,6546,6547,6556,6555,6879,6880,6889,6888
204403,6547,6548,6557,6556,6880,6881,6890,6889
204404,6548,6549,6558,6557,6881,6882,6891,6890
204405,6549,6550,6559,6558,6882,6883,6892,6891
204406,6550,6551,6560,6559,6883,6884,6893,6892
204407,6551,6552,6561,6560,6884,6885,6894,6893
204408,6553,6554,6563,6562,6886,6887,6896,6895
204409,6554,6555,6564,6563,6887,6888,6897,6896
204410,6555,6556,6565,6564,6888,6889,6898,6897
204411,6556,6557,6566,6565,6889,6890,6899,6898
204412,6557,6558,6567,6566,6890,6891,6900,6899
204413,6558,6559,6568,6567,6891,6892,6901,6900
204414,6559,6560,6569,6568,6892,6893,6902,6901
204415,6560,6561,6570,6569,6893,6894,6903,6902
204416,6562,6563,6572,6571,6895,6896,6905,6904
204417,6563,6564,6573,6572,6896,6897,6906,6905
204418,6564,6565,6574,6573,6897,6898,6907,6906
204419,6565,6566,6575,6574,6898,6899,6908,6907
204420,6566,6567,6576,6575,6899,6900,6909,6908
204421,6567,6568,6577,6576,6900,6901,6910,6909
204422,6568,6569,6578,6577,6901,6902,6911,6910
204423,6569,6570,6579,6578,6902,6903,6912,6911
204424,6571,6572,6581,6580,6904,6905,6914,6913
204425,6572,6573,6582,6581,6905,6906,6915,6914
204426,6573,6574,6583,6582,6906,6907,6916,6915
204427,6574,6575,6584,6583,6907,6908,6917,6916
204428,6575,6576,6585,6584,6908,6909,6918,6917
204429,6576,6577,6586,6585,6909,6910,6919,6918
204430,6577,6578,6587,6586,6910,6911,6920,6919
204431,6578,6579,6588,6587,6911,6912,6921,6920
204432,6580,6581,6590,6589,6913,6914,6923,6922
204433,6581,6582,6591,6590,6914,6915,6924,6923
204434,6582,6583,6592,6591,6915,6916,6925,6924
204435,6583,6584,6593,6592,6916,6917,6926,6925
204436,6584,6585,6594,6593,6917,6918,6927,6926
204437,6585,6586,6595,6594,6918,6919,6928,6927
204438,6586,6587,6596,6595,6919,6920,6929,6928
204439,6587,6588,6597,6596,6920,6921,6930,6929
204440,6589,6590,6599,6598,6922,6923,6932,6931
204441,6590,6591,6600,6599,6923,6924,6933,6932
204442,6591,6592,6601,6600,6924,6925,6934,6933
204443,6592,6593,6602,6601,6925,6926,6935,6934
204444,6593,6594,6603,6602,6926,6927,6936,6935
204445,6594,6595,6604,6603,6927,6928,6937,6936
204446,6595,6596,6605,6604,6928,6929,6938,6937
204447,6596,6597,6606,6605,6929,6930,6939,6938
204448,6598,6599,6608,6607,6931,6932,6941,6940
204449,6599,6600,6609,6608,6932,6933,6942,6941
204450,6600,6601,6610,6609,6933,6934,6943,6942
204451,6601,6602,6611,6610,6934,6935,6944,6943
204452,6602,6603,6612,6611,6935,6936,6945,6944
204453,6603,6604,6613,6612,6936,6937,6946,6945
204454,6604,6605,6614,6613,6937,6938,6947,6946
204455,6605,6606,6615,6614,6938,6939,6948,6947
204456,6607,6608,6617,6616,6940,6941,6950,6949
204457,6608,6609,6618,6617,6941,6942,6951,6950
204458,6609,6610,6619,6618,6942,6943,6952,6951
204459,6610,6611,6620,6619,6943,6944,6953,6952
204460,6611,6612,6621,6620,6944,6945,6954,6953
204461,6612,6613,6622,6621,6945,6946,6955,6954
204462,6613,6614,6623,6622,6946,6947,6956,6955
204463,6614,6615,6624,6623,6947,6948,6957,6956
204464,6616,6617,6626,6625,6949,6950,6959,6958
204465,6617,6618,6627,6626,6950,6951,6960,6959
204466,6618,6619,6628,6627,6951,6952,6961,6960
204467,6619,6620,6629,6628,6952,6953,6962,6961
204468,6620,6621,6630,6629,6953,6954,6963,6962
204469,6621,6622,6631,6630,6954,6955,6964,6963
204470,6622,6623,6632,6631,6955,6956,6965,6964
204471,6623,6624,6633,6632,6956,6957,6966,6965
204472,6625,6626,6635,6634,6958,6959,6968,6967
204473,6626,6627,6636,6635,6959,6960,6969,6968
204474,6627,6628,6637,6636,6960,6961,6970,6969
204475,6628,6629,6638,6637,6961,6962,6971,6970
204476,6629,6630,6639,6638,6962,6963,6972,6971
204477,6630,6631,6640,6639,6963,6964,6973,6972
204478,6631,6632,6641,6640,6964,6965,6974,6973
204479,6632,6633,6642,6641,6965,6966,6975,6974
204480,6634,6635,6644,6643,6967,6968,6977,6976
204481,6635,6636,6645,6644,6968,6969,6978,6977
204482,6636,6637,6646,6645,6969,6970,6979,6978
204483,6637,6638,6647,6646,6970,6971,6980,6979
204484,6638,6639,6648,6647,6971,6972,6981,6980
204485,6639,6640,6649,6648,6972,6973,6982,6981
204486,6640,6641,6650,6649,6973,6974,6983,6982
204487,6641,6642,6651,6650,6974,6975,6984,6983
204488,6643,6644,6653,6652,6976,6977,6986,6985
204489,6644,6645,6654,6653,6977,6978,6987,6986
204490,6645,6646,6655,6654,6978,6979,6988,6987
204491,6646,6647,6656,6655,6979,6980,6989,6988
204492,6647,6648,6657,6656,6980,6981,6990,6989
204493,6648,6649,6658,6657,6981,6982,6991,6990
204494,6649,6650,6659,6658,6982,6983,6992,6991
204495,6650,6651,6660,6659,6983,6984,6993,6992
204496,6652,6653,6662,6661,6985,6986,6995,6994
204497,6653,6654,6663,6662,6986,6987,6996,6995
204498,6654,6655,6664,6663,6987,6988,6997,6996
204499,6655,6656,6665,6664,6988,6989,6998,6997
204500,6656,6657,6666,6665,6989,6990,6999,6998
204501,6657,6658,6667,6666,6990,6991,7000,6999
204502,6658,6659,6668,6667,6991,6992,7001,7000
204503,6659,6660,6669,6668,6992,6993,7002,7001
204504,6661,6662,6671,6670,6994,6995,7004,7003
204505,6662,6663,6672,6671,6995,6996,7005,7004
204506,6663,6664,6673,6672,6996,6997,7006,7005
204507,6664,6665,6674,6673,6997,6998,7007,7006
204508,6665,6666,6675,6674,6998,6999,7008,7007
204509,6666,6667,6676,6675,6999,7000,7009,7008
204510,6667,6668,6677,6676,7000,7001,7010,7009
204511,6668,6669,6678,6677,7001,7002,7011,7010
204512,6670,6671,6680,6679,7003,7004,7013,7012
204513,6671,6672,6681,6680,7004,7005,7014,7013
204514,6672,6673,6682,6681,7005,7006,7015,7014
204515,6673,6674,6683,6682,7006,7007,7016,7015
204516,6674,6675,6684,6683,7007,7008,7017,7016
204517,6675,6676,6685,6684,7008,7009,7018,7017
204518,6676,6677,6686,6685,7009,7010,7019,7018
204519,6677,6678,6687,6686,7010,7011,7020,7019
204520,6679,6680,6689,6688,7012,7013,7022,7021
204521,6680,6681,6690,6689,7013,7014,7023,7022
204522,6681,6682,6691,6690,7014,7015,7024,7023
204523,6682,6683,6692,6691,7015,7016,7025,7024
204524,6683,6684,6693,6692,7016,7017,7026,7025
204525,6684,6685,6694,6693,7017,7018,7027,7026
204526,6685,6686,6695,6694,7018,7019,7028,7027
204527,6686,6687,6696,6695,7019,7020,7029,7028
204528,6688,6689,6698,6697,7021,7022,7031,7030
204529,6689,6690,6699,6698,7022,7023,7032,7031
204530,6690,6691,6700,6699,7023,7024,7033,7032
204531,6691,6692,6701,6700,7024,7025,7034,7033
204532,6692,6693,6702,6701,7025,7026,7035,7034
204533,6693,6694,6703,6702,7026,7027,7036,7035
204534,6694,6695,6704,6703,7027,7028,7037,7036
204535,6695,6696,6705,6704,7028,7029,7038,7037
204536,6697,6698,6707,6706,7030,7031,7040,7039
204537,6698,6699,6708,6707,7031,7032,7041,7040
204538,6699,6700,6709,6708,7032,7033,7042,7041
204539,6700,6701,6710,6709,7033,7034,7043,7042
204540,6701,6702,6711,6710,7034,7035,7044,7043
204541,6702,6703,6712,6711,7035,7036,7045,7044
204542,6703,6704,6713,6712,7036,7037,7046,7045
204543,6704,6705,6714,6713,7037,7038,7047,7046
204544,6706,6707,6716,6715,7039,7040,7049,7048
204545,6707,6708,6717,6716,7040,7041,7050,7049
204546,6708,6709,6718,6717,7041,7042,7051,7050
204547,6709,6710,6719,6718,7042,7043,7052,7051
204548,6710,6711,6720,6719,7043,7044,7053,7052
204549,6711,6712,6721,6720,7044,7045,7054,7053
204550,6712,6713,6722,6721,7045,7046,7055,7054
204551,6713,6714,6723,6722,7046,7047,7056,7055
204552,6715,6716,6725,6724,7048,7049,7058,7057
204553,6716,6717,6726,6725,7049,7050,7059,7058
204554,6717,6718,6727,6726,7050,7051,7060,7059
204555,6718,6719,6728,6727,7051,7052,7061,7060
204556,6719,6720,6729,6728,7052,7053,7062,7061
204557,6720,6721,6730,6729,7053,7054,7063,7062
204558,6721,6722,6731,6730,7054,7055,7064,7063
204559,6722,6723,6732,6731,7055,7056,7065,7064
204560,6724,6725,6734,6733,7057,7058,7067,7066
204561,6725,6726,6735,6734,7058,7059,7068,7067
204562,6726,6727,6736,6735,7059,7060,7069,7068
204563,6727,6728,6737,6736,7060,7061,7070,7069
204564,6728,6729,6738,6737,7061,7062,7071,7070
204565,6729,6730,6739,6738,7062,7063,7072,7071
204566,6730,6731,6740,6739,7063,7064,7073,7072
204567,6731,6732,6741,6740,7064,7065,7074,7073
204568,6733,6734,6743,6742,7066,7067,7076,7075
204569,6734,6735,6744,6743,7067,7068,7077,7076
204570,6735,6736,6745,6744,7068,7069,7078,7077
204571,6736,6737,6746,6745,7069,7070,7079,7078
204572,6737,6738,6747,6746,7070,7071,7080,7079
204573,6738,6739,6748,6747,7071,7072,7081,7080
204574,6739,6740,6749,6748,7072,7073,7082,7081
204575,6740,6741,6750,6749,7073,7074,7083,7082
204576,6742,6743,6752,6751,7075,7076,7085,7084
204577,6743,6744,6753,6752,7076,7077,7086,7085
204578,6744,6745,6754,6753,7077,7078,7087,7086
204579,6745,6746,6755,6754,7078,7079,7088,7087
204580,6746,6747,6756,6755,7079,7080,7089,7088
204581,6747,6748,6757,6756,7080,7081,7090,7089
204582,6748,6749,6758,6757,7081,7082,7091,7090
204583,6749,6750,6759,6758,7082,7083,7092,7091
204584,6751,6752,6761,6760,7084,7085,7094,7093
204585,6752,6753,6762,6761,7085,7086,7095,7094
204586,6753,6754,6763,6762,7086,7087,7096,7095
204587,6754,6755,6764,6763,7087,7088,7097,7096
204588,6755,6756,6765,6764,7088,7089,7098,7097
204589,6756,6757,6766,6765,7089,7090,7099,7098
204590,6757,6758,6767,6766,7090,7091,7100,7099
204591,6758,6759,6768,6767,7091,7092,7101,7100
204592,6760,6761,6770,6769,7093,7094,7103,7102
204593,6761,6762,6771,6770,7094,7095,7104,7103
204594,6762,6763,6772,6771,7095,7096,7105,7104
204595,6763,6764,6773,6772,7096,7097,7106,7105
204596,6764,6765,6774,6773,7097,7098,7107,7106
204597,6765,6766,6775,6774,7098,7099,7108,7107
204598,6766,6767,6776,6775,7099,7100,7109,7108
204599,6767,6768,6777,6776,7100,7101,7110,7109
204600,6769,6770,6779,6778,7102,7103,7112,7111
204601,6770,6771,6780,6779,7103,7104,7113,7112
204602,6771,6772,6781,6780,7104,7105,7114,7113
204603,6772,6773,6782,6781,7105,7106,7115,7114
204604,6773,6774,6783,6782,7106,7107,7116,7115
204605,6774,6775,6784,6783,7107,7108,7117,7116
204606,6775,6776,6785,6784,7108,7109,7118,7117
204607,6776,6777,6786,6785,7109,7110,7119,7118
204608,6787,6788,6797,6796,7120,7121,7130,7129
204609,6788,6789,6798,6797,7121,7122,7131,7130
204610,6789,6790,6799,6798,7122,7123,7132,7131
204611,6790,6791,6800,6799,7123,7124,7133,7132
204612,6791,6792,6801,6800,7124,7125,7134,7133
204613,6792,6793,6802,6801,7125,7126,7135,7134
204614,6793,6794,6803,6802,7126,7127,7136,7135
204615,6794,6795,6804,6803,7127,7128,7137,7136
204616,6796,6797,6806,6805,7129,7130,7139,7138
204617,6797,6798,6807,6806,7130,7131,7140,7139
204618,6798,6799,6808,6807,7131,7132,7141,7140
204619,6799,6800,6809,6808,7132,7133,7142,7141
204620,6800,6801,6810,6809,7133,7134,7143,7142
204621,6801,6802,6811,6810,7134,7135,7144,7143
204622,6802,6803,6812,6811,7135,7136,7145,7144
204623,6803,6804,6813,6812,7136,7137,7146,7145
204624,6805,6806,6815,6814,7138,7139,7148,7147
204625,6806,6807,6816,6815,7139,7140,7149,7148
204626,6807,6808,6817,6816,7140,7141,7150,7149
204627,6808,6809,6818,6817,7141,7142,7151,7150
204628,6809,6810,6819,6818,7142,7143,7152,7151
204629,6810,6811,6820,6819,7143,7144,7153,7152
204630,6811,6812,6821,6820,7144,7145,7154,7153
204631,6812,6813,6822,6821,7145,7146,7155,7154
204632,6814,6815,6824,6823,7147,7148,7157,7156
204633,6815,6816,6825,6824,7148,7149,7158,7157
204634,6816,6817,6826,6825,7149,7150,7159,7158
204635,6817,6818,6827,6826,7150,7151,7160,7159
204636,6818,6819,6828,6827,7151,7152,7161,7160
204637,6819,6820,6829,6828,7152,7153,7162,7161
204638,6820,6821,6830,6829,7153,7154,7163,7162
204639,6821,6822,6831,6830,7154,7155,7164,7163
204640,6823,6824,6833,6832,7156,7157,7166,7165
204641,6824,6825,6834,6833,7157,7158,7167,7166
204642,6825,6826,6835,6834,7158,7159,7168,7167
204643,6826,6827,6836,6835,7159,7160,7169,7168
204644,6827,6828,6837,6836,7160,7161,7170,7169
204645,6828,6829,6838,6837,7161,7162,7171,7170
204646,6829,6830,6839,6838,7162,7163,7172,7171
204647,6830,6831,6840,6839,7163,7164,7173,7172
204648,6832,6833,6842,6841,7165,7166,7175,7174
204649,6833,6834,6843,6842,7166,7167,7176,7175
204650,6834,6835,6844,6843,7167,7168,7177,7176
204651,6835,6836,6845,6844,7168,7169,7178,7177
204652,6836,6837,6846,6845,7169,7170,7179,7178
204653,6837,6838,6847,6846,7170,7171,7180,7179
204654,6838,6839,6848,6847,7171,7172,7181,7180
204655,6839,6840,6849,6848,7172,7173,7182,7181
204656,6841,6842,6851,6850,7174,7175,7184,7183
204657,6842,6843,6852,6851,7175,7176,7185,7184
204658,6843,6844,6853,6852,7176,7177,7186,7185
204659,6844,6845,6854,6853,7177,7178,7187,7186
204660,6845,6846,6855,6854,7178,7179,7188,7187
204661,6846,6847,6856,6855,7179,7180,7189,7188
204662,6847,6848,6857,6856,7180,7181,7190,7189
204663,6848,6849,6858,6857,7181,7182,7191,7190
204664,6850,6851,6860,6859,7183,7184,7193,7192
204665,6851,6852,6861,6860,7184,7185,7194,7193
204666,6852,6853,6862,6861,7185,7186,7195,7194
204667,6853,6854,6863,6862,7186,7187,7196,7195
204668,6854,6855,6864,6863,7187,7188,7197,7196
204669,6855,6856,6865,6864,7188,7189,7198,7197
204670,6856,6857,6866,6865,7189,7190,7199,7198
204671,6857,6858,6867,6866,7190,7191,7200,7199
204672,6859,6860,6869,6868,7192,7193,7202,7201
204673,6860,6861,6870,6869,7193,7194,7203,7202
204674,6861,6862,6871,6870,7194,7195,7204,7203
204675,6862,6863,6872,6871,7195,7196,7205,7204
204676,6863,6864,6873,6872,7196,7197,7206,7205
204677,6864,6865,6874,6873,7197,7198,7207,7206
204678,6865,6866,6875,6874,7198,7199,7208,7207
204679,6866,6867,6876,6875,7199,7200,7209,7208
204680,6868,6869,6878,6877,7201,7202,7211,7210
204681,6869,6870,6879,6878,7202,7203,7212,7211
204682,6870,6871,6880,6879,7203,7204,7213,7212
204683,6871,6872,6881,6880,7204,7205,7214,7213
204684,6872,6873,6882,6881,7205,7206,7215,7214
204685,6873,6874,6883,6882,7206,7207,7216,7215
204686,6874,6875,6884,6883,7207,7208,7217,7216
204687,6875,6876,6885,6884,7208,7209,7218,7217
204688,6877,6878,6887,6886,7210,7211,7220,7219
204689,6878,6879,6888,6887,7211,7212,7221,7220
204690,6879,6880,6889,6888,7212,7213,7222,7221
204691,6880,6881,6890,6889,7213,7214,7223,7222
204692,6881,6882,6891,6890,7214,7215,7224,7223
204693,6882,6883,6892,6891,7215,7216,7225,7224
204694,6883,6884,6893,6892,7216,7217,7226,7225
204695,6884,6885,6894,6893,7217,7218,7227,7226
204696,6886,6887,6896,6895,7219,7220,7229,7228
204697,6887,6888,6897,6896,7220,7221,7230,7229
204698,6888,6889,6898,6897,7221,7222,7231,7230
204699,6889,6890,6899,6898,7222,7223,7232,7231
204700,6890,6891,6900,6899,7223,7224,7233,7232
204701,6891,6892,6901,6900,7224,7225,7234,7233
204702,6892,6893,6902,6901,7225,7226,7235,7234
204703,6893,6894,6903,6902,7226,7227,7236,7235
204704,6895,6896,6905,6904,7228,7229,7238,7237
204705,6896,6897,6906,6905,7229,7230,7239,7238
204706,6897,6898,6907,6906,7230,7231,7240,7239
204707,6898,6899,6908,6907,7231,7232,7241,7240
204708,6899,6900,6909,6908,7232,7233,7242,7241
204709,6900,6901,6910,6909,7233,7234,7243,7242
204710,6901,6902,6911,6910,7234,7235,7244,7243
204711,6902,6903,6912,6911,7235,7236,7245,7244
204712,6904,6905,6914,6913,7237,7238,7247,7246
204713,6905,6906,6915,6914,7238,7239,7248,7247
204714,6906,6907,6916,6915,7239,7240,7249,7248
204715,6907,6908,6917,6916,7240,7241,7250,7249
204716,6908,6909,6918,6917,7241,7242,7251,7250
204717,6909,6910,6919,6918,7242,7243,7252,7251
204718,6910,6911,6920,6919,7243,7244,7253,7252
204719,6911,6912,6921,6920,7244,7245,7254,7253
204720,6913,6914,6923,6922,7246,7247,7256,7255
204721,6914,6915,6924,6923,7247,7248,7257,7256
204722,6915,6916,6925,6924,7248,7249,7258,7257
204723,6916,6917,6926,6925,7249,7250,7259,7258
204724,6917,6918,6927,6926,7250,7251,7260,7259
204725,6918,6919,6928,6927,7251,7252,7261,7260
204726,6919,6920,6929,6928,7252,7253,7262,7261
204727,6920,6921,6930,6929,7253,7254,7263,7262
204728,6922,6923,6932,6931,7255,7256,7265,7264
204729,6923,6924,6933,6932,7256,7257,7266,7265
204730,6924,6925,6934,6933,7257,7258,7267,7266
204731,6925,6926,6935,6934,7258,7259,7268,7267
204732,6926,6927,6936,6935,7259,7260,7269,7268
204733,6927,6928,6937,6936,7260,7261,7270,7269
204734,6928,6929,6938,6937,7261,7262,7271,7270
204735,6929,6930,6939,6938,7262,7263,7272,7271
204736,6931,6932,6941,6940,7264,7265,7274,7273
204737,6932,6933,6942,6941,7265,7266,7275,7274
204738,6933,6934,6943,6942,7266,7267,7276,7275
204739,6934,6935,6944,6943,7267,7268,7277,7276
204740,6935,6936,6945,6944,7268,7269,7278,7277
204741,6936,6937,6946,6945,7269,7270,7279,7278
204742,6937,6938,6947,6946,7270,7271,7280,7279
204743,6938,6939,6948,6947,7271,7272,7281,7280
204744,6940,6941,6950,6949,7273,7274,7283,7282
204745,6941,6942,6951,6950,7274,7275,7284,7283
204746,6942,6943,6952,6951,7275,7276,7285,7284
204747,6943,6944,6953,6952,7276,7277,7286,7285
204748,6944,6945,6954,6953,7277,7278,7287,7286
204749,6945,6946,6955,6954,7278,7279,7288,7287
204750,6946,6947,6956,6955,7279,7280,7289,7288
204751,6947,6948,6957,6956,7280,7281,7290,7289
204752,6949,6950,6959,6958,7282,7283,7292,7291
204753,6950,6951,6960,6959,7283,7284,7293,7292
204754,6951,6952,6961,6960,7284,7285,7294,7293
204755,6952,6953,6962,6961,7285,7286,7295,7294
204756,6953,6954,6963,6962,7286,7287,7296,7295
204757,6954,6955,6964,6963,7287,7288,7297,7296
204758,6955,6956,6965,6964,7288,7289,7298,7297
204759,6956,6957,6966,6965,7289,7290,7299,7298
204760,6958,6959,6968,6967,7291,7292,7301,7300
204761,6959,6960,6969,6968,7292,7293,7302,7301
204762,6960,6961,6970,6969,7293,7294,7303,7302
204763,6961,6962,6971,6970,7294,7295,7304,7303
204764,6962,6963,6972,6971,7295,7296,7305,7304
204765,6963,6964,6973,6972,7296,7297,7306,7305
204766,6964,6965,6974,6973,7297,7298,7307,7306
204767,6965,6966,6975,6974,7298,7299,7308,7307
204768,6967,6968,6977,6976,7300,7301,7310,7309
204769,6968,6969,6978,6977,7301,7302,7311,7310
204770,6969,6970,6979,6978,7302,7303,7312,7311
204771,6970,6971,6980,6979,7303,7304,7313,7312
204772,6971,6972,6981,6980,7304,7305,7314,7313
204773,6972,6973,6982,6981,7305,7306,7315,7314
204774,6973,6974,6983,6982,7306,7307,7316,7315
204775,6974,6975,6984,6983,7307,7308,7317,7316
204776,6976,6977,6986,6985,7309,7310,7319,7318
204777,6977,6978,6987,6986,7310,7311,7320,7319
204778,6978,6979,6988,6987,7311,7312,7321,7320
204779,6979,6980,6989,6988,7312,7313,7322,7321
204780,6980,6981,6990,6989,7313,7314,7323,7322
204781,6981,6982,6991,6990,7314,7315,7324,7323
204782,6982,6983,6992,6991,7315,7316,7325,7324
204783,6983,6984,6993,6992,7316,7317,7326,7325
204784,6985,6986,6995,6994,7318,7319,7328,7327
204785,6986,6987,6996,6995,7319,7320,7329,7328
204786,6987,6988,6997,6996,7320,7321,7330,7329
204787,6988,6989,6998,6997,7321,7322,7331,7330
204788,6989,6990,6999,6998,7322,7323,7332,7331
204789,6990,6991,7000,6999,7323,7324,7333,7332
204790,6991,6992,7001,7000,7324,7325,7334,7333
204791,6992,6993,7002,7001,7325,7326,7335,7334
204792,6994,6995,7004,7003,7327,7328,7337,7336
204793,6995,6996,7005,7004,7328,7329,7338,7337
204794,6996,6997,7006,7005,7329,7330,7339,7338
204795,6997,6998,7007,7006,7330,7331,7340,7339
204796,6998,6999,7008,7007,7331,7332,7341,7340
204797,6999,7000,7009,7008,7332,7333,7342,7341
204798,7000,7001,7010,7009,7333,7334,7343,7342
204799,7001,7002,7011,7010,7334,7335,7344,7343
204800,7003,7004,7013,7012,7336,7337,7346,7345
204801,7004,7005,7014,7013,7337,7338,7347,7346
204802,7005,7006,7015,7014,7338,7339,7348,7347
204803,7006,7007,7016,7015,7339,7340,7349,7348
204804,7007,7008,7017,7016,7340,7341,7350,7349
204805,7008,7009,7018,7017,7341,7342,7351,7350
204806,7009,7010,7019,7018,7342,7343,7352,7351
204807,7010,7011,7020,7019,7343,7344,7353,7352
204808,7012,7013,7022,7021,7345,7346,7355,7354
204809,7013,7014,7023,7022,7346,7347,7356,7355
204810,7014,7015,7024,7023,7347,7348,7357,7356
204811,7015,7016,7025,7024,7348,7349,7358,7357
204812,7016,7017,7026,7025,7349,7350,7359,7358
204813,7017,7018,7027,7026,7350,7351,7360,7359
204814,7018,7019,7028,7027,7351,7352,7361,7360
204815,7019,7020,7029,7028,7352,7353,7362,7361
204816,7021,7022,7031,7030,7354,7355,7364,7363
204817,7022,7023,7032,7031,7355,7356,7365,7364
204818,7023,7024,7033,7032,7356,7357,7366,7365
204819,7024,7025,7034,7033,7357,7358,7367,7366
204820,7025,7026,7035,7034,7358,7359,7368,7367
204821,7026,7027,7036,7035,7359,7360,7369,7368
204822,7027,7028,7037,7036,7360,7361,7370,7369
204823,7028,7029,7038,7037,7361,7362,7371,7370
204824,7030,7031,7040,7039,7363,7364,7373,7372
204825,7031,7032,7041,7040,7364,7365,7374,7373
204826,7032,7033,7042,7041,7365,7366,7375,7374
204827,7033,7034,7043,7042,7366,7367,7376,7375
204828,7034,7035,7044,7043,7367,7368,7377,7376
204829,7035,7036,7045,7044,7368,7369,7378,7377
204830,7036,7037,7046,7045,7369,7370,7379,7378
204831,7037,7038,7047,7046,7370,7371,7380,7379
204832,7039,7040,7049,7048,7372,7373,7382,7381
204833,7040,7041,7050,7049,7373,7374,7383,7382
204834,7041,7042,7051,7050,7374,7375,7384,7383
204835,7042,7043,7052,7051,7375,7376,7385,7384
204836,7043,7044,7053,7052,7376,7377,7386,7385
204837,7044,7045,7054,7053,7377,7378,7387,7386
204838,7045,7046,7055,7054,7378,7379,7388,7387
204839,7046,7047,7056,7055,7379,7380,7389,7388
204840,7048,7049,7058,7057,7381,7382,7391,7390
204841,7049,7050,7059,7058,7382,7383,7392,7391
204842,7050,7051,7060,7059,7383,7384,7393,7392
204843,7051,7052,7061,7060,7384,7385,7394,7393
204844,7052,7053,7062,7061,7385,7386,7395,7394
204845,7053,7054,7063,7062,7386,7387,7396,7395
204846,7054,7055,7064,7063,7387,7388,7397,7396
204847,7055,7056,7065,7064,7388,7389,7398,7397
204848,7057,7058,7067,7066,7390,7391,7400,7399
204849,7058,7059,7068,7067,7391,7392,7401,7400
204850,7059,7060,7069,7068,7392,7393,7402,7401
204851,7060,7061,7070,7069,7393,7394,7403,7402
204852,7061,7062,7071,7070,7394,7395,7404,7403
204853,7062,7063,7072,7071,7395,7396,7405,7404
204854,7063,7064,7073,7072,7396,7397,7406,7405
204855,7064,7065,7074,7073,7397,7398,7407,7406
204856,7066,7067,7076,7075,7399,7400,7409,7408
204857,7067,7068,7077,7076,7400,7401,7410,7409
204858,7068,7069,7078,7077,7401,7402,7411,7410
204859,7069,7070,7079,7078,7402,7403,7412,7411
204860,7070,7071,7080,7079,7403,7404,7413,7412
204861,7071,7072,7081,7080,7404,7405,7414,7413
204862,7072,7073,7082,7081,7405,7406,7415,7414
204863,7073,7074,7083,7082,7406,7407,7416,7415
204864,7075,7076,7085,7084,7408,7409,7418,7417
204865,7076,7077,7086,7085,7409,7410,7419,7418
204866,7077,7078,7087,7086,7410,7411,7420,7419
204867,7078,7079,7088,7087,7411,7412,7421,7420
204868,7079,7080,7089,7088,7412,7413,7422,7421
204869,7080,7081,7090,7089,7413,7414,7423,7422
204870,7081,7082,7091,7090,7414,7415,7424,7423
204871,7082,7083,7092,7091,7415,7416,7425,7424
204872,7084,7085,7094,7093,7417,7418,7427,7426
204873,7085,7086,7095,7094,7418,7419,7428,7427
204874,7086,7087,7096,7095,7419,7420,7429,7428
204875,7087,7088,7097,7096,7420,7421,7430,7429
204876,7088,7089,7098,7097,7421,7422,7431,7430
204877,7089,7090,7099,7098,7422,7423,7432,7431
204878,7090,7091,7100,7099,7423,7424,7433,7432
204879,7091,7092,7101,7100,7424,7425,7434,7433
204880,7093,7094,7103,7102,7426,7427,7436,7435
204881,7094,7095,7104,7103,7427,7428,7437,7436
204882,7095,7096,7105,7104,7428,7429,7438,7437
204883,7096,7097,7106,7105,7429,7430,7439,7438
204884,7097,7098,7107,7106,7430,7431,7440,7439
204885,7098,7099,7108,7107,7431,7432,7441,7440
204886,7099,7100,7109,7108,7432,7433,7442,7441
204887,7100,7101,7110,7109,7433,7434,7443,7442
204888,7102,7103,7112,7111,7435,7436,7445,7444
204889,7103,7104,7113,7112,7436,7437,7446,7445
204890,7104,7105,7114,7113,7437,7438,7447,7446
204891,7105,7106,7115,7114,7438,7439,7448,7447
204892,7106,7107,7116,7115,7439,7440,7449,7448
204893,7107,7108,7117,7116,7440,7441,7450,7449
204894,7108,7109,7118,7117,7441,7442,7451,7450
204895,7109,7110,7119,7118,7442,7443,7452,7451
204896,7120,7121,7130,7129,7453,7454,7463,7462
204897,7121,7122,7131,7130,7454,7455,7464,7463
204898,7122,7123,7132,7131,7455,7456,7465,7464
204899,7123,7124,7133,7132,7456,7457,7466,7465
204900,7124,7125,7134,7133,7457,7458,7467,7466
204901,7125,7126,7135,7134,7458,7459,7468,7467
204902,7126,7127,7136,7135,7459,7460,7469,7468
204903,7127,7128,7137,7136,7460,7461,7470,7469
204904,7129,7130,7139,7138,7462,7463,7472,7471
204905,7130,7131,7140,7139,7463,7464,7473,7472
204906,7131,7132,7141,7140,7464,7465,7474,7473
204907,7132,7133,7142,7141,7465,7466,7475,7474
204908,7133,7134,7143,7142,7466,7467,7476,7475
204909,7134,7135,7144,7143,7467,7468,7477,7476
204910,7135,7136,7145,7144,7468,7469,7478,7477
204911,7136,7137,7146,7145,7469,7470,7479,7478
204912,7138,7139,7148,7147,7471,7472,7481,7480
204913,7139,7140,7149,7148,7472,7473,7482,7481
204914,7140,7141,7150,7149,7473,7474,7483,7482
204915,7141,7142,7151,7150,7474,7475,7484,7483
204916,7142,7143,7152,7151,7475,7476,7485,7484
204917,7143,7144,7153,7152,7476,7477,7486,7485
204918,7144,7145,7154,7153,7477,7478,7487,7486
204919,7145,7146,7155,7154,7478,7479,7488,7487
204920,7147,7148,7157,7156,7480,7481,7490,7489
204921,7148,7149,7158,7157,7481,7482,7491,7490
204922,7149,7150,7159,7158,7482,7483,7492,7491
204923,7150,7151,7160,7159,7483,7484,7493,7492
204924,7151,7152,7161,7160,7484,7485,7494,7493
204925,7152,7153,7162,7161,7485,7486,7495,7494
204926,7153,7154,7163,7162,7486,7487,7496,7495
204927,7154,7155,7164,7163,7487,7488,7497,7496
204928,7156,7157,7166,7165,7489,7490,7499,7498
204929,7157,7158,7167,7166,7490,7491,7500,7499
204930,7158,7159,7168,7167,7491,7492,7501,7500
204931,7159,7160,7169,7168,7492,7493,7502,7501
204932,7160,7161,7170,7169,7493,7494,7503,7502
204933,7161,7162,7171,7170,7494,7495,7504,7503
204934,7162,7163,7172,7171,7495,7496,7505,7504
204935,7163,7164,7173,7172,7496,7497,7506,7505
204936,7165,7166,7175,7174,7498,7499,7508,7507
204937,7166,7167,7176,7175,7499,7500,7509,7508
204938,7167,7168,7177,7176,7500,7501,7510,7509
204939,7168,7169,7178,7177,7501,7502,7511,7510
204940,7169,7170,7179,7178,7502,7503,7512,7511
204941,7170,7171,7180,7179,7503,7504,7513,7512
204942,7171,7172,7181,7180,7504,7505,7514,7513
204943,7172,7173,7182,7181,7505,7506,7515,7514
204944,7174,7175,7184,7183,7507,7508,7517,7516
204945,7175,7176,7185,7184,7508,7509,7518,7517
204946,7176,7177,7186,7185,7509,7510,7519,7518
204947,7177,7178,7187,7186,7510,7511,7520,7519
204948,7178,7179,7188,7187,7511,7512,7521,7520
204949,7179,7180,7189,7188,7512,7513,7522,7521
204950,7180,7181,7190,7189,7513,7514,7523,7522
204951,7181,7182,7191,7190,7514,7515,7524,7523
204952,7183,7184,7193,7192,7516,7517,7526,7525
204953,7184,7185,7194,7193,7517,7518,7527,7526
204954,7185,7186,7195,7194,7518,7519,7528,7527
204955,7186,7187,7196,7195,7519,7520,7529,7528
204956,7187,7188,7197,7196,7520,7521,7530,7529
204957,7188,7189,7198,7197,7521,7522,7531,7530
204958,7189,7190,7199,7198,7522,7523,7532,7531
204959,7190,7191,7200,7199,7523,7524,7533,7532
204960,7192,7193,7202,7201,7525,7526,7535,7534
204961,7193,7194,7203,7202,7526,7527,7536,7535
204962,7194,7195,7204,7203,7527,7528,7537,7536
204963,7195,7196,7205,7204,7528,7529,7538,7537
204964,7196,7197,7206,7205,7529,7530,7539,7538
204965,7197,7198,7207,7206,7530,7531,7540,7539
204966,7198,7199,7208,7207,7531,7532,7541,7540
204967,7199,7200,7209,7208,7532,7533,7542,7541
204968,7201,7202,7211,7210,7534,7535,7544,7543
204969,7202,7203,7212,7211,7535,7536,7545,7544
204970,7203,7204,7213,7212,7536,7537,7546,7545
204971,7204,7205,7214,7213,7537,7538,7547,7546
204972,7205,7206,7215,7214,7538,7539,7548,7547
204973,7206,7207,7216,7215,7539,7540,7549,7548
204974,7207,7208,7217,7216,7540,7541,7550,7549
204975,7208,7209,7218,7217,7541,7542,7551,7550
204976,7210,7211,7220,7219,7543,7544,7553,7552
204977,7211,7212,7221,7220,7544,7545,7554,7553
204978,7212,7213,7222,7221,7545,7546,7555,7554
204979,7213,7214,7223,7222,7546,7547,7556,7555
204980,7214,7215,7224,7223,7547,7548,7557,7556
204981,7215,7216,7225,7224,7548,7549,7558,7557
204982,7216,7217,7226,7225,7549,7550,7559,7558
204983,7217,7218,7227,7226,7550,7551,7560,7559
204984,7219,7220,7229,7228,7552,7553,7562,7561
204985,7220,7221,7230,7229,7553,7554,7563,7562
204986,7221,7222,7231,7230,7554,7555,7564,7563
204987,7222,7223,7232,7231,7555,7556,7565,7564
204988,7223,7224,7233,7232,7556,7557,7566,7565
204989,7224,7225,7234,7233,7557,7558,7567,7566
204990,7225,7226,7235,7234,7558,7559,7568,7567
204991,7226,7227,7236,7235,7559,7560,7569,7568
204992,7228,7229,7238,7237,7561,7562,7571,7570
204993,7229,7230,7239,7238,7562,7563,7572,7571
204994,7230,7231,7240,7239,7563,7564,7573,7572
204995,7231,7232,7241,7240,7564,7565,7574,7573
204996,7232,7233,7242,7241,7565,7566,7575,7574
204997,7233,7234,7243,7242,7566,7567,7576,7575
204998,7234,7235,7244,7243,7567,7568,7577,7576
204999,7235,7236,7245,7244,7568,7569,7578,7577
205000,7237,7238,7247,7246,7570,7571,7580,7579
205001,7238,7239,7248,7247,7571,7572,7581,7580
205002,7239,7240,7249,7248,7572,7573,7582,7581
205003,7240,7241,7250,7249,7573,7574,7583,7582
205004,7241,7242,7251,7250,7574,7575,7584,7583
205005,7242,7243,7252,7251,7575,7576,7585,7584
205006,7243,7244,7253,7252,7576,7577,7586,7585
205007,7244,7245,7254,7253,7577,7578,7587,7586
205008,7246,7247,7256,7255,7579,7580,7589,7588
205009,7247,7248,7257,7256,7580,7581,7590,7589
205010,7248,7249,7258,7257,7581,7582,7591,7590
205011,7249,7250,7259,7258,7582,7583,7592,7591
205012,7250,7251,7260,7259,7583,7584,7593,7592
205013,7251,7252,7261,7260,7584,7585,7594,7593
205014,7252,7253,7262,7261,7585,7586,7595,7594
205015,7253,7254,7263,7262,7586,7587,7596,7595
205016,7255,7256,7265,7264,7588,7589,7598,7597
205017,7256,7257,7266,7265,7589,7590,7599,7598
205018,7257,7258,7267,7266,7590,7591,7600,7599
205019,7258,7259,7268,7267,7591,7592,7601,7600
205020,7259,7260,7269,7268,7592,7593,7602,7601
205021,7260,7261,7270,7269,7593,7594,7603,7602
205022,7261,7262,7271,7270,7594,7595,7604,7603
205023,7262,7263,7272,7271,7595,7596,7605,7604
205024,7264,7265,7274,7273,7597,7598,7607,7606
205025,7265,7266,7275,7274,7598,7599,7608,7607
205026,7266,7267,7276,7275,7599,7600,7609,7608
205027,7267,7268,7277,7276,7600,7601,7610,7609
205028,7268,7269,7278,7277,7601,7602,7611,7610
205029,7269,7270,7279,7278,7602,7603,7612,7611
205030,7270,7271,7280,7279,7603,7604,7613,7612
205031,7271,7272,7281,7280,7604,7605,7614,7613
205032,7273,7274,7283,7282,7606,7607,7616,7615
205033,7274,7275,7284,7283,7607,7608,7617,7616
205034,7275,7276,7285,7284,7608,7609,7618,7617
205035,7276,7277,7286,7285,7609,7610,7619,7618
205036,7277,7278,7287,7286,7610,7611,7620,7619
205037,7278,7279,7288,7287,7611,7612,7621,7620
205038,7279,7280,7289,7288,7612,7613,7622,7621
205039,7280,7281,7290,7289,7613,7614,7623,7622
205040,7282,7283,7292,7291,7615,7616,7625,7624
205041,7283,7284,7293,7292,7616,7617,7626,7625
205042,7284,7285,7294,7293,7617,7618,7627,7626
205043,7285,7286,7295,7294,7618,7619,7628,7627
205044,7286,7287,7296,7295,7619,7620,7629,7628
205045,7287,7288,7297,7296,7620,7621,7630,7629
205046,7288,7289,7298,7297,7621,7622,7631,7630
205047,7289,7290,7299,7298,7622,7623,7632,7631
205048,7291,7292,7301,7300,7624,7625,7634,7633
205049,7292,7293,7302,7301,7625,7626,7635,7634
205050,7293,7294,7303,7302,7626,7627,7636,7635
205051,7294,7295,7304,7303,7627,7628,7637,7636
205052,7295,7296,7305,7304,7628,7629,7638,7637
205053,7296,7297,7306,7305,7629,7630,7639,7638
205054,7297,7298,7307,7306,7630,7631,7640,7639
205055,7298,7299,7308,7307,7631,7632,7641,7640
205056,7300,7301,7310,7309,7633,7634,7643,7642
205057,7301,7302,7311,7310,7634,7635,7644,7643
205058,7302,7303,7312,7311,7635,7636,7645,7644
205059,7303,7304,7313,7312,7636,7637,7646,7645
205060,7304,7305,7314,7313,7637,7638,7647,7646
205061,7305,7306,7315,7314,7638,7639,7648,7647
205062,7306,7307,7316,7315,7639,7640,7649,7648
205063,7307,7308,7317,7316,7640,7641,7650,7649
205064,7309,7310,7319,7318,7642,7643,7652,7651
205065,7310,7311,7320,7319,7643,7644,7653,7652
205066,7311,7312,7321,7320,7644,7645,7654,7653
205067,7312,7313,7322,7321,7645,7646,7655,7654
205068,7313,7314,7323,7322,7646,7647,7656,7655
205069,7314,7315,7324,7323,7647,7648,7657,7656
205070,7315,7316,7325,7324,7648,7649,7658,7657
205071,7316,7317,7326,7325,7649,7650,7659,7658
205072,7318,7319,7328,7327,7651,7652,7661,7660
205073,7319,7320,7329,7328,7652,7653,7662,7661
205074,7320,7321,7330,7329,7653,7654,7663,7662
205075,7321,7322,7331,7330,7654,7655,7664,7663
205076,7322,7323,7332,7331,7655,7656,7665,7664
205077,7323,7324,7333,7332,7656,7657,7666,7665
205078,7324,7325,7334,7333,7657,7658,7667,7666
205079,7325,7326,7335,7334,7658,7659,7668,7667
205080,7327,7328,7337,7336,7660,7661,7670,7669
205081,7328,7329,7338,7337,7661,7662,7671,7670
205082,7329,7330,7339,7338,7662,7663,7672,7671
205083,7330,7331,7340,7339,7663,7664,7673,7672
205084,7331,7332,7341,7340,7664,7665,7674,7673
205085,7332,7333,7342,7341,7665,7666,7675,7674
205086,7333,7334,7343,7342,7666,7667,7676,7675
205087,7334,7335,7344,7343,7667,7668,7677,7676
205088,7336,7337,7346,7345,7669,7670,7679,7678
205089,7337,7338,7347,7346,7670,7671,7680,7679
205090,7338,7339,7348,7347,7671,7672,7681,7680
205091,7339,7340,7349,7348,7672,7673,7682,7681
205092,7340,7341,7350,7349,7673,7674,7683,7682
205093,7341,7342,7351,7350,7674,7675,7684,7683
205094,7342,7343,7352,7351,7675,7676,7685,7684
205095,7343,7344,7353,7352,7676,7677,7686,7685
205096,7345,7346,7355,7354,7678,7679,7688,7687
205097,7346,7347,7356,7355,7679,7680,7689,7688
205098,7347,7348,7357,7356,7680,7681,7690,7689
205099,7348,7349,7358,7357,7681,7682,7691,7690
205100,7349,7350,7359,7358,7682,7683,7692,7691
205101,7350,7351,7360,7359,7683,7684,7693,7692
205102,7351,7352,7361,7360,7684,7685,7694,7693
205103,7352,7353,7362,7361,7685,7686,7695,7694
205104,7354,7355,7364,7363,7687,7688,7697,7696
205105,7355,7356,7365,7364,7688,7689,7698,7697
205106,7356,7357,7366,7365,7689,7690,7699,7698
205107,7357,7358,7367,7366,7690,7691,7700,7699
205108,7358,7359,7368,7367,7691,7692,7701,7700
205109,7359,7360,7369,7368,7692,7693,7702,7701
205110,7360,7361,7370,7369,7693,7694,7703,7702
205111,7361,7362,7371,7370,7694,7695,7704,7703
205112,7363,7364,7373,7372,7696,7697,7706,7705
205113,7364,7365,7374,7373,7697,7698,7707,7706
205114,7365,7366,7375,7374,7698,7699,7708,7707
205115,7366,7367,7376,7375,7699,7700,7709,7708
205116,7367,7368,7377,7376,7700,7701,7710,7709
205117,7368,7369,7378,7377,7701,7702,7711,7710
205118,7369,7370,7379,7378,7702,7703,7712,7711
205119,7370,7371,7380,7379,7703,7704,7713,7712
205120,7372,7373,7382,7381,7705,7706,7715,7714
205121,7373,7374,7383,7382,7706,7707,7716,7715
205122,7374,7375,7384,7383,7707,7708,7717,7716
205123,7375,7376,7385,7384,7708,7709,7718,7717
205124,7376,7377,7386,7385,7709,7710,7719,7718
205125,7377,7378,7387,7386,7710,7711,7720,7719
205126,7378,7379,7388,7387,7711,7712,7721,7720
205127,7379,7380,7389,7388,7712,7713,7722,7721
205128,7381,7382,7391,7390,7714,7715,7724,7723
205129,7382,7383,7392,7391,7715,7716,7725,7724
205130,7383,7384,7393,7392,7716,7717,7726,7725
205131,7384,7385,7394,7393,7717,7718,7727,7726
205132,7385,7386,7395,7394,7718,7719,7728,7727
205133,7386,7387,7396,7395,7719,7720,7729,7728
205134,7387,7388,7397,7396,7720,7721,7730,7729
205135,7388,7389,7398,7397,7721,7722,7731,7730
205136,7390,7391,7400,7399,7723,7724,7733,7732
205137,7391,7392,7401,7400,7724,7725,7734,7733
205138,7392,7393,7402,7401,7725,7726,7735,7734
205139,7393,7394,7403,7402,7726,7727,7736,7735
205140,7394,7395,7404,7403,7727,7728,7737,7736
205141,7395,7396,7405,7404,7728,7729,7738,7737
205142,7396,7397,7406,7405,7729,7730,7739,7738
205143,7397,7398,7407,7406,7730,7731,7740,7739
205144,7399,7400,7409,7408,7732,7733,7742,7741
205145,7400,7401,7410,7409,7733,7734,7743,7742
205146,7401,7402,7411,7410,7734,7735,7744,7743
205147,7402,7403,7412,7411,7735,7736,7745,7744
205148,7403,7404,7413,7412,7736,7737,7746,7745
205149,7404,7405,7414,7413,7737,7738,7747,7746
205150,7405,7406,7415,7414,7738,7739,7748,7747
205151,7406,7407,7416,7415,7739,7740,7749,7748
205152,7408,7409,7418,7417,7741,7742,7751,7750
205153,7409,7410,7419,7418,7742,7743,7752,7751
205154,7410,7411,7420,7419,7743,7744,7753,7752
205155,7411,7412,7421,7420,7744,7745,7754,7753
205156,7412,7413,7422,7421,7745,7746,7755,7754
205157,7413,7414,7423,7422,7746,7747,7756,7755
205158,7414,7415,7424,7423,7747,7748,7757,7756
205159,7415,7416,7425,7424,7748,7749,7758,7757
205160,7417,7418,7427,7426,7750,7751,7760,7759
205161,7418,7419,7428,7427,7751,7752,7761,7760
205162,7419,7420,7429,7428,7752,7753,7762,7761
205163,7420,7421,7430,7429,7753,7754,7763,7762
205164,7421,7422,7431,7430,7754,7755,7764,7763
205165,7422,7423,7432,7431,7755,7756,7765,7764
205166,7423,7424,7433,7432,7756,7757,7766,7765
205167,7424,7425,7434,7433,7757,7758,7767,7766
205168,7426,7427,7436,7435,7759,7760,7769,7768
205169,7427,7428,7437,7436,7760,7761,7770,7769
205170,7428,7429,7438,7437,7761,7762,7771,7770
205171,7429,7430,7439,7438,7762,7763,7772,7771
205172,7430,7431,7440,7439,7763,7764,7773,7772
205173,7431,7432,7441,7440,7764,7765,7774,7773
205174,7432,7433,7442,7441,7765,7766,7775,7774
205175,7433,7434,7443,7442,7766,7767,7776,7775
205176,7435,7436,7445,7444,7768,7769,7778,7777
205177,7436,7437,7446,7445,7769,7770,7779,7778
205178,7437,7438,7447,7446,7770,7771,7780,7779
205179,7438,7439,7448,7447,7771,7772,7781,7780
205180,7439,7440,7449,7448,7772,7773,7782,7781
205181,7440,7441,7450,7449,7773,7774,7783,7782
205182,7441,7442,7451,7450,7774,7775,7784,7783
205183,7442,7443,7452,7451,7775,7776,7785,7784
205184,7453,7454,7463,7462,7786,7787,7796,7795
205185,7454,7455,7464,7463,7787,7788,7797,7796
205186,7455,7456,7465,7464,7788,7789,7798,7797
205187,7456,7457,7466,7465,7789,7790,7799,7798
205188,7457,7458,7467,7466,7790,7791,7800,7799
205189,7458,7459,7468,7467,7791,7792,7801,7800
205190,7459,7460,7469,7468,7792,7793,7802,7801
205191,7460,7461,7470,7469,7793,7794,7803,7802
205192,7462,7463,7472,7471,7795,7796,7805,7804
205193,7463,7464,7473,7472,7796,7797,7806,7805
205194,7464,7465,7474,7473,7797,7798,7807,7806
205195,7465,7466,7475,7474,7798,7799,7808,7807
205196,7466,7467,7476,7475,7799,7800,7809,7808
205197,7467,7468,7477,7476,7800,7801,7810,7809
205198,7468,7469,7478,7477,7801,7802,7811,7810
205199,7469,7470,7479,7478,7802,7803,7812,7811
205200,7471,7472,7481,7480,7804,7805,7814,7813
205201,7472,7473,7482,7481,7805,7806,7815,7814
205202,7473,7474,7483,7482,7806,7807,7816,7815
205203,7474,7475,7484,7483,7807,7808,7817,7816
205204,7475,7476,7485,7484,7808,7809,7818,7817
205205,7476,7477,7486,7485,7809,7810,7819,7818
205206,7477,7478,7487,7486,7810,7811,7820,7819
205207,7478,7479,7488,7487,7811,7812,7821,7820
205208,7480,7481,7490,7489,7813,7814,7823,7822
205209,7481,7482,7491,7490,7814,7815,7824,7823
205210,7482,7483,7492,7491,7815,7816,7825,7824
205211,7483,7484,7493,7492,7816,7817,7826,7825
205212,7484,7485,7494,7493,7817,7818,7827,7826
205213,7485,7486,7495,7494,7818,7819,7828,7827
205214,7486,7487,7496,7495,7819,7820,7829,7828
205215,7487,7488,7497,7496,7820,7821,7830,7829
205216,7489,7490,7499,7498,7822,7823,7832,7831
205217,7490,7491,7500,7499,7823,7824,7833,7832
205218,7491,7492,7501,7500,7824,7825,7834,7833
205219,7492,7493,7502,7501,7825,7826,7835,7834
205220,7493,7494,7503,7502,7826,7827,7836,7835
205221,7494,7495,7504,7503,7827,7828,7837,7836
205222,7495,7496,7505,7504,7828,7829,7838,7837
205223,7496,7497,7506,7505,7829,7830,7839,7838
205224,7498,7499,7508,7507,7831,7832,7841,7840
205225,7499,7500,7509,7508,7832,7833,7842,7841
205226,7500,7501,7510,7509,7833,7834,7843,7842
205227,7501,7502,7511,7510,7834,7835,7844,7843
205228,7502,7503,7512,7511,7835,7836,7845,7844
205229,7503,7504,7513,7512,7836,7837,7846,7845
205230,7504,7505,7514,7513,7837,7838,7847,7846
205231,7505,7506,7515,7514,7838,7839,7848,7847
205232,7507,7508,7517,7516,7840,7841,7850,7849
205233,7508,7509,7518,7517,7841,7842,7851,7850
205234,7509,7510,7519,7518,7842,7843,7852,7851
205235,7510,7511,7520,7519,7843,7844,7853,7852
205236,7511,7512,7521,7520,7844,7845,7854,7853
205237,7512,7513,7522,7521,7845,7846,7855,7854
205238,7513,7514,7523,7522,7846,7847,7856,7855
205239,7514,7515,7524,7523,7847,7848,7857,7856
205240,7516,7517,7526,7525,7849,7850,7859,7858
205241,7517,7518,7527,7526,7850,7851,7860,7859
205242,7518,7519,7528,7527,7851,7852,7861,7860
205243,7519,7520,7529,7528,7852,7853,7862,7861
205244,7520,7521,7530,7529,7853,7854,7863,7862
205245,7521,7522,7531,7530,7854,7855,7864,7863
205246,7522,7523,7532,7531,7855,7856,7865,7864
205247,7523,7524,7533,7532,7856,7857,7866,7865
205248,7525,7526,7535,7534,7858,7859,7868,7867
205249,7526,7527,7536,7535,7859,7860,7869,7868
205250,7527,7528,7537,7536,7860,7861,7870,7869
205251,7528,7529,7538,7537,7861,7862,7871,7870
205252,7529,7530,7539,7538,7862,7863,7872,7871
205253,7530,7531,7540,7539,7863,7864,7873,7872
205254,7531,7532,7541,7540,7864,7865,7874,7873
205255,7532,7533,7542,7541,7865,7866,7875,7874
205256,7534,7535,7544,7543,7867,7868,7877,7876
205257,7535,7536,7545,7544,7868,7869,7878,7877
205258,7536,7537,7546,7545,7869,7870,7879,7878
205259,7537,7538,7547,7546,7870,7871,7880,7879
205260,7538,7539,7548,7547,7871,7872,7881,7880
205261,7539,7540,7549,7548,7872,7873,7882,7881
205262,7540,7541,7550,7549,7873,7874,7883,7882
205263,7541,7542,7551,7550,7874,7875,7884,7883
205264,7543,7544,7553,7552,7876,7877,7886,7885
205265,7544,7545,7554,7553,7877,7878,7887,7886
205266,7545,7546,7555,7554,7878,7879,7888,7887
205267,7546,7547,7556,7555,7879,7880,7889,7888
205268,7547,7548,7557,7556,7880,7881,7890,7889
205269,7548,7549,7558,7557,7881,7882,7891,7890
205270,7549,7550,7559,7558,7882,7883,7892,7891
205271,7550,7551,7560,7559,7883,7884,7893,7892
205272,7552,7553,7562,7561,7885,7886,7895,7894
205273,7553,7554,7563,7562,7886,7887,7896,7895
205274,7554,7555,7564,7563,7887,7888,7897,7896
205275,7555,7556,7565,7564,7888,7889,7898,7897
205276,7556,7557,7566,7565,7889,7890,7899,7898
205277,7557,7558,7567,7566,7890,7891,7900,7899
205278,7558,7559,7568,7567,7891,7892,7901,7900
205279,7559,7560,7569,7568,7892,7893,7902,7901
205280,7561,7562,7571,7570,7894,7895,7904,7903
205281,7562,7563,7572,7571,7895,7896,7905,7904
205282,7563,7564,7573,7572,7896,7897,7906,7905
205283,7564,7565,7574,7573,7897,7898,7907,7906
205284,7565,7566,7575,7574,7898,7899,7908,7907
205285,7566,7567,7576,7575,7899,7900,7909,7908
205286,7567,7568,7577,7576,7900,7901,7910,7909
205287,7568,7569,7578,7577,7901,7902,7911,7910
205288,7570,7571,7580,7579,7903,7904,7913,7912
205289,7571,7572,7581,7580,7904,7905,7914,7913
205290,7572,7573,7582,7581,7905,7906,7915,7914
205291,7573,7574,7583,7582,7906,7907,7916,7915
205292,7574,7575,7584,7583,7907,7908,7917,7916
205293,7575,7576,7585,7584,7908,7909,7918,7917
205294,7576,7577,7586,7585,7909,7910,7919,7918
205295,7577,7578,7587,7586,7910,7911,7920,7919
205296,7579,7580,7589,7588,7912,7913,7922,7921
205297,7580,7581,7590,7589,7913,7914,7923,7922
205298,7581,7582,7591,7590,7914,7915,7924,7923
205299,7582,7583,7592,7591,7915,7916,7925,7924
205300,7583,7584,7593,7592,7916,7917,7926,7925
205301,7584,7585,7594,7593,7917,7918,7927,7926
205302,7585,7586,7595,7594,7918,7919,7928,7927
205303,7586,7587,7596,7595,7919,7920,7929,7928
205304,7588,7589,7598,7597,7921,7922,7931,7930
205305,7589,7590,7599,7598,7922,7923,7932,7931
205306,7590,7591,7600,7599,7923,7924,7933,7932
205307,7591,7592,7601,7600,7924,7925,7934,7933
205308,7592,7593,7602,7601,7925,7926,7935,7934
205309,7593,7594,7603,7602,7926,7927,7936,7935
205310,7594,7595,7604,7603,7927,7928,7937,7936
205311,7595,7596,7605,7604,7928,7929,7938,7937
205312,7597,7598,7607,7606,7930,7931,7940,7939
205313,7598,7599,7608,7607,7931,7932,7941,7940
205314,7599,7600,7609,7608,7932,7933,7942,7941
205315,7600,7601,7610,7609,7933,7934,7943,7942
205316,7601,7602,7611,7610,7934,7935,7944,7943
205317,7602,7603,7612,7611,7935,7936,7945,7944
205318,7603,7604,7613,7612,7936,7937,7946,7945
205319,7604,7605,7614,7613,7937,7938,7947,7946
205320,7606,7607,7616,7615,7939,7940,7949,7948
205321,7607,7608,7617,7616,7940,7941,7950,7949
205322,7608,7609,7618,7617,7941,7942,7951,7950
205323,7609,7610,7619,7618,7942,7943,7952,7951
205324,7610,7611,7620,7619,7943,7944,7953,7952
205325,7611,7612,7621,7620,7944,7945,7954,7953
205326,7612,7613,7622,7621,7945,7946,7955,7954
205327,7613,7614,7623,7622,7946,7947,7956,7955
205328,7615,7616,7625,7624,7948,7949,7958,7957
205329,7616,7617,7626,7625,7949,7950,7959,7958
205330,7617,7618,7627,7626,7950,7951,7960,7959
205331,7618,7619,7628,7627,7951,7952,7961,7960
205332,7619,7620,7629,7628,7952,7953,7962,7961
205333,7620,7621,7630,7629,7953,7954,7963,7962
205334,7621,7622,7631,7630,7954,7955,7964,7963
205335,7622,7623,7632,7631,7955,7956,7965,7964
205336,7624,7625,7634,7633,7957,7958,7967,7966
205337,7625,7626,7635,7634,7958,7959,7968,7967
205338,7626,7627,7636,7635,7959,7960,7969,7968
205339,7627,7628,7637,7636,7960,7961,7970,7969
205340,7628,7629,7638,7637,7961,7962,7971,7970
205341,7629,7630,7639,7638,7962,7963,7972,7971
205342,7630,7631,7640,7639,7963,7964,7973,7972
205343,7631,7632,7641,7640,7964,7965,7974,7973
205344,7633,7634,7643,7642,7966,7967,7976,7975
205345,7634,7635,7644,7643,7967,7968,7977,7976
205346,7635,7636,7645,7644,7968,7969,7978,7977
205347,7636,7637,7646,7645,7969,7970,7979,7978
205348,7637,7638,7647,7646,7970,7971,7980,7979
205349,7638,7639,7648,7647,7971,7972,7981,7980
205350,7639,7640,7649,7648,7972,7973,7982,7981
205351,7640,7641,7650,7649,7973,7974,7983,7982
205352,7642,7643,7652,7651,7975,7976,7985,7984
205353,7643,7644,7653,7652,7976,7977,7986,7985
205354,7644,7645,7654,7653,7977,7978,7987,7986
205355,7645,7646,7655,7654,7978,7979,7988,7987
205356,7646,7647,7656,7655,7979,7980,7989,7988
205357,7647,7648,7657,7656,7980,7981,7990,7989
205358,7648,7649,7658,7657,7981,7982,7991,7990
205359,7649,7650,7659,7658,7982,7983,7992,7991
205360,7651,7652,7661,7660,7984,7985,7994,7993
205361,7652,7653,7662,7661,7985,7986,7995,7994
205362,7653,7654,7663,7662,7986,7987,7996,7995
205363,7654,7655,7664,7663,7987,7988,7997,7996
205364,7655,7656,7665,7664,7988,7989,7998,7997
205365,7656,7657,7666,7665,7989,7990,7999,7998
205366,7657,7658,7667,7666,7990,7991,8000,7999
205367,7658,7659,7668,7667,7991,7992,8001,8000
205368,7660,7661,7670,7669,7993,7994,8003,8002
205369,7661,7662,7671,7670,7994,7995,8004,8003
205370,7662,7663,7672,7671,7995,7996,8005,8004
205371,7663,7664,7673,7672,7996,7997,8006,8005
205372,7664,7665,7674,7673,7997,7998,8007,8006
205373,7665,7666,7675,7674,7998,7999,8008,8007
205374,7666,7667,7676,7675,7999,8000,8009,8008
205375,7667,7668,7677,7676,8000,8001,8010,8009
205376,7669,7670,7679,7678,8002,8003,8012,8011
205377,7670,7671,7680,7679,8003,8004,8013,8012
205378,7671,7672,7681,7680,8004,8005,8014,8013
205379,7672,7673,7682,7681,8005,8006,8015,8014
205380,7673,7674,7683,7682,8006,8007,8016,8015
205381,7674,7675,7684,7683,8007,8008,8017,8016
205382,7675,7676,7685,7684,8008,8009,8018,8017
205383,7676,7677,7686,7685,8009,8010,8019,8018
205384,7678,7679,7688,7687,8011,8012,8021,8020
205385,7679,7680,7689,7688,8012,8013,8022,8021
205386,7680,7681,7690,7689,8013,8014,8023,8022
205387,7681,7682,7691,7690,8014,8015,8024,8023
205388,7682,7683,7692,7691,8015,8016,8025,8024
205389,7683,7684,7693,7692,8016,8017,8026,8025
205390,7684,7685,7694,7693,8017,8018,8027,8026
205391,7685,7686,7695,7694,8018,8019,8028,8027
205392,7687,7688,7697,7696,8020,8021,8030,8029
205393,7688,7689,7698,7697,8021,8022,8031,8030
205394,7689,7690,7699,7698,8022,8023,8032,8031
205395,7690,7691,7700,7699,8023,8024,8033,8032
205396,7691,7692,7701,7700,8024,8025,8034,8033
205397,7692,7693,7702,7701,8025,8026,8035,8034
205398,7693,7694,7703,7702,8026,8027,8036,8035
205399,7694,7695,7704,7703,8027,8028,8037,8036
205400,7696,7697,7706,7705,8029,8030,8039,8038
205401,7697,7698,7707,7706,8030,8031,8040,8039
205402,7698,7699,7708,7707,8031,8032,8041,8040
205403,7699,7700,7709,7708,8032,8033,8042,8041
205404,7700,7701,7710,7709,8033,8034,8043,8042
205405,7701,7702,7711,7710,8034,8035,8044,8043
205406,7702,7703,7712,7711,8035,8036,8045,8044
205407,7703,7704,7713,7712,8036,8037,8046,8045
205408,7705,7706,7715,7714,8038,8039,8048,8047
205409,7706,7707,7716,7715,8039,8040,8049,8048
205410,7707,7708,7717,7716,8040,8041,8050,8049
205411,7708,7709,7718,7717,8041,8042,8051,8050
205412,7709,7710,7719,7718,8042,8043,8052,8051
205413,7710,7711,7720,7719,8043,8044,8053,8052
205414,7711,7712,7721,7720,8044,8045,8054,8053
205415,7712,7713,7722,7721,8045,8046,8055,8054
205416,7714,7715,7724,7723,8047,8048,8057,8056
205417,7715,7716,7725,7724,8048,8049,8058,8057
205418,7716,7717,7726,7725,8049,8050,8059,8058
205419,7717,7718,7727,7726,8050,8051,8060,8059
205420,7718,7719,7728,7727,8051,8052,8061,8060
205421,7719,7720,7729,7728,8052,8053,8062,8061
205422,7720,7721,7730,7729,8053,8054,8063,8062
205423,7721,7722,7731,7730,8054,8055,8064,8063
205424,7723,7724,7733,7732,8056,8057,8066,8065
205425,7724,7725,7734,7733,8057,8058,8067,8066
205426,7725,7726,7735,7734,8058,8059,8068,8067
205427,7726,7727,7736,7735,8059,8060,8069,8068
205428,7727,7728,7737,7736,8060,8061,8070,8069
205429,7728,7729,7738,7737,8061,8062,8071,8070
205430,7729,7730,7739,7738,8062,8063,8072,8071
205431,7730,7731,7740,7739,8063,8064,8073,8072
205432,7732,7733,7742,7741,8065,8066,8075,8074
205433,7733,7734,7743,7742,8066,8067,8076,8075
205434,7734,7735,7744,7743,8067,8068,8077,8076
205435,7735,7736,7745,7744,8068,8069,8078,8077
205436,7736,7737,7746,7745,8069,8070,8079,8078
205437,7737,7738,7747,7746,8070,8071,8080,8079
205438,7738,7739,7748,7747,8071,8072,8081,8080
205439,7739,7740,7749,7748,8072,8073,8082,8081
205440,7741,7742,7751,7750,8074,8075,8084,8083
205441,7742,7743,7752,7751,8075,8076,8085,8084
205442,7743,7744,7753,7752,8076,8077,8086,8085
205443,7744,7745,7754,7753,8077,8078,8087,8086
205444,7745,7746,7755,7754,8078,8079,8088,8087
205445,7746,7747,7756,7755,8079,8080,8089,8088
205446,7747,7748,7757,7756,8080,8081,8090,8089
205447,7748,7749,7758,7757,8081,8082,8091,8090
205448,7750,7751,7760,7759,8083,8084,8093,8092
205449,7751,7752,7761,7760,8084,8085,8094,8093
205450,7752,7753,7762,7761,8085,8086,8095,8094
205451,7753,7754,7763,7762,8086,8087,8096,8095
205452,7754,7755,7764,7763,8087,8088,8097,8096
205453,7755,7756,7765,7764,8088,8089,8098,8097
205454,7756,7757,7766,7765,8089,8090,8099,8098
205455,7757,7758,7767,7766,8090,8091,8100,8099
205456,7759,7760,7769,7768,8092,8093,8102,8101
205457,7760,7761,7770,7769,8093,8094,8103,8102
205458,7761,7762,7771,7770,8094,8095,8104,8103
205459,7762,7763,7772,7771,8095,8096,8105,8104
205460,7763,7764,7773,7772,8096,8097,8106,8105
205461,7764,7765,7774,7773,8097,8098,8107,8106
205462,7765,7766,7775,7774,8098,8099,8108,8107
205463,7766,7767,7776,7775,8099,8100,8109,8108
205464,7768,7769,7778,7777,8101,8102,8111,8110
205465,7769,7770,7779,7778,8102,8103,8112,8111
205466,7770,7771,7780,7779,8103,8104,8113,8112
205467,7771,7772,7781,7780,8104,8105,8114,8113
205468,7772,7773,7782,7781,8105,8106,8115,8114
205469,7773,7774,7783,7782,8106,8107,8116,8115
205470,7774,7775,7784,7783,8107,8108,8117,8116
205471,7775,7776,7785,7784,8108,8109,8118,8117
205472,7786,7787,7796,7795,8119,8120,8129,8128
205473,7787,7788,7797,7796,8120,8121,8130,8129
205474,7788,7789,7798,7797,8121,8122,8131,8130
205475,7789,7790,7799,7798,8122,8123,8132,8131
205476,7790,7791,7800,7799,8123,8124,8133,8132
205477,7791,7792,7801,7800,8124,8125,8134,8133
205478,7792,7793,7802,7801,8125,8126,8135,8134
205479,7793,7794,7803,7802,8126,8127,8136,8135
205480,7795,7796,7805,7804,8128,8129,8138,8137
205481,7796,7797,7806,7805,8129,8130,8139,8138
205482,7797,7798,7807,7806,8130,8131,8140,8139
205483,7798,7799,7808,7807,8131,8132,8141,8140
205484,7799,7800,7809,7808,8132,8133,8142,8141
205485,7800,7801,7810,7809,8133,8134,8143,8142
205486,7801,7802,7811,7810,8134,8135,8144,8143
205487,7802,7803,7812,7811,8135,8136,8145,8144
205488,7804,7805,7814,7813,8137,8138,8147,8146
205489,7805,7806,7815,7814,8138,8139,8148,8147
205490,7806,7807,7816,7815,8139,8140,8149,8148
205491,7807,7808,7817,7816,8140,8141,8150,8149
205492,7808,7809,7818,7817,8141,8142,8151,8150
205493,7809,7810,7819,7818,8142,8143,8152,8151
205494,7810,7811,7820,7819,8143,8144,8153,8152
205495,7811,7812,7821,7820,8144,8145,8154,8153
205496,7813,7814,7823,7822,8146,8147,8156,8155
205497,7814,7815,7824,7823,8147,8148,8157,8156
205498,7815,7816,7825,7824,8148,8149,8158,8157
205499,7816,7817,7826,7825,8149,8150,8159,8158
205500,7817,7818,7827,7826,8150,8151,8160,8159
205501,7818,7819,7828,7827,8151,8152,8161,8160
205502,7819,7820,7829,7828,8152,8153,8162,8161
205503,7820,7821,7830,7829,8153,8154,8163,8162
205504,7822,7823,7832,7831,8155,8156,8165,8164
205505,7823,7824,7833,7832,8156,8157,8166,8165
205506,7824,7825,7834,7833,8157,8158,8167,8166
205507,7825,7826,7835,7834,8158,8159,8168,8167
205508,7826,7827,7836,7835,8159,8160,8169,8168
205509,7827,7828,7837,7836,8160,8161,8170,8169
205510,7828,7829,7838,7837,8161,8162,8171,8170
205511,7829,7830,7839,7838,8162,8163,8172,8171
205512,7831,7832,7841,7840,8164,8165,8174,8173
205513,7832,7833,7842,7841,8165,8166,8175,8174
205514,7833,7834,7843,7842,8166,8167,8176,8175
205515,7834,7835,7844,7843,8167,8168,8177,8176
205516,7835,7836,7845,7844,8168,8169,8178,8177
205517,7836,7837,7846,7845,8169,8170,8179,8178
205518,7837,7838,7847,7846,8170,8171,8180,8179
205519,7838,7839,7848,7847,8171,8172,8181,8180
205520,7840,7841,7850,7849,8173,8174,8183,8182
205521,7841,7842,7851,7850,8174,8175,8184,8183
205522,7842,7843,7852,7851,8175,8176,8185,8184
205523,7843,7844,7853,7852,8176,8177,8186,8185
205524,7844,7845,7854,7853,8177,8178,8187,8186
205525,7845,7846,7855,7854,8178,8179,8188,8187
205526,7846,7847,7856,7855,8179,8180,8189,8188
205527,7847,7848,7857,7856,8180,8181,8190,8189
205528,7849,7850,7859,7858,8182,8183,8192,8191
205529,7850,7851,7860,7859,8183,8184,8193,8192
205530,7851,7852,7861,7860,8184,8185,8194,8193
205531,7852,7853,7862,7861,8185,8186,8195,8194
205532,7853,7854,7863,7862,8186,8187,8196,8195
205533,7854,7855,7864,7863,8187,8188,8197,8196
205534,7855,7856,7865,7864,8188,8189,8198,8197
205535,7856,7857,7866,7865,8189,8190,8199,8198
205536,7858,7859,7868,7867,8191,8192,8201,8200
205537,7859,7860,7869,7868,8192,8193,8202,8201
205538,7860,7861,7870,7869,8193,8194,8203,8202
205539,7861,7862,7871,7870,8194,8195,8204,8203
205540,7862,7863,7872,7871,8195,8196,8205,8204
205541,7863,7864,7873,7872,8196,8197,8206,8205
205542,7864,7865,7874,7873,8197,8198,8207,8206
205543,7865,7866,7875,7874,8198,8199,8208,8207
205544,7867,7868,7877,7876,8200,8201,8210,8209
205545,7868,7869,7878,7877,8201,8202,8211,8210
205546,7869,7870,7879,7878,8202,8203,8212,8211
205547,7870,7871,7880,7879,8203,8204,8213,8212
205548,7871,7872,7881,7880,8204,8205,8214,8213
205549,7872,7873,7882,7881,8205,8206,8215,8214
205550,7873,7874,7883,7882,8206,8207,8216,8215
205551,7874,7875,7884,7883,8207,8208,8217,8216
205552,7876,7877,7886,7885,8209,8210,8219,8218
205553,7877,7878,7887,7886,8210,8211,8220,8219
205554,7878,7879,7888,7887,8211,8212,8221,8220
205555,7879,7880,7889,7888,8212,8213,8222,8221
205556,7880,7881,7890,7889,8213,8214,8223,8222
205557,7881,7882,7891,7890,8214,8215,8224,8223
205558,7882,7883,7892,7891,8215,8216,8225,8224
205559,7883,7884,7893,7892,8216,8217,8226,8225
205560,7885,7886,7895,7894,8218,8219,8228,8227
205561,7886,7887,7896,7895,8219,8220,8229,8228
205562,7887,7888,7897,7896,8220,8221,8230,8229
205563,7888,7889,7898,7897,8221,8222,8231,8230
205564,7889,7890,7899,7898,8222,8223,8232,8231
205565,7890,7891,7900,7899,8223,8224,8233,8232
205566,7891,7892,7901,7900,8224,8225,8234,8233
205567,7892,7893,7902,7901,8225,8226,8235,8234
205568,7894,7895,7904,7903,8227,8228,8237,8236
205569,7895,7896,7905,7904,8228,8229,8238,8237
205570,7896,7897,7906,7905,8229,8230,8239,8238
205571,7897,7898,7907,7906,8230,8231,8240,8239
205572,7898,7899,7908,7907,8231,8232,8241,8240
205573,7899,7900,7909,7908,8232,8233,8242,8241
205574,7900,7901,7910,7909,8233,8234,8243,8242
205575,7901,7902,7911,7910,8234,8235,8244,8243
205576,7903,7904,7913,7912,8236,8237,8246,8245
205577,7904,7905,7914,7913,8237,8238,8247,8246
205578,7905,7906,7915,7914,8238,8239,8248,8247
205579,7906,7907,7916,7915,8239,8240,8249,8248
205580,7907,7908,7917,7916,8240,8241,8250,8249
205581,7908,7909,7918,7917,8241,8242,8251,8250
205582,7909,7910,7919,7918,8242,8243,8252,8251
205583,7910,7911,7920,7919,8243,8244,8253,8252
205584,7912,7913,7922,7921,8245,8246,8255,8254
205585,7913,7914,7923,7922,8246,8247,8256,8255
205586,7914,7915,7924,7923,8247,8248,8257,8256
205587,7915,7916,7925,7924,8248,8249,8258,8257
205588,7916,7917,7926,7925,8249,8250,8259,8258
205589,7917,7918,7927,7926,8250,8251,8260,8259
205590,7918,7919,7928,7927,8251,8252,8261,8260
205591,7919,7920,7929,7928,8252,8253,8262,8261
205592,7921,7922,7931,7930,8254,8255,8264,8263
205593,7922,7923,7932,7931,8255,8256,8265,8264
205594,7923,7924,7933,7932,8256,8257,8266,8265
205595,7924,7925,7934,7933,8257,8258,8267,8266
205596,7925,7926,7935,7934,8258,8259,8268,8267
205597,7926,7927,7936,7935,8259,8260,8269,8268
205598,7927,7928,7937,7936,8260,8261,8270,8269
205599,7928,7929,7938,7937,8261,8262,8271,8270
205600,7930,7931,7940,7939,8263,8264,8273,8272
205601,7931,7932,7941,7940,8264,8265,8274,8273
205602,7932,7933,7942,7941,8265,8266,8275,8274
205603,7933,7934,7943,7942,8266,8267,8276,8275
205604,7934,7935,7944,7943,8267,8268,8277,8276
205605,7935,7936,7945,7944,8268,8269,8278,8277
205606,7936,7937,7946,7945,8269,8270,8279,8278
205607,7937,7938,7947,7946,8270,8271,8280,8279
205608,7939,7940,7949,7948,8272,8273,8282,8281
205609,7940,7941,7950,7949,8273,8274,8283,8282
205610,7941,7942,7951,7950,8274,8275,8284,8283
205611,7942,7943,7952,7951,8275,8276,8285,8284
205612,7943,7944,7953,7952,8276,8277,8286,8285
205613,7944,7945,7954,7953,8277,8278,8287,8286
205614,7945,7946,7955,7954,8278,8279,8288,8287
205615,7946,7947,7956,7955,8279,8280,8289,8288
205616,7948,7949,7958,7957,8281,8282,8291,8290
205617,7949,7950,7959,7958,8282,8283,8292,8291
205618,7950,7951,7960,7959,8283,8284,8293,8292
205619,7951,7952,7961,7960,8284,8285,8294,8293
205620,7952,7953,7962,7961,8285,8286,8295,8294
205621,7953,7954,7963,7962,8286,8287,8296,8295
205622,7954,7955,7964,7963,8287,8288,8297,8296
205623,7955,7956,7965,7964,8288,8289,8298,8297
205624,7957,7958,7967,7966,8290,8291,8300,8299
205625,7958,7959,7968,7967,8291,8292,8301,8300
205626,7959,7960,7969,7968,8292,8293,8302,8301
205627,7960,7961,7970,7969,8293,8294,8303,8302
205628,7961,7962,7971,7970,8294,8295,8304,8303
205629,7962,7963,7972,7971,8295,8296,8305,8304
205630,7963,7964,7973,7972,8296,8297,8306,8305
205631,7964,7965,7974,7973,8297,8298,8307,8306
205632,7966,7967,7976,7975,8299,8300,8309,8308
205633,7967,7968,7977,7976,8300,8301,8310,8309
205634,7968,7969,7978,7977,8301,8302,8311,8310
205635,7969,7970,7979,7978,8302,8303,8312,8311
205636,7970,7971,7980,7979,8303,8304,8313,8312
205637,7971,7972,7981,7980,8304,8305,8314,8313
205638,7972,7973,7982,7981,8305,8306,8315,8314
205639,7973,7974,7983,7982,8306,8307,8316,8315
205640,7975,7976,7985,7984,8308,8309,8318,8317
205641,7976,7977,7986,7985,8309,8310,8319,8318
205642,7977,7978,7987,7986,8310,8311,8320,8319
205643,7978,7979,7988,7987,8311,8312,8321,8320
205644,7979,7980,7989,7988,8312,8313,8322,8321
205645,7980,7981,7990,7989,8313,8314,8323,8322
205646,7981,7982,7991,7990,8314,8315,8324,8323
205647,7982,7983,7992,7991,8315,8316,8325,8324
205648,7984,7985,7994,7993,8317,8318,8327,8326
205649,7985,7986,7995,7994,8318,8319,8328,8327
205650,7986,7987,7996,7995,8319,8320,8329,8328
205651,7987,7988,7997,7996,8320,8321,8330,8329
205652,7988,7989,7998,7997,8321,8322,8331,8330
205653,7989,7990,7999,7998,8322,8323,8332,8331
205654,7990,7991,8000,7999,8323,8324,8333,8332
205655,7991,7992,8001,8000,8324,8325,8334,8333
205656,7993,7994,8003,8002,8326,8327,8336,8335
205657,7994,7995,8004,8003,8327,8328,8337,8336
205658,7995,7996,8005,8004,8328,8329,8338,8337
205659,7996,7997,8006,8005,8329,8330,8339,8338
205660,7997,7998,8007,8006,8330,8331,8340,8339
205661,7998,7999,8008,8007,8331,8332,8341,8340
205662,7999,8000,8009,8008,8332,8333,8342,8341
205663,8000,8001,8010,8009,8333,8334,8343,8342
205664,8002,8003,8012,8011,8335,8336,8345,8344
205665,8003,8004,8013,8012,8336,8337,8346,8345
205666,8004,8005,8014,8013,8337,8338,8347,8346
205667,8005,8006,8015,8014,8338,8339,8348,8347
205668,8006,8007,8016,8015,8339,8340,8349,8348
205669,8007,8008,8017,8016,8340,8341,8350,8349
205670,8008,8009,8018,8017,8341,8342,8351,8350
205671,8009,8010,8019,8018,8342,8343,8352,8351
205672,8011,8012,8021,8020,8344,8345,8354,8353
205673,8012,8013,8022,8021,8345,8346,8355,8354
205674,8013,8014,8023,8022,8346,8347,8356,8355
205675,8014,8015,8024,8023,8347,8348,8357,8356
205676,8015,8016,8025,8024,8348,8349,8358,8357
205677,8016,8017,8026,8025,8349,8350,8359,8358
205678,8017,8018,8027,8026,8350,8351,8360,8359
205679,8018,8019,8028,8027,8351,8352,8361,8360
205680,8020,8021,8030,8029,8353,8354,8363,8362
205681,8021,8022,8031,8030,8354,8355,8364,8363
205682,8022,8023,8032,8031,8355,8356,8365,8364
205683,8023,8024,8033,8032,8356,8357,8366,8365
205684,8024,8025,8034,8033,8357,8358,8367,8366
205685,8025,8026,8035,8034,8358,8359,8368,8367
205686,8026,8027,8036,8035,8359,8360,8369,8368
205687,8027,8028,8037,8036,8360,8361,8370,8369
205688,8029,8030,8039,8038,8362,8363,8372,8371
205689,8030,8031,8040,8039,8363,8364,8373,8372
205690,8031,8032,8041,8040,8364,8365,8374,8373
205691,8032,8033,8042,8041,8365,8366,8375,8374
205692,8033,8034,8043,8042,8366,8367,8376,8375
205693,8034,8035,8044,8043,8367,8368,8377,8376
205694,8035,8036,8045,8044,8368,8369,8378,8377
205695,8036,8037,8046,8045,8369,8370,8379,8378
205696,8038,8039,8048,8047,8371,8372,8381,8380
205697,8039,8040,8049,8048,8372,8373,8382,8381
205698,8040,8041,8050,8049,8373,8374,8383,8382
205699,8041,8042,8051,8050,8374,8375,8384,8383
205700,8042,8043,8052,8051,8375,8376,8385,8384
205701,8043,8044,8053,8052,8376,8377,8386,8385
205702,8044,8045,8054,8053,8377,8378,8387,8386
205703,8045,8046,8055,8054,8378,8379,8388,8387
205704,8047,8048,8057,8056,8380,8381,8390,8389
205705,8048,8049,8058,8057,8381,8382,8391,8390
205706,8049,8050,8059,8058,8382,8383,8392,8391
205707,8050,8051,8060,8059,8383,8384,8393,8392
205708,8051,8052,8061,8060,8384,8385,8394,8393
205709,8052,8053,8062,8061,8385,8386,8395,8394
205710,8053,8054,8063,8062,8386,8387,8396,8395
205711,8054,8055,8064,8063,8387,8388,8397,8396
205712,8056,8057,8066,8065,8389,8390,8399,8398
205713,8057,8058,8067,8066,8390,8391,8400,8399
205714,8058,8059,8068,8067,8391,8392,8401,8400
205715,8059,8060,8069,8068,8392,8393,8402,8401
205716,8060,8061,8070,8069,8393,8394,8403,8402
205717,8061,8062,8071,8070,8394,8395,8404,8403
205718,8062,8063,8072,8071,8395,8396,8405,8404
205719,8063,8064,8073,8072,8396,8397,8406,8405
205720,8065,8066,8075,8074,8398,8399,8408,8407
205721,8066,8067,8076,8075,8399,8400,8409,8408
205722,8067,8068,8077,8076,8400,8401,8410,8409
205723,8068,8069,8078,8077,8401,8402,8411,8410
205724,8069,8070,8079,8078,8402,8403,8412,8411
205725,8070,8071,8080,8079,8403,8404,8413,8412
205726,8071,8072,8081,8080,8404,8405,8414,8413
205727,8072,8073,8082,8081,8405,8406,8415,8414
205728,8074,8075,8084,8083,8407,8408,8417,8416
205729,8075,8076,8085,8084,8408,8409,8418,8417
205730,8076,8077,8086,8085,8409,8410,8419,8418
205731,8077,8078,8087,8086,8410,8411,8420,8419
205732,8078,8079,8088,8087,8411,8412,8421,8420
205733,8079,8080,8089,8088,8412,8413,8422,8421
205734,8080,8081,8090,8089,8413,8414,8423,8422
205735,8081,8082,8091,8090,8414,8415,8424,8423
205736,8083,8084,8093,8092,8416,8417,8426,8425
205737,8084,8085,8094,8093,8417,8418,8427,8426
205738,8085,8086,8095,8094,8418,8419,8428,8427
205739,8086,8087,8096,8095,8419,8420,8429,8428
205740,8087,8088,8097,8096,8420,8421,8430,8429
205741,8088,8089,8098,8097,8421,8422,8431,8430
205742,8089,8090,8099,8098,8422,8423,8432,8431
205743,8090,8091,8100,8099,8423,8424,8433,8432
205744,8092,8093,8102,8101,8425,8426,8435,8434
205745,8093,8094,8103,8102,8426,8427,8436,8435
205746,8094,8095,8104,8103,8427,8428,8437,8436
205747,8095,8096,8105,8104,8428,8429,8438,8437
205748,8096,8097,8106,8105,8429,8430,8439,8438
205749,8097,8098,8107,8106,8430,8431,8440,8439
205750,8098,8099,8108,8107,8431,8432,8441,8440
205751,8099,8100,8109,8108,8432,8433,8442,8441
205752,8101,8102,8111,8110,8434,8435,8444,8443
205753,8102,8103,8112,8111,8435,8436,8445,8444
205754,8103,8104,8113,8112,8436,8437,8446,8445
205755,8104,8105,8114,8113,8437,8438,8447,8446
205756,8105,8106,8115,8114,8438,8439,8448,8447
205757,8106,8107,8116,8115,8439,8440,8449,8448
205758,8107,8108,8117,8116,8440,8441,8450,8449
205759,8108,8109,8118,8117,8441,8442,8451,8450
205760,8119,8120,8129,8128,8452,8453,8462,8461
205761,8120,8121,8130,8129,8453,8454,8463,8462
205762,8121,8122,8131,8130,8454,8455,8464,8463
205763,8122,8123,8132,8131,8455,8456,8465,8464
205764,8123,8124,8133,8132,8456,8457,8466,8465
205765,8124,8125,8134,8133,8457,8458,8467,8466
205766,8125,8126,8135,8134,8458,8459,8468,8467
205767,8126,8127,8136,8135,8459,8460,8469,8468
205768,8128,8129,8138,8137,8461,8462,8471,8470
205769,8129,8130,8139,8138,8462,8463,8472,8471
205770,8130,8131,8140,8139,8463,8464,8473,8472
205771,8131,8132,8141,8140,8464,8465,8474,8473
205772,8132,8133,8142,8141,8465,8466,8475,8474
205773,8133,8134,8143,8142,8466,8467,8476,8475
205774,8134,8135,8144,8143,8467,8468,8477,8476
205775,8135,8136,8145,8144,8468,8469,8478,8477
205776,8137,8138,8147,8146,8470,8471,8480,8479
205777,8138,8139,8148,8147,8471,8472,8481,8480
205778,8139,8140,8149,8148,8472,8473,8482,8481
205779,8140,8141,8150,8149,8473,8474,8483,8482
205780,8141,8142,8151,8150,8474,8475,8484,8483
205781,8142,8143,8152,8151,8475,8476,8485,8484
205782,8143,8144,8153,8152,8476,8477,8486,8485
205783,8144,8145,8154,8153,8477,8478,8487,8486
205784,8146,8147,8156,8155,8479,8480,8489,8488
205785,8147,8148,8157,8156,8480,8481,8490,8489
205786,8148,8149,8158,8157,8481,8482,8491,8490
205787,8149,8150,8159,8158,8482,8483,8492,8491
205788,8150,8151,8160,8159,8483,8484,8493,8492
205789,8151,8152,8161,8160,8484,8485,8494,8493
205790,8152,8153,8162,8161,8485,8486,8495,8494
205791,8153,8154,8163,8162,8486,8487,8496,8495
205792,8155,8156,8165,8164,8488,8489,8498,8497
205793,8156,8157,8166,8165,8489,8490,8499,8498
205794,8157,8158,8167,8166,8490,8491,8500,8499
205795,8158,8159,8168,8167,8491,8492,8501,8500
205796,8159,8160,8169,8168,8492,8493,8502,8501
205797,8160,8161,8170,8169,8493,8494,8503,8502
205798,8161,8162,8171,8170,8494,8495,8504,8503
205799,8162,8163,8172,8171,8495,8496,8505,8504
205800,8164,8165,8174,8173,8497,8498,8507,8506
205801,8165,8166,8175,8174,8498,8499,8508,8507
205802,8166,8167,8176,8175,8499,8500,8509,8508
205803,8167,8168,8177,8176,8500,8501,8510,8509
205804,8168,8169,8178,8177,8501,8502,8511,8510
205805,8169,8170,8179,8178,8502,8503,8512,8511
205806,8170,8171,8180,8179,8503,8504,8513,8512
205807,8171,8172,8181,8180,8504,8505,8514,8513
205808,8173,8174,8183,8182,8506,8507,8516,8515
205809,8174,8175,8184,8183,8507,8508,8517,8516
205810,8175,8176,8185,8184,8508,8509,8518,8517
205811,8176,8177,8186,8185,8509,8510,8519,8518
205812,8177,8178,8187,8186,8510,8511,8520,8519
205813,8178,8179,8188,8187,8511,8512,8521,8520
205814,8179,8180,8189,8188,8512,8513,8522,8521
205815,8180,8181,8190,8189,8513,8514,8523,8522
205816,8182,8183,8192,8191,8515,8516,8525,8524
205817,8183,8184,8193,8192,8516,8517,8526,8525
205818,8184,8185,8194,8193,8517,8518,8527,8526
205819,8185,8186,8195,8194,8518,8519,8528,8527
205820,8186,8187,8196,8195,8519,8520,8529,8528
205821,8187,8188,8197,8196,8520,8521,8530,8529
205822,8188,8189,8198,8197,8521,8522,8531,8530
205823,8189,8190,8199,8198,8522,8523,8532,8531
205824,8191,8192,8201,8200,8524,8525,8534,8533
205825,8192,8193,8202,8201,8525,8526,8535,8534
205826,8193,8194,8203,8202,8526,8527,8536,8535
205827,8194,8195,8204,8203,8527,8528,8537,8536
205828,8195,8196,8205,8204,8528,8529,8538,8537
205829,8196,8197,8206,8205,8529,8530,8539,8538
205830,8197,8198,8207,8206,8530,8531,8540,8539
205831,8198,8199,8208,8207,8531,8532,8541,8540
205832,8200,8201,8210,8209,8533,8534,8543,8542
205833,8201,8202,8211,8210,8534,8535,8544,8543
205834,8202,8203,8212,8211,8535,8536,8545,8544
205835,8203,8204,8213,8212,8536,8537,8546,8545
205836,8204,8205,8214,8213,8537,8538,8547,8546
205837,8205,8206,8215,8214,8538,8539,8548,8547
205838,8206,8207,8216,8215,8539,8540,8549,8548
205839,8207,8208,8217,8216,8540,8541,8550,8549
205840,8209,8210,8219,8218,8542,8543,8552,8551
205841,8210,8211,8220,8219,8543,8544,8553,8552
205842,8211,8212,8221,8220,8544,8545,8554,8553
205843,8212,8213,8222,8221,8545,8546,8555,8554
205844,8213,8214,8223,8222,8546,8547,8556,8555
205845,8214,8215,8224,8223,8547,8548,8557,8556
205846,8215,8216,8225,8224,8548,8549,8558,8557
205847,8216,8217,8226,8225,8549,8550,8559,8558
205848,8218,8219,8228,8227,8551,8552,8561,8560
205849,8219,8220,8229,8228,8552,8553,8562,8561
205850,8220,8221,8230,8229,8553,8554,8563,8562
205851,8221,8222,8231,8230,8554,8555,8564,8563
205852,8222,8223,8232,8231,8555,8556,8565,8564
205853,8223,8224,8233,8232,8556,8557,8566,8565
205854,8224,8225,8234,8233,8557,8558,8567,8566
205855,8225,8226,8235,8234,8558,8559,8568,8567
205856,8227,8228,8237,8236,8560,8561,8570,8569
205857,8228,8229,8238,8237,8561,8562,8571,8570
205858,8229,8230,8239,8238,8562,8563,8572,8571
205859,8230,8231,8240,8239,8563,8564,8573,8572
205860,8231,8232,8241,8240,8564,8565,8574,8573
205861,8232,8233,8242,8241,8565,8566,8575,8574
205862,8233,8234,8243,8242,8566,8567,8576,8575
205863,8234,8235,8244,8243,8567,8568,8577,8576
205864,8236,8237,8246,8245,8569,8570,8579,8578
205865,8237,8238,8247,8246,8570,8571,8580,8579
205866,8238,8239,8248,8247,8571,8572,8581,8580
205867,8239,8240,8249,8248,8572,8573,8582,8581
205868,8240,8241,8250,8249,8573,8574,8583,8582
205869,8241,8242,8251,8250,8574,8575,8584,8583
205870,8242,8243,8252,8251,8575,8576,8585,8584
205871,8243,8244,8253,8252,8576,8577,8586,8585
205872,8245,8246,8255,8254,8578,8579,8588,8587
205873,8246,8247,8256,8255,8579,8580,8589,8588
205874,8247,8248,8257,8256,8580,8581,8590,8589
205875,8248,8249,8258,8257,8581,8582,8591,8590
205876,8249,8250,8259,8258,8582,8583,8592,8591
205877,8250,8251,8260,8259,8583,8584,8593,8592
205878,8251,8252,8261,8260,8584,8585,8594,8593
205879,8252,8253,8262,8261,8585,8586,8595,8594
205880,8254,8255,8264,8263,8587,8588,8597,8596
205881,8255,8256,8265,8264,8588,8589,8598,8597
205882,8256,8257,8266,8265,8589,8590,8599,8598
205883,8257,8258,8267,8266,8590,8591,8600,8599
205884,8258,8259,8268,8267,8591,8592,8601,8600
205885,8259,8260,8269,8268,8592,8593,8602,8601
205886,8260,8261,8270,8269,8593,8594,8603,8602
205887,8261,8262,8271,8270,8594,8595,8604,8603
205888,8263,8264,8273,8272,8596,8597,8606,8605
205889,8264,8265,8274,8273,8597,8598,8607,8606
205890,8265,8266,8275,8274,8598,8599,8608,8607
205891,8266,8267,8276,8275,8599,8600,8609,8608
205892,8267,8268,8277,8276,8600,8601,8610,8609
205893,8268,8269,8278,8277,8601,8602,8611,8610
205894,8269,8270,8279,8278,8602,8603,8612,8611
205895,8270,8271,8280,8279,8603,8604,8613,8612
205896,8272,8273,8282,8281,8605,8606,8615,8614
205897,8273,8274,8283,8282,8606,8607,8616,8615
205898,8274,8275,8284,8283,8607,8608,8617,8616
205899,8275,8276,8285,8284,8608,8609,8618,8617
205900,8276,8277,8286,8285,8609,8610,8619,8618
205901,8277,8278,8287,8286,8610,8611,8620,8619
205902,8278,8279,8288,8287,8611,8612,8621,8620
205903,8279,8280,8289,8288,8612,8613,8622,8621
205904,8281,8282,8291,8290,8614,8615,8624,8623
205905,8282,8283,8292,8291,8615,8616,8625,8624
205906,8283,8284,8293,8292,8616,8617,8626,8625
205907,8284,8285,8294,8293,8617,8618,8627,8626
205908,8285,8286,8295,8294,8618,8619,8628,8627
205909,8286,8287,8296,8295,8619,8620,8629,8628
205910,8287,8288,8297,8296,8620,8621,8630,8629
205911,8288,8289,8298,8297,8621,8622,8631,8630
205912,8290,8291,8300,8299,8623,8624,8633,8632
205913,8291,8292,8301,8300,8624,8625,8634,8633
205914,8292,8293,8302,8301,8625,8626,8635,8634
205915,8293,8294,8303,8302,8626,8627,8636,8635
205916,8294,8295,8304,8303,8627,8628,8637,8636
205917,8295,8296,8305,8304,8628,8629,8638,8637
205918,8296,8297,8306,8305,8629,8630,8639,8638
205919,8297,8298,8307,8306,8630,8631,8640,8639
205920,8299,8300,8309,8308,8632,8633,8642,8641
205921,8300,8301,8310,8309,8633,8634,8643,8642
205922,8301,8302,8311,8310,8634,8635,8644,8643
205923,8302,8303,8312,8311,8635,8636,8645,8644
205924,8303,8304,8313,8312,8636,8637,8646,8645
205925,8304,8305,8314,8313,8637,8638,8647,8646
205926,8305,8306,8315,8314,8638,8639,8648,8647
205927,8306,8307,8316,8315,8639,8640,8649,8648
205928,8308,8309,8318,8317,8641,8642,8651,8650
205929,8309,8310,8319,8318,8642,8643,8652,8651
205930,8310,8311,8320,8319,8643,8644,8653,8652
205931,8311,8312,8321,8320,8644,8645,8654,8653
205932,8312,8313,8322,8321,8645,8646,8655,8654
205933,8313,8314,8323,8322,8646,8647,8656,8655
205934,8314,8315,8324,8323,8647,8648,8657,8656
205935,8315,8316,8325,8324,8648,8649,8658,8657
205936,8317,8318,8327,8326,8650,8651,8660,8659
205937,8318,8319,8328,8327,8651,8652,8661,8660
205938,8319,8320,8329,8328,8652,8653,8662,8661
205939,8320,8321,8330,8329,8653,8654,8663,8662
205940,8321,8322,8331,8330,8654,8655,8664,8663
205941,8322,8323,8332,8331,8655,8656,8665,8664
205942,8323,8324,8333,8332,8656,8657,8666,8665
205943,8324,8325,8334,8333,8657,8658,8667,8666
205944,8326,8327,8336,8335,8659,8660,8669,8668
205945,8327,8328,8337,8336,8660,8661,8670,8669
205946,8328,8329,8338,8337,8661,8662,8671,8670
205947,8329,8330,8339,8338,8662,8663,8672,8671
205948,8330,8331,8340,8339,8663,8664,8673,8672
205949,8331,8332,8341,8340,8664,8665,8674,8673
205950,8332,8333,8342,8341,8665,8666,8675,8674
205951,8333,8334,8343,8342,8666,8667,8676,8675
205952,8335,8336,8345,8344,8668,8669,8678,8677
205953,8336,8337,8346,8345,8669,8670,8679,8678
205954,8337,8338,8347,8346,8670,8671,8680,8679
205955,8338,8339,8348,8347,8671,8672,8681,8680
205956,8339,8340,8349,8348,8672,8673,8682,8681
205957,8340,8341,8350,8349,8673,8674,8683,8682
205958,8341,8342,8351,8350,8674,8675,8684,8683
205959,8342,8343,8352,8351,8675,8676,8685,8684
205960,8344,8345,8354,8353,8677,8678,8687,8686
205961,8345,8346,8355,8354,8678,8679,8688,8687
205962,8346,8347,8356,8355,8679,8680,8689,8688
205963,8347,8348,8357,8356,8680,8681,8690,8689
205964,8348,8349,8358,8357,8681,8682,8691,8690
205965,8349,8350,8359,8358,8682,8683,8692,8691
205966,8350,8351,8360,8359,8683,8684,8693,8692
205967,8351,8352,8361,8360,8684,8685,8694,8693
205968,8353,8354,8363,8362,8686,8687,8696,8695
205969,8354,8355,8364,8363,8687,8688,8697,8696
205970,8355,8356,8365,8364,8688,8689,8698,8697
205971,8356,8357,8366,8365,8689,8690,8699,8698
205972,8357,8358,8367,8366,8690,8691,8700,8699
205973,8358,8359,8368,8367,8691,8692,8701,8700
205974,8359,8360,8369,8368,8692,8693,8702,8701
205975,8360,8361,8370,8369,8693,8694,8703,8702
205976,8362,8363,8372,8371,8695,8696,8705,8704
205977,8363,8364,8373,8372,8696,8697,8706,8705
205978,8364,8365,8374,8373,8697,8698,8707,8706
205979,8365,8366,8375,8374,8698,8699,8708,8707
205980,8366,8367,8376,8375,8699,8700,8709,8708
205981,8367,8368,8377,8376,8700,8701,8710,8709
205982,8368,8369,8378,8377,8701,8702,8711,8710
205983,8369,8370,8379,8378,8702,8703,8712,8711
205984,8371,8372,8381,8380,8704,8705,8714,8713
205985,8372,8373,8382,8381,8705,8706,8715,8714
205986,8373,8374,8383,8382,8706,8707,8716,8715
205987,8374,8375,8384,8383,8707,8708,8717,8716
205988,8375,8376,8385,8384,8708,8709,8718,8717
205989,8376,8377,8386,8385,8709,8710,8719,8718
205990,8377,8378,8387,8386,8710,8711,8720,8719
205991,8378,8379,8388,8387,8711,8712,8721,8720
205992,8380,8381,8390,8389,8713,8714,8723,8722
205993,8381,8382,8391,8390,8714,8715,8724,8723
205994,8382,8383,8392,8391,8715,8716,8725,8724
205995,8383,8384,8393,8392,8716,8717,8726,8725
205996,8384,8385,8394,8393,8717,8718,8727,8726
205997,8385,8386,8395,8394,8718,8719,8728,8727
205998,8386,8387,8396,8395,8719,8720,8729,8728
205999,8387,8388,8397,8396,8720,8721,8730,8729
206000,8389,8390,8399,8398,8722,8723,8732,8731
206001,8390,8391,8400,8399,8723,8724,8733,8732
206002,8391,8392,8401,8400,8724,8725,8734,8733
206003,8392,8393,8402,8401,8725,8726,8735,8734
206004,8393,8394,8403,8402,8726,8727,8736,8735
206005,8394,8395,8404,8403,8727,8728,8737,8736
206006,8395,8396,8405,8404,8728,8729,8738,8737
206007,8396,8397,8406,8405,8729,8730,8739,8738
206008,8398,8399,8408,8407,8731,8732,8741,8740
206009,8399,8400,8409,8408,8732,8733,8742,8741
206010,8400,8401,8410,8409,8733,8734,8743,8742
206011,8401,8402,8411,8410,8734,8735,8744,8743
206012,8402,8403,8412,8411,8735,8736,8745,8744
206013,8403,8404,8413,8412,8736,8737,8746,8745
206014,8404,8405,8414,8413,8737,8738,8747,8746
206015,8405,8406,8415,8414,8738,8739,8748,8747
206016,8407,8408,8417,8416,8740,8741,8750,8749
206017,8408,8409,8418,8417,8741,8742,8751,8750
206018,8409,8410,8419,8418,8742,8743,8752,8751
206019,8410,8411,8420,8419,8743,8744,8753,8752
206020,8411,8412,8421,8420,8744,8745,8754,8753
206021,8412,8413,8422,8421,8745,8746,8755,8754
206022,8413,8414,8423,8422,8746,8747,8756,8755
206023,8414,8415,8424,8423,8747,8748,8757,8756
206024,8416,8417,8426,8425,8749,8750,8759,8758
206025,8417,8418,8427,8426,8750,8751,8760,8759
206026,8418,8419,8428,8427,8751,8752,8761,8760
206027,8419,8420,8429,8428,8752,8753,8762,8761
206028,8420,8421,8430,8429,8753,8754,8763,8762
206029,8421,8422,8431,8430,8754,8755,8764,8763
206030,8422,8423,8432,8431,8755,8756,8765,8764
206031,8423,8424,8433,8432,8756,8757,8766,8765
206032,8425,8426,8435,8434,8758,8759,8768,8767
206033,8426,8427,8436,8435,8759,8760,8769,8768
206034,8427,8428,8437,8436,8760,8761,8770,8769
206035,8428,8429,8438,8437,8761,8762,8771,8770
206036,8429,8430,8439,8438,8762,8763,8772,8771
206037,8430,8431,8440,8439,8763,8764,8773,8772
206038,8431,8432,8441,8440,8764,8765,8774,8773
206039,8432,8433,8442,8441,8765,8766,8775,8774
206040,8434,8435,8444,8443,8767,8768,8777,8776
206041,8435,8436,8445,8444,8768,8769,8778,8777
206042,8436,8437,8446,8445,8769,8770,8779,8778
206043,8437,8438,8447,8446,8770,8771,8780,8779
206044,8438,8439,8448,8447,8771,8772,8781,8780
206045,8439,8440,8449,8448,8772,8773,8782,8781
206046,8440,8441,8450,8449,8773,8774,8783,8782
206047,8441,8442,8451,8450,8774,8775,8784,8783
206048,8452,8453,8462,8461,8785,8786,8795,8794
206049,8453,8454,8463,8462,8786,8787,8796,8795
206050,8454,8455,8464,8463,8787,8788,8797,8796
206051,8455,8456,8465,8464,8788,8789,8798,8797
206052,8456,8457,8466,8465,8789,8790,8799,8798
206053,8457,8458,8467,8466,8790,8791,8800,8799
206054,8458,8459,8468,8467,8791,8792,8801,8800
206055,8459,8460,8469,8468,8792,8793,8802,8801
206056,8461,8462,8471,8470,8794,8795,8804,8803
206057,8462,8463,8472,8471,8795,8796,8805,8804
206058,8463,8464,8473,8472,8796,8797,8806,8805
206059,8464,8465,8474,8473,8797,8798,8807,8806
206060,8465,8466,8475,8474,8798,8799,8808,8807
206061,8466,8467,8476,8475,8799,8800,8809,8808
206062,8467,8468,8477,8476,8800,8801,8810,8809
206063,8468,8469,8478,8477,8801,8802,8811,8810
206064,8470,8471,8480,8479,8803,8804,8813,8812
206065,8471,8472,8481,8480,8804,8805,8814,8813
206066,8472,8473,8482,8481,8805,8806,8815,8814
206067,8473,8474,8483,8482,8806,8807,8816,8815
206068,8474,8475,8484,8483,8807,8808,8817,8816
206069,8475,8476,8485,8484,8808,8809,8818,8817
206070,8476,8477,8486,8485,8809,8810,8819,8818
206071,8477,8478,8487,8486,8810,8811,8820,8819
206072,8479,8480,8489,8488,8812,8813,8822,8821
206073,8480,8481,8490,8489,8813,8814,8823,8822
206074,8481,8482,8491,8490,8814,8815,8824,8823
206075,8482,8483,8492,8491,8815,8816,8825,8824
206076,8483,8484,8493,8492,8816,8817,8826,8825
206077,8484,8485,8494,8493,8817,8818,8827,8826
206078,8485,8486,8495,8494,8818,8819,8828,8827
206079,8486,8487,8496,8495,8819,8820,8829,8828
206080,8488,8489,8498,8497,8821,8822,8831,8830
206081,8489,8490,8499,8498,8822,8823,8832,8831
206082,8490,8491,8500,8499,8823,8824,8833,8832
206083,8491,8492,8501,8500,8824,8825,8834,8833
206084,8492,8493,8502,8501,8825,8826,8835,8834
206085,8493,8494,8503,8502,8826,8827,8836,8835
206086,8494,8495,8504,8503,8827,8828,8837,8836
206087,8495,8496,8505,8504,8828,8829,8838,8837
206088,8497,8498,8507,8506,8830,8831,8840,8839
206089,8498,8499,8508,8507,8831,8832,8841,8840
206090,8499,8500,8509,8508,8832,8833,8842,8841
206091,8500,8501,8510,8509,8833,8834,8843,8842
206092,8501,8502,8511,8510,8834,8835,8844,8843
206093,8502,8503,8512,8511,8835,8836,8845,8844
206094,8503,8504,8513,8512,8836,8837,8846,8845
206095,8504,8505,8514,8513,8837,8838,8847,8846
206096,8506,8507,8516,8515,8839,8840,8849,8848
206097,8507,8508,8517,8516,8840,8841,8850,8849
206098,8508,8509,8518,8517,8841,8842,8851,8850
206099,8509,8510,8519,8518,8842,8843,8852,8851
206100,8510,8511,8520,8519,8843,8844,8853,8852
206101,8511,8512,8521,8520,8844,8845,8854,8853
206102,8512,8513,8522,8521,8845,8846,8855,8854
206103,8513,8514,8523,8522,8846,8847,8856,8855
206104,8515,8516,8525,8524,8848,8849,8858,8857
206105,8516,8517,8526,8525,8849,8850,8859,8858
206106,8517,8518,8527,8526,8850,8851,8860,8859
206107,8518,8519,8528,8527,8851,8852,8861,8860
206108,8519,8520,8529,8528,8852,8853,8862,8861
206109,8520,8521,8530,8529,8853,8854,8863,8862
206110,8521,8522,8531,8530,8854,8855,8864,8863
206111,8522,8523,8532,8531,8855,8856,8865,8864
206112,8524,8525,8534,8533,8857,8858,8867,8866
206113,8525,8526,8535,8534,8858,8859,8868,8867
206114,8526,8527,8536,8535,8859,8860,8869,8868
206115,8527,8528,8537,8536,8860,8861,8870,8869
206116,8528,8529,8538,8537,8861,8862,8871,8870
206117,8529,8530,8539,8538,8862,8863,8872,8871
206118,8530,8531,8540,8539,8863,8864,8873,8872
206119,8531,8532,8541,8540,8864,8865,8874,8873
206120,8533,8534,8543,8542,8866,8867,8876,8875
206121,8534,8535,8544,8543,8867,8868,8877,8876
206122,8535,8536,8545,8544,8868,8869,8878,8877
206123,8536,8537,8546,8545,8869,8870,8879,8878
206124,8537,8538,8547,8546,8870,8871,8880,8879
206125,8538,8539,8548,8547,8871,8872,8881,8880
206126,8539,8540,8549,8548,8872,8873,8882,8881
206127,8540,8541,8550,8549,8873,8874,8883,8882
206128,8542,8543,8552,8551,8875,8876,8885,8884
206129,8543,8544,8553,8552,8876,8877,8886,8885
206130,8544,8545,8554,8553,8877,8878,8887,8886
206131,8545,8546,8555,8554,8878,8879,8888,8887
206132,8546,8547,8556,8555,8879,8880,8889,8888
206133,8547,8548,8557,8556,8880,8881,8890,8889
206134,8548,8549,8558,8557,8881,8882,8891,8890
206135,8549,8550,8559,8558,8882,8883,8892,8891
206136,8551,8552,8561,8560,8884,8885,8894,8893
206137,8552,8553,8562,8561,8885,8886,8895,8894
206138,8553,8554,8563,8562,8886,8887,8896,8895
206139,8554,8555,8564,8563,8887,8888,8897,8896
206140,8555,8556,8565,8564,8888,8889,8898,8897
206141,8556,8557,8566,8565,8889,8890,8899,8898
206142,8557,8558,8567,8566,8890,8891,8900,8899
206143,8558,8559,8568,8567,8891,8892,8901,8900
206144,8560,8561,8570,8569,8893,8894,8903,8902
206145,8561,8562,8571,8570,8894,8895,8904,8903
206146,8562,8563,8572,8571,8895,8896,8905,8904
206147,8563,8564,8573,8572,8896,8897,8906,8905
206148,8564,8565,8574,8573,8897,8898,8907,8906
206149,8565,8566,8575,8574,8898,8899,8908,8907
206150,8566,8567,8576,8575,8899,8900,8909,8908
206151,8567,8568,8577,8576,8900,8901,8910,8909
206152,8569,8570,8579,8578,8902,8903,8912,8911
206153,8570,8571,8580,8579,8903,8904,8913,8912
206154,8571,8572,8581,8580,8904,8905,8914,8913
206155,8572,8573,8582,8581,8905,8906,8915,8914
206156,8573,8574,8583,8582,8906,8907,8916,8915
206157,8574,8575,8584,8583,8907,8908,8917,8916
206158,8575,8576,8585,8584,8908,8909,8918,8917
206159,8576,8577,8586,8585,8909,8910,8919,8918
206160,8578,8579,8588,8587,8911,8912,8921,8920
206161,8579,8580,8589,8588,8912,8913,8922,8921
206162,8580,8581,8590,8589,8913,8914,8923,8922
206163,8581,8582,8591,8590,8914,8915,8924,8923
206164,8582,8583,8592,8591,8915,8916,8925,8924
206165,8583,8584,8593,8592,8916,8917,8926,8925
206166,8584,8585,8594,8593,8917,8918,8927,8926
206167,8585,8586,8595,8594,8918,8919,8928,8927
206168,8587,8588,8597,8596,8920,8921,8930,8929
206169,8588,8589,8598,8597,8921,8922,8931,8930
206170,8589,8590,8599,8598,8922,8923,8932,8931
206171,8590,8591,8600,8599,8923,8924,8933,8932
206172,8591,8592,8601,8600,8924,8925,8934,8933
206173,8592,8593,8602,8601,8925,8926,8935,8934
206174,8593,8594,8603,8602,8926,8927,8936,8935
206175,8594,8595,8604,8603,8927,8928,8937,8936
206176,8596,8597,8606,8605,8929,8930,8939,8938
206177,8597,8598,8607,8606,8930,8931,8940,8939
206178,8598,8599,8608,8607,8931,8932,8941,8940
206179,8599,8600,8609,8608,8932,8933,8942,8941
206180,8600,8601,8610,8609,8933,8934,8943,8942
206181,8601,8602,8611,8610,8934,8935,8944,8943
206182,8602,8603,8612,8611,8935,8936,8945,8944
206183,8603,8604,8613,8612,8936,8937,8946,8945
206184,8605,8606,8615,8614,8938,8939,8948,8947
206185,8606,8607,8616,8615,8939,8940,8949,8948
206186,8607,8608,8617,8616,8940,8941,8950,8949
206187,8608,8609,8618,8617,8941,8942,8951,8950
206188,8609,8610,8619,8618,8942,8943,8952,8951
206189,8610,8611,8620,8619,8943,8944,8953,8952
206190,8611,8612,8621,8620,8944,8945,8954,8953
206191,8612,8613,8622,8621,8945,8946,8955,8954
206192,8614,8615,8624,8623,8947,8948,8957,8956
206193,8615,8616,8625,8624,8948,8949,8958,8957
206194,8616,8617,8626,8625,8949,8950,8959,8958
206195,8617,8618,8627,8626,8950,8951,8960,8959
206196,8618,8619,8628,8627,8951,8952,8961,8960
206197,8619,8620,8629,8628,8952,8953,8962,8961
206198,8620,8621,8630,8629,8953,8954,8963,8962
206199,8621,8622,8631,8630,8954,8955,8964,8963
206200,8623,8624,8633,8632,8956,8957,8966,8965
206201,8624,8625,8634,8633,8957,8958,8967,8966
206202,8625,8626,8635,8634,8958,8959,8968,8967
206203,8626,8627,8636,8635,8959,8960,8969,8968
206204,8627,8628,8637,8636,8960,8961,8970,8969
206205,8628,8629,8638,8637,8961,8962,8971,8970
206206,8629,8630,8639,8638,8962,8963,8972,8971
206207,8630,8631,8640,8639,8963,8964,8973,8972
206208,8632,8633,8642,8641,8965,8966,8975,8974
206209,8633,8634,8643,8642,8966,8967,8976,8975
206210,8634,8635,8644,8643,8967,8968,8977,8976
206211,8635,8636,8645,8644,8968,8969,8978,8977
206212,8636,8637,8646,8645,8969,8970,8979,8978
206213,8637,8638,8647,8646,8970,8971,8980,8979
206214,8638,8639,8648,8647,8971,8972,8981,8980
206215,8639,8640,8649,8648,8972,8973,8982,8981
206216,8641,8642,8651,8650,8974,8975,8984,8983
206217,8642,8643,8652,8651,8975,8976,8985,8984
206218,8643,8644,8653,8652,8976,8977,8986,8985
206219,8644,8645,8654,8653,8977,8978,8987,8986
206220,8645,8646,8655,8654,8978,8979,8988,8987
206221,8646,8647,8656,8655,8979,8980,8989,8988
206222,8647,8648,8657,8656,8980,8981,8990,8989
206223,8648,8649,8658,8657,8981,8982,8991,8990
206224,8650,8651,8660,8659,8983,8984,8993,8992
206225,8651,8652,8661,8660,8984,8985,8994,8993
206226,8652,8653,8662,8661,8985,8986,8995,8994
206227,8653,8654,8663,8662,8986,8987,8996,8995
206228,8654,8655,8664,8663,8987,8988,8997,8996
206229,8655,8656,8665,8664,8988,8989,8998,8997
206230,8656,8657,8666,8665,8989,8990,8999,8998
206231,8657,8658,8667,8666,8990,8991,9000,8999
206232,8659,8660,8669,8668,8992,8993,9002,9001
206233,8660,8661,8670,8669,8993,8994,9003,9002
206234,8661,8662,8671,8670,8994,8995,9004,9003
206235,8662,8663,8672,8671,8995,8996,9005,9004
206236,8663,8664,8673,8672,8996,8997,9006,9005
206237,8664,8665,8674,8673,8997,8998,9007,9006
206238,8665,8666,8675,8674,8998,8999,9008,9007
206239,8666,8667,8676,8675,8999,9000,9009,9008
206240,8668,8669,8678,8677,9001,9002,9011,9010
206241,8669,8670,8679,8678,9002,9003,9012,9011
206242,8670,8671,8680,8679,9003,9004,9013,9012
206243,8671,8672,8681,8680,9004,9005,9014,9013
206244,8672,8673,8682,8681,9005,9006,9015,9014
206245,8673,8674,8683,8682,9006,9007,9016,9015
206246,8674,8675,8684,8683,9007,9008,9017,9016
206247,8675,8676,8685,8684,9008,9009,9018,9017
206248,8677,8678,8687,8686,9010,9011,9020,9019
206249,8678,8679,8688,8687,9011,9012,9021,9020
206250,8679,8680,8689,8688,9012,9013,9022,9021
206251,8680,8681,8690,8689,9013,9014,9023,9022
206252,8681,8682,8691,8690,9014,9015,9024,9023
206253,8682,8683,8692,8691,9015,9016,9025,9024
206254,8683,8684,8693,8692,9016,9017,9026,9025
206255,8684,8685,8694,8693,9017,9018,9027,9026
206256,8686,8687,8696,8695,9019,9020,9029,9028
206257,8687,8688,8697,8696,9020,9021,9030,9029
206258,8688,8689,8698,8697,9021,9022,9031,9030
206259,8689,8690,8699,8698,9022,9023,9032,9031
206260,8690,8691,8700,8699,9023,9024,9033,9032
206261,8691,8692,8701,8700,9024,9025,9034,9033
206262,8692,8693,8702,8701,9025,9026,9035,9034
206263,8693,8694,8703,8702,9026,9027,9036,9035
206264,8695,8696,8705,8704,9028,9029,9038,9037
206265,8696,8697,8706,8705,9029,9030,9039,9038
206266,8697,8698,8707,8706,9030,9031,9040,9039
206267,8698,8699,8708,8707,9031,9032,9041,9040
206268,8699,8700,8709,8708,9032,9033,9042,9041
206269,8700,8701,8710,8709,9033,9034,9043,9042
206270,8701,8702,8711,8710,9034,9035,9044,9043
206271,8702,8703,8712,8711,9035,9036,9045,9044
206272,8704,8705,8714,8713,9037,9038,9047,9046
206273,8705,8706,8715,8714,9038,9039,9048,9047
206274,8706,8707,8716,8715,9039,9040,9049,9048
206275,8707,8708,8717,8716,9040,9041,9050,9049
206276,8708,8709,8718,8717,9041,9042,9051,9050
206277,8709,8710,8719,8718,9042,9043,9052,9051
206278,8710,8711,8720,8719,9043,9044,9053,9052
206279,8711,8712,8721,8720,9044,9045,9054,9053
206280,8713,8714,8723,8722,9046,9047,9056,9055
206281,8714,8715,8724,8723,9047,9048,9057,9056
206282,8715,8716,8725,8724,9048,9049,9058,9057
206283,8716,8717,8726,8725,9049,9050,9059,9058
206284,8717,8718,8727,8726,9050,9051,9060,9059
206285,8718,8719,8728,8727,9051,9052,9061,9060
206286,8719,8720,8729,8728,9052,9053,9062,9061
206287,8720,8721,8730,8729,9053,9054,9063,9062
206288,8722,8723,8732,8731,9055,9056,9065,9064
206289,8723,8724,8733,8732,9056,9057,9066,9065
206290,8724,8725,8734,8733,9057,9058,9067,9066
206291,8725,8726,8735,8734,9058,9059,9068,9067
206292,8726,8727,8736,8735,9059,9060,9069,9068
206293,8727,8728,8737,8736,9060,9061,9070,9069
206294,8728,8729,8738,8737,9061,9062,9071,9070
206295,8729,8730,8739,8738,9062,9063,9072,9071
206296,8731,8732,8741,8740,9064,9065,9074,9073
206297,8732,8733,8742,8741,9065,9066,9075,9074
206298,8733,8734,8743,8742,9066,9067,9076,9075
206299,8734,8735,8744,8743,9067,9068,9077,9076
206300,8735,8736,8745,8744,9068,9069,9078,9077
206301,8736,8737,8746,8745,9069,9070,9079,9078
206302,8737,8738,8747,8746,9070,9071,9080,9079
206303,8738,8739,8748,8747,9071,9072,9081,9080
206304,8740,8741,8750,8749,9073,9074,9083,9082
206305,8741,8742,8751,8750,9074,9075,9084,9083
206306,8742,8743,8752,8751,9075,9076,9085,9084
206307,8743,8744,8753,8752,9076,9077,9086,9085
206308,8744,8745,8754,8753,9077,9078,9087,9086
206309,8745,8746,8755,8754,9078,9079,9088,9087
206310,8746,8747,8756,8755,9079,9080,9089,9088
206311,8747,8748,8757,8756,9080,9081,9090,9089
206312,8749,8750,8759,8758,9082,9083,9092,9091
206313,8750,8751,8760,8759,9083,9084,9093,9092
206314,8751,8752,8761,8760,9084,9085,9094,9093
206315,8752,8753,8762,8761,9085,9086,9095,9094
206316,8753,8754,8763,8762,9086,9087,9096,9095
206317,8754,8755,8764,8763,9087,9088,9097,9096
206318,8755,8756,8765,8764,9088,9089,9098,9097
206319,8756,8757,8766,8765,9089,9090,9099,9098
206320,8758,8759,8768,8767,9091,9092,9101,9100
206321,8759,8760,8769,8768,9092,9093,9102,9101
206322,8760,8761,8770,8769,9093,9094,9103,9102
206323,8761,8762,8771,8770,9094,9095,9104,9103
206324,8762,8763,8772,8771,9095,9096,9105,9104
206325,8763,8764,8773,8772,9096,9097,9106,9105
206326,8764,8765,8774,8773,9097,9098,9107,9106
206327,8765,8766,8775,8774,9098,9099,9108,9107
206328,8767,8768,8777,8776,9100,9101,9110,9109
206329,8768,8769,8778,8777,9101,9102,9111,9110
206330,8769,8770,8779,8778,9102,9103,9112,9111
206331,8770,8771,8780,8779,9103,9104,9113,9112
206332,8771,8772,8781,8780,9104,9105,9114,9113
206333,8772,8773,8782,8781,9105,9106,9115,9114
206334,8773,8774,8783,8782,9106,9107,9116,9115
206335,8774,8775,8784,8783,9107,9108,9117,9116
206336,8785,8786,8795,8794,9118,9119,9128,9127
206337,8786,8787,8796,8795,9119,9120,9129,9128
206338,8787,8788,8797,8796,9120,9121,9130,9129
206339,8788,8789,8798,8797,9121,9122,9131,9130
206340,8789,8790,8799,8798,9122,9123,9132,9131
206341,8790,8791,8800,8799,9123,9124,9133,9132
206342,8791,8792,8801,8800,9124,9125,9134,9133
206343,8792,8793,8802,8801,9125,9126,9135,9134
206344,8794,8795,8804,8803,9127,9128,9137,9136
206345,8795,8796,8805,8804,9128,9129,9138,9137
206346,8796,8797,8806,8805,9129,9130,9139,9138
206347,8797,8798,8807,8806,9130,9131,9140,9139
206348,8798,8799,8808,8807,9131,9132,9141,9140
206349,8799,8800,8809,8808,9132,9133,9142,9141
206350,8800,8801,8810,8809,9133,9134,9143,9142
206351,8801,8802,8811,8810,9134,9135,9144,9143
206352,8803,8804,8813,8812,9136,9137,9146,9145
206353,8804,8805,8814,8813,9137,9138,9147,9146
206354,8805,8806,8815,8814,9138,9139,9148,9147
206355,8806,8807,8816,8815,9139,9140,9149,9148
206356,8807,8808,8817,8816,9140,9141,9150,9149
206357,8808,8809,8818,8817,9141,9142,9151,9150
206358,8809,8810,8819,8818,9142,9143,9152,9151
206359,8810,8811,8820,8819,9143,9144,9153,9152
206360,8812,8813,8822,8821,9145,9146,9155,9154
206361,8813,8814,8823,8822,9146,9147,9156,9155
206362,8814,8815,8824,8823,9147,9148,9157,9156
206363,8815,8816,8825,8824,9148,9149,9158,9157
206364,8816,8817,8826,8825,9149,9150,9159,9158
206365,8817,8818,8827,8826,9150,9151,9160,9159
206366,8818,8819,8828,8827,9151,9152,9161,9160
206367,8819,8820,8829,8828,9152,9153,9162,9161
206368,8821,8822,8831,8830,9154,9155,9164,9163
206369,8822,8823,8832,8831,9155,9156,9165,9164
206370,8823,8824,8833,8832,9156,9157,9166,9165
206371,8824,8825,8834,8833,9157,9158,9167,9166
206372,8825,8826,8835,8834,9158,9159,9168,9167
206373,8826,8827,8836,8835,9159,9160,9169,9168
206374,8827,8828,8837,8836,9160,9161,9170,9169
206375,8828,8829,8838,8837,9161,9162,9171,9170
206376,8830,8831,8840,8839,9163,9164,9173,9172
206377,8831,8832,8841,8840,9164,9165,9174,9173
206378,8832,8833,8842,8841,9165,9166,9175,9174
206379,8833,8834,8843,8842,9166,9167,9176,9175
206380,8834,8835,8844,8843,9167,9168,9177,9176
206381,8835,8836,8845,8844,9168,9169,9178,9177
206382,8836,8837,8846,8845,9169,9170,9179,9178
206383,8837,8838,8847,8846,9170,9171,9180,9179
206384,8839,8840,8849,8848,9172,9173,9182,9181
206385,8840,8841,8850,8849,9173,9174,9183,9182
206386,8841,8842,8851,8850,9174,9175,9184,9183
206387,8842,8843,8852,8851,9175,9176,9185,9184
206388,8843,8844,8853,8852,9176,9177,9186,9185
206389,8844,8845,8854,8853,9177,9178,9187,9186
206390,8845,8846,8855,8854,9178,9179,9188,9187
206391,8846,8847,8856,8855,9179,9180,9189,9188
206392,8848,8849,8858,8857,9181,9182,9191,9190
206393,8849,8850,8859,8858,9182,9183,9192,9191
206394,8850,8851,8860,8859,9183,9184,9193,9192
206395,8851,8852,8861,8860,9184,9185,9194,9193
206396,8852,8853,8862,8861,9185,9186,9195,9194
206397,8853,8854,8863,8862,9186,9187,9196,9195
206398,8854,8855,8864,8863,9187,9188,9197,9196
206399,8855,8856,8865,8864,9188,9189,9198,9197
206400,8857,8858,8867,8866,9190,9191,9200,9199
206401,8858,8859,8868,8867,9191,9192,9201,9200
206402,8859,8860,8869,8868,9192,9193,9202,9201
206403,8860,8861,8870,8869,9193,9194,9203,9202
206404,8861,8862,8871,8870,9194,9195,9204,9203
206405,8862,8863,8872,8871,9195,9196,9205,9204
206406,8863,8864,8873,8872,9196,9197,9206,9205
206407,8864,8865,8874,8873,9197,9198,9207,9206
206408,8866,8867,8876,8875,9199,9200,9209,9208
206409,8867,8868,8877,8876,9200,9201,9210,9209
206410,8868,8869,8878,8877,9201,9202,9211,9210
206411,8869,8870,8879,8878,9202,9203,9212,9211
206412,8870,8871,8880,8879,9203,9204,9213,9212
206413,8871,8872,8881,8880,9204,9205,9214,9213
206414,8872,8873,8882,8881,9205,9206,9215,9214
206415,8873,8874,8883,8882,9206,9207,9216,9215
206416,8875,8876,8885,8884,9208,9209,9218,9217
206417,8876,8877,8886,8885,9209,9210,9219,9218
206418,8877,8878,8887,8886,9210,9211,9220,9219
206419,8878,8879,8888,8887,9211,9212,9221,9220
206420,8879,8880,8889,8888,9212,9213,9222,9221
206421,8880,8881,8890,8889,9213,9214,9223,9222
206422,8881,8882,8891,8890,9214,9215,9224,9223
206423,8882,8883,8892,8891,9215,9216,9225,9224
206424,8884,8885,8894,8893,9217,9218,9227,9226
206425,8885,8886,8895,8894,9218,9219,9228,9227
206426,8886,8887,8896,8895,9219,9220,9229,9228
206427,8887,8888,8897,8896,9220,9221,9230,9229
206428,8888,8889,8898,8897,9221,9222,9231,9230
206429,8889,8890,8899,8898,9222,9223,9232,9231
206430,8890,8891,8900,8899,9223,9224,9233,9232
206431,8891,8892,8901,8900,9224,9225,9234,9233
206432,8893,8894,8903,8902,9226,9227,9236,9235
206433,8894,8895,8904,8903,9227,9228,9237,9236
206434,8895,8896,8905,8904,9228,9229,9238,9237
206435,8896,8897,8906,8905,9229,9230,9239,9238
206436,8897,8898,8907,8906,9230,9231,9240,9239
206437,8898,8899,8908,8907,9231,9232,9241,9240
206438,8899,8900,8909,8908,9232,9233,9242,9241
206439,8900,8901,8910,8909,9233,9234,9243,9242
206440,8902,8903,8912,8911,9235,9236,9245,9244
206441,8903,8904,8913,8912,9236,9237,9246,9245
206442,8904,8905,8914,8913,9237,9238,9247,9246
206443,8905,8906,8915,8914,9238,9239,9248,9247
206444,8906,8907,8916,8915,9239,9240,9249,9248
206445,8907,8908,8917,8916,9240,9241,9250,9249
206446,8908,8909,8918,8917,9241,9242,9251,9250
206447,8909,8910,8919,8918,9242,9243,9252,9251
206448,8911,8912,8921,8920,9244,9245,9254,9253
206449,8912,8913,8922,8921,9245,9246,9255,9254
206450,8913,8914,8923,8922,9246,9247,9256,9255
206451,8914,8915,8924,8923,9247,9248,9257,9256
206452,8915,8916,8925,8924,9248,9249,9258,9257
206453,8916,8917,8926,8925,9249,9250,9259,9258
206454,8917,8918,8927,8926,9250,9251,9260,9259
206455,8918,8919,8928,8927,9251,9252,9261,9260
206456,8920,8921,8930,8929,9253,9254,9263,9262
206457,8921,8922,8931,8930,9254,9255,9264,9263
206458,8922,8923,8932,8931,9255,9256,9265,9264
206459,8923,8924,8933,8932,9256,9257,9266,9265
206460,8924,8925,8934,8933,9257,9258,9267,9266
206461,8925,8926,8935,8934,9258,9259,9268,9267
206462,8926,8927,8936,8935,9259,9260,9269,9268
206463,8927,8928,8937,8936,9260,9261,9270,9269
206464,8929,8930,8939,8938,9262,9263,9272,9271
206465,8930,8931,8940,8939,9263,9264,9273,9272
206466,8931,8932,8941,8940,9264,9265,9274,9273
206467,8932,8933,8942,8941,9265,9266,9275,9274
206468,8933,8934,8943,8942,9266,9267,9276,9275
206469,8934,8935,8944,8943,9267,9268,9277,9276
206470,8935,8936,8945,8944,9268,9269,9278,9277
206471,8936,8937,8946,8945,9269,9270,9279,9278
206472,8938,8939,8948,8947,9271,9272,9281,9280
206473,8939,8940,8949,8948,9272,9273,9282,9281
206474,8940,8941,8950,8949,9273,9274,9283,9282
206475,8941,8942,8951,8950,9274,9275,9284,9283
206476,8942,8943,8952,8951,9275,9276,9285,9284
206477,8943,8944,8953,8952,9276,9277,9286,9285
206478,8944,8945,8954,8953,9277,9278,9287,9286
206479,8945,8946,8955,8954,9278,9279,9288,9287
206480,8947,8948,8957,8956,9280,9281,9290,9289
206481,8948,8949,8958,8957,9281,9282,9291,9290
206482,8949,8950,8959,8958,9282,9283,9292,9291
206483,8950,8951,8960,8959,9283,9284,9293,9292
206484,8951,8952,8961,8960,9284,9285,9294,9293
206485,8952,8953,8962,8961,9285,9286,9295,9294
206486,8953,8954,8963,8962,9286,9287,9296,9295
206487,8954,8955,8964,8963,9287,9288,9297,9296
206488,8956,8957,8966,8965,9289,9290,9299,9298
206489,8957,8958,8967,8966,9290,9291,9300,9299
206490,8958,8959,8968,8967,9291,9292,9301,9300
206491,8959,8960,8969,8968,9292,9293,9302,9301
206492,8960,8961,8970,8969,9293,9294,9303,9302
206493,8961,8962,8971,8970,9294,9295,9304,9303
206494,8962,8963,8972,8971,9295,9296,9305,9304
206495,8963,8964,8973,8972,9296,9297,9306,9305
206496,8965,8966,8975,8974,9298,9299,9308,9307
206497,8966,8967,8976,8975,9299,9300,9309,9308
206498,8967,8968,8977,8976,9300,9301,9310,9309
206499,8968,8969,8978,8977,9301,9302,9311,9310
206500,8969,8970,8979,8978,9302,9303,9312,9311
206501,8970,8971,8980,8979,9303,9304,9313,9312
206502,8971,8972,8981,8980,9304,9305,9314,9313
206503,8972,8973,8982,8981,9305,9306,9315,9314
206504,8974,8975,8984,8983,9307,9308,9317,9316
206505,8975,8976,8985,8984,9308,9309,9318,9317
206506,8976,8977,8986,8985,9309,9310,9319,9318
206507,8977,8978,8987,8986,9310,9311,9320,9319
206508,8978,8979,8988,8987,9311,9312,9321,9320
206509,8979,8980,8989,8988,9312,9313,9322,9321
206510,8980,8981,8990,8989,9313,9314,9323,9322
206511,8981,8982,8991,8990,9314,9315,9324,9323
206512,8983,8984,8993,8992,9316,9317,9326,9325
206513,8984,8985,8994,8993,9317,9318,9327,9326
206514,8985,8986,8995,8994,9318,9319,9328,9327
206515,8986,8987,8996,8995,9319,9320,9329,9328
206516,8987,8988,8997,8996,9320,9321,9330,9329
206517,8988,8989,8998,8997,9321,9322,9331,9330
206518,8989,8990,8999,8998,9322,9323,9332,9331
206519,8990,8991,9000,8999,9323,9324,9333,9332
206520,8992,8993,9002,9001,9325,9326,9335,9334
206521,8993,8994,9003,9002,9326,9327,9336,9335
206522,8994,8995,9004,9003,9327,9328,9337,9336
206523,8995,8996,9005,9004,9328,9329,9338,9337
206524,8996,8997,9006,9005,9329,9330,9339,9338
206525,8997,8998,9007,9006,9330,9331,9340,9339
206526,8998,8999,9008,9007,9331,9332,9341,9340
206527,8999,9000,9009,9008,9332,9333,9342,9341
206528,9001,9002,9011,9010,9334,9335,9344,9343
206529,9002,9003,9012,9011,9335,9336,9345,9344
206530,9003,9004,9013,9012,9336,9337,9346,9345
206531,9004,9005,9014,9013,9337,9338,9347,9346
206532,9005,9006,9015,9014,9338,9339,9348,9347
206533,9006,9007,9016,9015,9339,9340,9349,9348
206534,9007,9008,9017,9016,9340,9341,9350,9349
206535,9008,9009,9018,9017,9341,9342,9351,9350
206536,9010,9011,9020,9019,9343,9344,9353,9352
206537,9011,9012,9021,9020,9344,9345,9354,9353
206538,9012,9013,9022,9021,9345,9346,9355,9354
206539,9013,9014,9023,9022,9346,9347,9356,9355
206540,9014,9015,9024,9023,9347,9348,9357,9356
206541,9015,9016,9025,9024,9348,9349,9358,9357
206542,9016,9017,9026,9025,9349,9350,9359,9358
206543,9017,9018,9027,9026,9350,9351,9360,9359
206544,9019,9020,9029,9028,9352,9353,9362,9361
206545,9020,9021,9030,9029,9353,9354,9363,9362
206546,9021,9022,9031,9030,9354,9355,9364,9363
206547,9022,9023,9032,9031,9355,9356,9365,9364
206548,9023,9024,9033,9032,9356,9357,9366,9365
206549,9024,9025,9034,9033,9357,9358,9367,9366
206550,9025,9026,9035,9034,9358,9359,9368,9367
206551,9026,9027,9036,9035,9359,9360,9369,9368
206552,9028,9029,9038,9037,9361,9362,9371,9370
206553,9029,9030,9039,9038,9362,9363,9372,9371
206554,9030,9031,9040,9039,9363,9364,9373,9372
206555,9031,9032,9041,9040,9364,9365,9374,9373
206556,9032,9033,9042,9041,9365,9366,9375,9374
206557,9033,9034,9043,9042,9366,9367,9376,9375
206558,9034,9035,9044,9043,9367,9368,9377,9376
206559,9035,9036,9045,9044,9368,9369,9378,9377
206560,9037,9038,9047,9046,9370,9371,9380,9379
206561,9038,9039,9048,9047,9371,9372,9381,9380
206562,9039,9040,9049,9048,9372,9373,9382,9381
206563,9040,9041,9050,9049,9373,9374,9383,9382
206564,9041,9042,9051,9050,9374,9375,9384,9383
206565,9042,9043,9052,9051,9375,9376,9385,9384
206566,9043,9044,9053,9052,9376,9377,9386,9385
206567,9044,9045,9054,9053,9377,9378,9387,9386
206568,9046,9047,9056,9055,9379,9380,9389,9388
206569,9047,9048,9057,9056,9380,9381,9390,9389
206570,9048,9049,9058,9057,9381,9382,9391,9390
206571,9049,9050,9059,9058,9382,9383,9392,9391
206572,9050,9051,9060,9059,9383,9384,9393,9392
206573,9051,9052,9061,9060,9384,9385,9394,9393
206574,9052,9053,9062,9061,9385,9386,9395,9394
206575,9053,9054,9063,9062,9386,9387,9396,9395
206576,9055,9056,9065,9064,9388,9389,9398,9397
206577,9056,9057,9066,9065,9389,9390,9399,9398
206578,9057,9058,9067,9066,9390,9391,9400,9399
206579,9058,9059,9068,9067,9391,9392,9401,9400
206580,9059,9060,9069,9068,9392,9393,9402,9401
206581,9060,9061,9070,9069,9393,9394,9403,9402
206582,9061,9062,9071,9070,9394,9395,9404,9403
206583,9062,9063,9072,9071,9395,9396,9405,9404
206584,9064,9065,9074,9073,9397,9398,9407,9406
206585,9065,9066,9075,9074,9398,9399,9408,9407
206586,9066,9067,9076,9075,9399,9400,9409,9408
206587,9067,9068,9077,9076,9400,9401,9410,9409
206588,9068,9069,9078,9077,9401,9402,9411,9410
206589,9069,9070,9079,9078,9402,9403,9412,9411
206590,9070,9071,9080,9079,9403,9404,9413,9412
206591,9071,9072,9081,9080,9404,9405,9414,9413
206592,9073,9074,9083,9082,9406,9407,9416,9415
206593,9074,9075,9084,9083,9407,9408,9417,9416
206594,9075,9076,9085,9084,9408,9409,9418,9417
206595,9076,9077,9086,9085,9409,9410,9419,9418
206596,9077,9078,9087,9086,9410,9411,9420,9419
206597,9078,9079,9088,9087,9411,9412,9421,9420
206598,9079,9080,9089,9088,9412,9413,9422,9421
206599,9080,9081,9090,9089,9413,9414,9423,9422
206600,9082,9083,9092,9091,9415,9416,9425,9424
206601,9083,9084,9093,9092,9416,9417,9426,9425
206602,9084,9085,9094,9093,9417,9418,9427,9426
206603,9085,9086,9095,9094,9418,9419,9428,9427
206604,9086,9087,9096,9095,9419,9420,9429,9428
206605,9087,9088,9097,9096,9420,9421,9430,9429
206606,9088,9089,9098,9097,9421,9422,9431,9430
206607,9089,9090,9099,9098,9422,9423,9432,9431
206608,9091,9092,9101,9100,9424,9425,9434,9433
206609,9092,9093,9102,9101,9425,9426,9435,9434
206610,9093,9094,9103,9102,9426,9427,9436,9435
206611,9094,9095,9104,9103,9427,9428,9437,9436
206612,9095,9096,9105,9104,9428,9429,9438,9437
206613,9096,9097,9106,9105,9429,9430,9439,9438
206614,9097,9098,9107,9106,9430,9431,9440,9439
206615,9098,9099,9108,9107,9431,9432,9441,9440
206616,9100,9101,9110,9109,9433,9434,9443,9442
206617,9101,9102,9111,9110,9434,9435,9444,9443
206618,9102,9103,9112,9111,9435,9436,9445,9444
206619,9103,9104,9113,9112,9436,9437,9446,9445
206620,9104,9105,9114,9113,9437,9438,9447,9446
206621,9105,9106,9115,9114,9438,9439,9448,9447
206622,9106,9107,9116,9115,9439,9440,9449,9448
206623,9107,9108,9117,9116,9440,9441,9450,9449
206624,9118,9119,9128,9127,9451,9452,9461,9460
206625,9119,9120,9129,9128,9452,9453,9462,9461
206626,9120,9121,9130,9129,9453,9454,9463,9462
206627,9121,9122,9131,9130,9454,9455,9464,9463
206628,9122,9123,9132,9131,9455,9456,9465,9464
206629,9123,9124,9133,9132,9456,9457,9466,9465
206630,9124,9125,9134,9133,9457,9458,9467,9466
206631,9125,9126,9135,9134,9458,9459,9468,9467
206632,9127,9128,9137,9136,9460,9461,9470,9469
206633,9128,9129,9138,9137,9461,9462,9471,9470
206634,9129,9130,9139,9138,9462,9463,9472,9471
206635,9130,9131,9140,9139,9463,9464,9473,9472
206636,9131,9132,9141,9140,9464,9465,9474,9473
206637,9132,9133,9142,9141,9465,9466,9475,9474
206638,9133,9134,9143,9142,9466,9467,9476,9475
206639,9134,9135,9144,9143,9467,9468,9477,9476
206640,9136,9137,9146,9145,9469,9470,9479,9478
206641,9137,9138,9147,9146,9470,9471,9480,9479
206642,9138,9139,9148,9147,9471,9472,9481,9480
206643,9139,9140,9149,9148,9472,9473,9482,9481
206644,9140,9141,9150,9149,9473,9474,9483,9482
206645,9141,9142,9151,9150,9474,9475,9484,9483
206646,9142,9143,9152,9151,9475,9476,9485,9484
206647,9143,9144,9153,9152,9476,9477,9486,9485
206648,9145,9146,9155,9154,9478,9479,9488,9487
206649,9146,9147,9156,9155,9479,9480,9489,9488
206650,9147,9148,9157,9156,9480,9481,9490,9489
206651,9148,9149,9158,9157,9481,9482,9491,9490
206652,9149,9150,9159,9158,9482,9483,9492,9491
206653,9150,9151,9160,9159,9483,9484,9493,9492
206654,9151,9152,9161,9160,9484,9485,9494,9493
206655,9152,9153,9162,9161,9485,9486,9495,9494
206656,9154,9155,9164,9163,9487,9488,9497,9496
206657,9155,9156,9165,9164,9488,9489,9498,9497
206658,9156,9157,9166,9165,9489,9490,9499,9498
206659,9157,9158,9167,9166,9490,9491,9500,9499
206660,9158,9159,9168,9167,9491,9492,9501,9500
206661,9159,9160,9169,9168,9492,9493,9502,9501
206662,9160,9161,9170,9169,9493,9494,9503,9502
206663,9161,9162,9171,9170,9494,9495,9504,9503
206664,9163,9164,9173,9172,9496,9497,9506,9505
206665,9164,9165,9174,9173,9497,9498,9507,9506
206666,9165,9166,9175,9174,9498,9499,9508,9507
206667,9166,9167,9176,9175,9499,9500,9509,9508
206668,9167,9168,9177,9176,9500,9501,9510,9509
206669,9168,9169,9178,9177,9501,9502,9511,9510
206670,9169,9170,9179,9178,9502,9503,9512,9511
206671,9170,9171,9180,9179,9503,9504,9513,9512
206672,9172,9173,9182,9181,9505,9506,9515,9514
206673,9173,9174,9183,9182,9506,9507,9516,9515
206674,9174,9175,9184,9183,9507,9508,9517,9516
206675,9175,9176,9185,9184,9508,9509,9518,9517
206676,9176,9177,9186,9185,9509,9510,9519,9518
206677,9177,9178,9187,9186,9510,9511,9520,9519
206678,9178,9179,9188,9187,9511,9512,9521,9520
206679,9179,9180,9189,9188,9512,9513,9522,9521
206680,9181,9182,9191,9190,9514,9515,9524,9523
206681,9182,9183,9192,9191,9515,9516,9525,9524
206682,9183,9184,9193,9192,9516,9517,9526,9525
206683,9184,9185,9194,9193,9517,9518,9527,9526
206684,9185,9186,9195,9194,9518,9519,9528,9527
206685,9186,9187,9196,9195,9519,9520,9529,9528
206686,9187,9188,9197,9196,9520,9521,9530,9529
206687,9188,9189,9198,9197,9521,9522,9531,9530
206688,9190,9191,9200,9199,9523,9524,9533,9532
206689,9191,9192,9201,9200,9524,9525,9534,9533
206690,9192,9193,9202,9201,9525,9526,9535,9534
206691,9193,9194,9203,9202,9526,9527,9536,9535
206692,9194,9195,9204,9203,9527,9528,9537,9536
206693,9195,9196,9205,9204,9528,9529,9538,9537
206694,9196,9197,9206,9205,9529,9530,9539,9538
206695,9197,9198,9207,9206,9530,9531,9540,9539
206696,9199,9200,9209,9208,9532,9533,9542,9541
206697,9200,9201,9210,9209,9533,9534,9543,9542
206698,9201,9202,9211,9210,9534,9535,9544,9543
206699,9202,9203,9212,9211,9535,9536,9545,9544
206700,9203,9204,9213,9212,9536,9537,9546,9545
206701,9204,9205,9214,9213,9537,9538,9547,9546
206702,9205,9206,9215,9214,9538,9539,9548,9547
206703,9206,9207,9216,9215,9539,9540,9549,9548
206704,9208,9209,9218,9217,9541,9542,9551,9550
206705,9209,9210,9219,9218,9542,9543,9552,9551
206706,9210,9211,9220,9219,9543,9544,9553,9552
206707,9211,9212,9221,9220,9544,9545,9554,9553
206708,9212,9213,9222,9221,9545,9546,9555,9554
206709,9213,9214,9223,9222,9546,9547,9556,9555
206710,9214,9215,9224,9223,9547,9548,9557,9556
206711,9215,9216,9225,9224,9548,9549,9558,9557
206712,9217,9218,9227,9226,9550,9551,9560,9559
206713,9218,9219,9228,9227,9551,9552,9561,9560
206714,9219,9220,9229,9228,9552,9553,9562,9561
206715,9220,9221,9230,9229,9553,9554,9563,9562
206716,9221,9222,9231,9230,9554,9555,9564,9563
206717,9222,9223,9232,9231,9555,9556,9565,9564
206718,9223,9224,9233,9232,9556,9557,9566,9565
206719,9224,9225,9234,9233,9557,9558,9567,9566
206720,9226,9227,9236,9235,9559,9560,9569,9568
206721,9227,9228,9237,9236,9560,9561,9570,9569
206722,9228,9229,9238,9237,9561,9562,9571,9570
206723,9229,9230,9239,9238,9562,9563,9572,9571
206724,9230,9231,9240,9239,9563,9564,9573,9572
206725,9231,9232,9241,9240,9564,9565,9574,9573
206726,9232,9233,9242,9241,9565,9566,9575,9574
206727,9233,9234,9243,9242,9566,9567,9576,9575
206728,9235,9236,9245,9244,9568,9569,9578,9577
206729,9236,9237,9246,9245,9569,9570,9579,9578
206730,9237,9238,9247,9246,9570,9571,9580,9579
206731,9238,9239,9248,9247,9571,9572,9581,9580
206732,9239,9240,9249,9248,9572,9573,9582,9581
206733,9240,9241,9250,9249,9573,9574,9583,9582
206734,9241,9242,9251,9250,9574,9575,9584,9583
206735,9242,9243,9252,9251,9575,9576,9585,9584
206736,9244,9245,9254,9253,9577,9578,9587,9586
206737,9245,9246,9255,9254,9578,9579,9588,9587
206738,9246,9247,9256,9255,9579,9580,9589,9588
206739,9247,9248,9257,9256,9580,9581,9590,9589
206740,9248,9249,9258,9257,9581,9582,9591,9590
206741,9249,9250,9259,9258,9582,9583,9592,9591
206742,9250,9251,9260,9259,9583,9584,9593,9592
206743,9251,9252,9261,9260,9584,9585,9594,9593
206744,9253,9254,9263,9262,9586,9587,9596,9595
206745,9254,9255,9264,9263,9587,9588,9597,9596
206746,9255,9256,9265,9264,9588,9589,9598,9597
206747,9256,9257,9266,9265,9589,9590,9599,9598
206748,9257,9258,9267,9266,9590,9591,9600,9599
206749,9258,9259,9268,9267,9591,9592,9601,9600
206750,9259,9260,9269,9268,9592,9593,9602,9601
206751,9260,9261,9270,9269,9593,9594,9603,9602
206752,9262,9263,9272,9271,9595,9596,9605,9604
206753,9263,9264,9273,9272,9596,9597,9606,9605
206754,9264,9265,9274,9273,9597,9598,9607,9606
206755,9265,9266,9275,9274,9598,9599,9608,9607
206756,9266,9267,9276,9275,9599,9600,9609,9608
206757,9267,9268,9277,9276,9600,9601,9610,9609
206758,9268,9269,9278,9277,9601,9602,9611,9610
206759,9269,9270,9279,9278,9602,9603,9612,9611
206760,9271,9272,9281,9280,9604,9605,9614,9613
206761,9272,9273,9282,9281,9605,9606,9615,9614
206762,9273,9274,9283,9282,9606,9607,9616,9615
206763,9274,9275,9284,9283,9607,9608,9617,9616
206764,9275,9276,9285,9284,9608,9609,9618,9617
206765,9276,9277,9286,9285,9609,9610,9619,9618
206766,9277,9278,9287,9286,9610,9611,9620,9619
206767,9278,9279,9288,9287,9611,9612,9621,9620
206768,9280,9281,9290,9289,9613,9614,9623,9622
206769,9281,9282,9291,9290,9614,9615,9624,9623
206770,9282,9283,9292,9291,9615,9616,9625,9624
206771,9283,9284,9293,9292,9616,9617,9626,9625
206772,9284,9285,9294,9293,9617,9618,9627,9626
206773,9285,9286,9295,9294,9618,9619,9628,9627
206774,9286,9287,9296,9295,9619,9620,9629,9628
206775,9287,9288,9297,9296,9620,9621,9630,9629
206776,9289,9290,9299,9298,9622,9623,9632,9631
206777,9290,9291,9300,9299,9623,9624,9633,9632
206778,9291,9292,9301,9300,9624,9625,9634,9633
206779,9292,9293,9302,9301,9625,9626,9635,9634
206780,9293,9294,9303,9302,9626,9627,9636,9635
206781,9294,9295,9304,9303,9627,9628,9637,9636
206782,9295,9296,9305,9304,9628,9629,9638,9637
206783,9296,9297,9306,9305,9629,9630,9639,9638
206784,9298,9299,9308,9307,9631,9632,9641,9640
206785,9299,9300,9309,9308,9632,9633,9642,9641
206786,9300,9301,9310,9309,9633,9634,9643,9642
206787,9301,9302,9311,9310,9634,9635,9644,9643
206788,9302,9303,9312,9311,9635,9636,9645,9644
206789,9303,9304,9313,9312,9636,9637,9646,9645
206790,9304,9305,9314,9313,9637,9638,9647,9646
206791,9305,9306,9315,9314,9638,9639,9648,9647
206792,9307,9308,9317,9316,9640,9641,9650,9649
206793,9308,9309,9318,9317,9641,9642,9651,9650
206794,9309,9310,9319,9318,9642,9643,9652,9651
206795,9310,9311,9320,9319,9643,9644,9653,9652
206796,9311,9312,9321,9320,9644,9645,9654,9653
206797,9312,9313,9322,9321,9645,9646,9655,9654
206798,9313,9314,9323,9322,9646,9647,9656,9655
206799,9314,9315,9324,9323,9647,9648,9657,9656
206800,9316,9317,9326,9325,9649,9650,9659,9658
206801,9317,9318,9327,9326,9650,9651,9660,9659
206802,9318,9319,9328,9327,9651,9652,9661,9660
206803,9319,9320,9329,9328,9652,9653,9662,9661
206804,9320,9321,9330,9329,9653,9654,9663,9662
206805,9321,9322,9331,9330,9654,9655,9664,9663
206806,9322,9323,9332,9331,9655,9656,9665,9664
206807,9323,9324,9333,9332,9656,9657,9666,9665
206808,9325,9326,9335,9334,9658,9659,9668,9667
206809,9326,9327,9336,9335,9659,9660,9669,9668
206810,9327,9328,9337,9336,9660,9661,9670,9669
206811,9328,9329,9338,9337,9661,9662,9671,9670
206812,9329,9330,9339,9338,9662,9663,9672,9671
206813,9330,9331,9340,9339,9663,9664,9673,9672
206814,9331,9332,9341,9340,9664,9665,9674,9673
206815,9332,9333,9342,9341,9665,9666,9675,9674
206816,9334,9335,9344,9343,9667,9668,9677,9676
206817,9335,9336,9345,9344,9668,9669,9678,9677
206818,9336,9337,9346,9345,9669,9670,9679,9678
206819,9337,9338,9347,9346,9670,9671,9680,9679
206820,9338,9339,9348,9347,9671,9672,9681,9680
206821,9339,9340,9349,9348,9672,9673,9682,9681
206822,9340,9341,9350,9349,9673,9674,9683,9682
206823,9341,9342,9351,9350,9674,9675,9684,9683
206824,9343,9344,9353,9352,9676,9677,9686,9685
206825,9344,9345,9354,9353,9677,9678,9687,9686
206826,9345,9346,9355,9354,9678,9679,9688,9687
206827,9346,9347,9356,9355,9679,9680,9689,9688
206828,9347,9348,9357,9356,9680,9681,9690,9689
206829,9348,9349,9358,9357,9681,9682,9691,9690
206830,9349,9350,9359,9358,9682,9683,9692,9691
206831,9350,9351,9360,9359,9683,9684,9693,9692
206832,9352,9353,9362,9361,9685,9686,9695,9694
206833,9353,9354,9363,9362,9686,9687,9696,9695
206834,9354,9355,9364,9363,9687,9688,9697,9696
206835,9355,9356,9365,9364,9688,9689,9698,9697
206836,9356,9357,9366,9365,9689,9690,9699,9698
206837,9357,9358,9367,9366,9690,9691,9700,9699
206838,9358,9359,9368,9367,9691,9692,9701,9700
206839,9359,9360,9369,9368,9692,9693,9702,9701
206840,9361,9362,9371,9370,9694,9695,9704,9703
206841,9362,9363,9372,9371,9695,9696,9705,9704
206842,9363,9364,9373,9372,9696,9697,9706,9705
206843,9364,9365,9374,9373,9697,9698,9707,9706
206844,9365,9366,9375,9374,9698,9699,9708,9707
206845,9366,9367,9376,9375,9699,9700,9709,9708
206846,9367,9368,9377,9376,9700,9701,9710,9709
206847,9368,9369,9378,9377,9701,9702,9711,9710
206848,9370,9371,9380,9379,9703,9704,9713,9712
206849,9371,9372,9381,9380,9704,9705,9714,9713
206850,9372,9373,9382,9381,9705,9706,9715,9714
206851,9373,9374,9383,9382,9706,9707,9716,9715
206852,9374,9375,9384,9383,9707,9708,9717,9716
206853,9375,9376,9385,9384,9708,9709,9718,9717
206854,9376,9377,9386,9385,9709,9710,9719,9718
206855,9377,9378,9387,9386,9710,9711,9720,9719
206856,9379,9380,9389,9388,9712,9713,9722,9721
206857,9380,9381,9390,9389,9713,9714,9723,9722
206858,9381,9382,9391,9390,9714,9715,9724,9723
206859,9382,9383,9392,9391,9715,9716,9725,9724
206860,9383,9384,9393,9392,9716,9717,9726,9725
206861,9384,9385,9394,9393,9717,9718,9727,9726
206862,9385,9386,9395,9394,9718,9719,9728,9727
206863,9386,9387,9396,9395,9719,9720,9729,9728
206864,9388,9389,9398,9397,9721,9722,9731,9730
206865,9389,9390,9399,9398,9722,9723,9732,9731
206866,9390,9391,9400,9399,9723,9724,9733,9732
206867,9391,9392,9401,9400,9724,9725,9734,9733
206868,9392,9393,9402,9401,9725,9726,9735,9734
206869,9393,9394,9403,9402,9726,9727,9736,9735
206870,9394,9395,9404,9403,9727,9728,9737,9736
206871,9395,9396,9405,9404,9728,9729,9738,9737
206872,9397,9398,9407,9406,9730,9731,9740,9739
206873,9398,9399,9408,9407,9731,9732,9741,9740
206874,9399,9400,9409,9408,9732,9733,9742,9741
206875,9400,9401,9410,9409,9733,9734,9743,9742
206876,9401,9402,9411,9410,9734,9735,9744,9743
206877,9402,9403,9412,9411,9735,9736,9745,9744
206878,9403,9404,9413,9412,9736,9737,9746,9745
206879,9404,9405,9414,9413,9737,9738,9747,9746
206880,9406,9407,9416,9415,9739,9740,9749,9748
206881,9407,9408,9417,9416,9740,9741,9750,9749
206882,9408,9409,9418,9417,9741,9742,9751,9750
206883,9409,9410,9419,9418,9742,9743,9752,9751
206884,9410,9411,9420,9419,9743,9744,9753,9752
206885,9411,9412,9421,9420,9744,9745,9754,9753
206886,9412,9413,9422,9421,9745,9746,9755,9754
206887,9413,9414,9423,9422,9746,9747,9756,9755
206888,9415,9416,9425,9424,9748,9749,9758,9757
206889,9416,9417,9426,9425,9749,9750,9759,9758
206890,9417,9418,9427,9426,9750,9751,9760,9759
206891,9418,9419,9428,9427,9751,9752,9761,9760
206892,9419,9420,9429,9428,9752,9753,9762,9761
206893,9420,9421,9430,9429,9753,9754,9763,9762
206894,9421,9422,9431,9430,9754,9755,9764,9763
206895,9422,9423,9432,9431,9755,9756,9765,9764
206896,9424,9425,9434,9433,9757,9758,9767,9766
206897,9425,9426,9435,9434,9758,9759,9768,9767
206898,9426,9427,9436,9435,9759,9760,9769,9768
206899,9427,9428,9437,9436,9760,9761,9770,9769
206900,9428,9429,9438,9437,9761,9762,9771,9770
206901,9429,9430,9439,9438,9762,9763,9772,9771
206902,9430,9431,9440,9439,9763,9764,9773,9772
206903,9431,9432,9441,9440,9764,9765,9774,9773
206904,9433,9434,9443,9442,9766,9767,9776,9775
206905,9434,9435,9444,9443,9767,9768,9777,9776
206906,9435,9436,9445,9444,9768,9769,9778,9777
206907,9436,9437,9446,9445,9769,9770,9779,9778
206908,9437,9438,9447,9446,9770,9771,9780,9779
206909,9438,9439,9448,9447,9771,9772,9781,9780
206910,9439,9440,9449,9448,9772,9773,9782,9781
206911,9440,9441,9450,9449,9773,9774,9783,9782
206912,9451,9452,9461,9460,9784,9785,9794,9793
206913,9452,9453,9462,9461,9785,9786,9795,9794
206914,9453,9454,9463,9462,9786,9787,9796,9795
206915,9454,9455,9464,9463,9787,9788,9797,9796
206916,9455,9456,9465,9464,9788,9789,9798,9797
206917,9456,9457,9466,9465,9789,9790,9799,9798
206918,9457,9458,9467,9466,9790,9791,9800,9799
206919,9458,9459,9468,9467,9791,9792,9801,9800
206920,9460,9461,9470,9469,9793,9794,9803,9802
206921,9461,9462,9471,9470,9794,9795,9804,9803
206922,9462,9463,9472,9471,9795,9796,9805,9804
206923,9463,9464,9473,9472,9796,9797,9806,9805
206924,9464,9465,9474,9473,9797,9798,9807,9806
206925,9465,9466,9475,9474,9798,9799,9808,9807
206926,9466,9467,9476,9475,9799,9800,9809,9808
206927,9467,9468,9477,9476,9800,9801,9810,9809
206928,9469,9470,9479,9478,9802,9803,9812,9811
206929,9470,9471,9480,9479,9803,9804,9813,9812
206930,9471,9472,9481,9480,9804,9805,9814,9813
206931,9472,9473,9482,9481,9805,9806,9815,9814
206932,9473,9474,9483,9482,9806,9807,9816,9815
206933,9474,9475,9484,9483,9807,9808,9817,9816
206934,9475,9476,9485,9484,9808,9809,9818,9817
206935,9476,9477,9486,9485,9809,9810,9819,9818
206936,9478,9479,9488,9487,9811,9812,9821,9820
206937,9479,9480,9489,9488,9812,9813,9822,9821
206938,9480,9481,9490,9489,9813,9814,9823,9822
206939,9481,9482,9491,9490,9814,9815,9824,9823
206940,9482,9483,9492,9491,9815,9816,9825,9824
206941,9483,9484,9493,9492,9816,9817,9826,9825
206942,9484,9485,9494,9493,9817,9818,9827,9826
206943,9485,9486,9495,9494,9818,9819,9828,9827
206944,9487,9488,9497,9496,9820,9821,9830,9829
206945,9488,9489,9498,9497,9821,9822,9831,9830
206946,9489,9490,9499,9498,9822,9823,9832,9831
206947,9490,9491,9500,9499,9823,9824,9833,9832
206948,9491,9492,9501,9500,9824,9825,9834,9833
206949,9492,9493,9502,9501,9825,9826,9835,9834
206950,9493,9494,9503,9502,9826,9827,9836,9835
206951,9494,9495,9504,9503,9827,9828,9837,9836
206952,9496,9497,9506,9505,9829,9830,9839,9838
206953,9497,9498,9507,9506,9830,9831,9840,9839
206954,9498,9499,9508,9507,9831,9832,9841,9840
206955,9499,9500,9509,9508,9832,9833,9842,9841
206956,9500,9501,9510,9509,9833,9834,9843,9842
206957,9501,9502,9511,9510,9834,9835,9844,9843
206958,9502,9503,9512,9511,9835,9836,9845,9844
206959,9503,9504,9513,9512,9836,9837,9846,9845
206960,9505,9506,9515,9514,9838,9839,9848,9847
206961,9506,9507,9516,9515,9839,9840,9849,9848
206962,9507,9508,9517,9516,9840,9841,9850,9849
206963,9508,9509,9518,9517,9841,9842,9851,9850
206964,9509,9510,9519,9518,9842,9843,9852,9851
206965,9510,9511,9520,9519,9843,9844,9853,9852
206966,9511,9512,9521,9520,9844,9845,9854,9853
206967,9512,9513,9522,9521,9845,9846,9855,9854
206968,9514,9515,9524,9523,9847,9848,9857,9856
206969,9515,9516,9525,9524,9848,9849,9858,9857
206970,9516,9517,9526,9525,9849,9850,9859,9858
206971,9517,9518,9527,9526,9850,9851,9860,9859
206972,9518,9519,9528,9527,9851,9852,9861,9860
206973,9519,9520,9529,9528,9852,9853,9862,9861
206974,9520,9521,9530,9529,9853,9854,9863,9862
206975,9521,9522,9531,9530,9854,9855,9864,9863
206976,9523,9524,9533,9532,9856,9857,9866,9865
206977,9524,9525,9534,9533,9857,9858,9867,9866
206978,9525,9526,9535,9534,9858,9859,9868,9867
206979,9526,9527,9536,9535,9859,9860,9869,9868
206980,9527,9528,9537,9536,9860,9861,9870,9869
206981,9528,9529,9538,9537,9861,9862,9871,9870
206982,9529,9530,9539,9538,9862,9863,9872,9871
206983,9530,9531,9540,9539,9863,9864,9873,9872
206984,9532,9533,9542,9541,9865,9866,9875,9874
206985,9533,9534,9543,9542,9866,9867,9876,9875
206986,9534,9535,9544,9543,9867,9868,9877,9876
206987,9535,9536,9545,9544,9868,9869,9878,9877
206988,9536,9537,9546,9545,9869,9870,9879,9878
206989,9537,9538,9547,9546,9870,9871,9880,9879
206990,9538,9539,9548,9547,9871,9872,9881,9880
206991,9539,9540,9549,9548,9872,9873,9882,9881
206992,9541,9542,9551,9550,9874,9875,9884,9883
206993,9542,9543,9552,9551,9875,9876,9885,9884
206994,9543,9544,9553,9552,9876,9877,9886,9885
206995,9544,9545,9554,9553,9877,9878,9887,9886
206996,9545,9546,9555,9554,9878,9879,9888,9887
206997,9546,9547,9556,9555,9879,9880,9889,9888
206998,9547,9548,9557,9556,9880,9881,9890,9889
206999,9548,9549,9558,9557,9881,9882,9891,9890
207000,9550,9551,9560,9559,9883,9884,9893,9892
207001,9551,9552,9561,9560,9884,9885,9894,9893
207002,9552,9553,9562,9561,9885,9886,9895,9894
207003,9553,9554,9563,9562,9886,9887,9896,9895
207004,9554,9555,9564,9563,9887,9888,9897,9896
207005,9555,9556,9565,9564,9888,9889,9898,9897
207006,9556,9557,9566,9565,9889,9890,9899,9898
207007,9557,9558,9567,9566,9890,9891,9900,9899
207008,9559,9560,9569,9568,9892,9893,9902,9901
207009,9560,9561,9570,9569,9893,9894,9903,9902
207010,9561,9562,9571,9570,9894,9895,9904,9903
207011,9562,9563,9572,9571,9895,9896,9905,9904
207012,9563,9564,9573,9572,9896,9897,9906,9905
207013,9564,9565,9574,9573,9897,9898,9907,9906
207014,9565,9566,9575,9574,9898,9899,9908,9907
207015,9566,9567,9576,9575,9899,9900,9909,9908
207016,9568,9569,9578,9577,9901,9902,9911,9910
207017,9569,9570,9579,9578,9902,9903,9912,9911
207018,9570,9571,9580,9579,9903,9904,9913,9912
207019,9571,9572,9581,9580,9904,9905,9914,9913
207020,9572,9573,9582,9581,9905,9906,9915,9914
207021,9573,9574,9583,9582,9906,9907,9916,9915
207022,9574,9575,9584,9583,9907,9908,9917,9916
207023,9575,9576,9585,9584,9908,9909,9918,9917
207024,9577,9578,9587,9586,9910,9911,9920,9919
207025,9578,9579,9588,9587,9911,9912,9921,9920
207026,9579,9580,9589,9588,9912,9913,9922,9921
207027,9580,9581,9590,9589,9913,9914,9923,9922
207028,9581,9582,9591,9590,9914,9915,9924,9923
207029,9582,9583,9592,9591,9915,9916,9925,9924
207030,9583,9584,9593,9592,9916,9917,9926,9925
207031,9584,9585,9594,9593,9917,9918,9927,9926
207032,9586,9587,9596,9595,9919,9920,9929,9928
207033,9587,9588,9597,9596,9920,9921,9930,9929
207034,9588,9589,9598,9597,9921,9922,9931,9930
207035,9589,9590,9599,9598,9922,9923,9932,9931
207036,9590,9591,9600,9599,9923,9924,9933,9932
207037,9591,9592,9601,9600,9924,9925,9934,9933
207038,9592,9593,9602,9601,9925,9926,9935,9934
207039,9593,9594,9603,9602,9926,9927,9936,9935
207040,9595,9596,9605,9604,9928,9929,9938,9937
207041,9596,9597,9606,9605,9929,9930,9939,9938
207042,9597,9598,9607,9606,9930,9931,9940,9939
207043,9598,9599,9608,9607,9931,9932,9941,9940
207044,9599,9600,9609,9608,9932,9933,9942,9941
207045,9600,9601,9610,9609,9933,9934,9943,9942
207046,9601,9602,9611,9610,9934,9935,9944,9943
207047,9602,9603,9612,9611,9935,9936,9945,9944
207048,9604,9605,9614,9613,9937,9938,9947,9946
207049,9605,9606,9615,9614,9938,9939,9948,9947
207050,9606,9607,9616,9615,9939,9940,9949,9948
207051,9607,9608,9617,9616,9940,9941,9950,9949
207052,9608,9609,9618,9617,9941,9942,9951,9950
207053,9609,9610,9619,9618,9942,9943,9952,9951
207054,9610,9611,9620,9619,9943,9944,9953,9952
207055,9611,9612,9621,9620,9944,9945,9954,9953
207056,9613,9614,9623,9622,9946,9947,9956,9955
207057,9614,9615,9624,9623,9947,9948,9957,9956
207058,9615,9616,9625,9624,9948,9949,9958,9957
207059,9616,9617,9626,9625,9949,9950,9959,9958
207060,9617,9618,9627,9626,9950,9951,9960,9959
207061,9618,9619,9628,9627,9951,9952,9961,9960
207062,9619,9620,9629,9628,9952,9953,9962,9961
207063,9620,9621,9630,9629,9953,9954,9963,9962
207064,9622,9623,9632,9631,9955,9956,9965,9964
207065,9623,9624,9633,9632,9956,9957,9966,9965
207066,9624,9625,9634,9633,9957,9958,9967,9966
207067,9625,9626,9635,9634,9958,9959,9968,9967
207068,9626,9627,9636,9635,9959,9960,9969,9968
207069,9627,9628,9637,9636,9960,9961,9970,9969
207070,9628,9629,9638,9637,9961,9962,9971,9970
207071,9629,9630,9639,9638,9962,9963,9972,9971
207072,9631,9632,9641,9640,9964,9965,9974,9973
207073,9632,9633,9642,9641,9965,9966,9975,9974
207074,9633,9634,9643,9642,9966,9967,9976,9975
207075,9634,9635,9644,9643,9967,9968,9977,9976
207076,9635,9636,9645,9644,9968,9969,9978,9977
207077,9636,9637,9646,9645,9969,9970,9979,9978
207078,9637,9638,9647,9646,9970,9971,9980,9979
207079,9638,9639,9648,9647,9971,9972,9981,9980
207080,9640,9641,9650,9649,9973,9974,9983,9982
207081,9641,9642,9651,9650,9974,9975,9984,9983
207082,9642,9643,9652,9651,9975,9976,9985,9984
207083,9643,9644,9653,9652,9976,9977,9986,9985
207084,9644,9645,9654,9653,9977,9978,9987,9986
207085,9645,9646,9655,9654,9978,9979,9988,9987
207086,9646,9647,9656,9655,9979,9980,9989,9988
207087,9647,9648,9657,9656,9980,9981,9990,9989
207088,9649,9650,9659,9658,9982,9983,9992,9991
207089,9650,9651,9660,9659,9983,9984,9993,9992
207090,9651,9652,9661,9660,9984,9985,9994,9993
207091,9652,9653,9662,9661,9985,9986,9995,9994
207092,9653,9654,9663,9662,9986,9987,9996,9995
207093,9654,9655,9664,9663,9987,9988,9997,9996
207094,9655,9656,9665,9664,9988,9989,9998,9997
207095,9656,9657,9666,9665,9989,9990,9999,9998
207096,9658,9659,9668,9667,9991,9992,10001,10000
207097,9659,9660,9669,9668,9992,9993,10002,10001
207098,9660,9661,9670,9669,9993,9994,10003,10002
207099,9661,9662,9671,9670,9994,9995,10004,10003
207100,9662,9663,9672,9671,9995,9996,10005,10004
207101,9663,9664,9673,9672,9996,9997,10006,10005
207102,9664,9665,9674,9673,9997,9998,10007,10006
207103,9665,9666,9675,9674,9998,9999,10008,10007
207104,9667,9668,9677,9676,10000,10001,10010,10009
207105,9668,9669,9678,9677,10001,10002,10011,10010
207106,9669,9670,9679,9678,10002,10003,10012,10011
207107,9670,9671,9680,9679,10003,10004,10013,10012
207108,9671,9672,9681,9680,10004,10005,10014,10013
207109,9672,9673,9682,9681,10005,10006,10015,10014
207110,9673,9674,9683,9682,10006,10007,10016,10015
207111,9674,9675,9684,9683,10007,10008,10017,10016
207112,9676,9677,9686,9685,10009,10010,10019,10018
207113,9677,9678,9687,9686,10010,10011,10020,10019
207114,9678,9679,9688,9687,10011,10012,10021,10020
207115,9679,9680,9689,9688,10012,10013,10022,10021
207116,9680,9681,9690,9689,10013,10014,10023,10022
207117,9681,9682,9691,9690,10014,10015,10024,10023
207118,9682,9683,9692,9691,10015,10016,10025,10024
207119,9683,9684,9693,9692,10016,10017,10026,10025
207120,9685,9686,9695,9694,10018,10019,10028,10027
207121,9686,9687,9696,9695,10019,10020,10029,10028
207122,9687,9688,9697,9696,10020,10021,10030,10029
207123,9688,9689,9698,9697,10021,10022,10031,10030
207124,9689,9690,9699,9698,10022,10023,10032,10031
207125,9690,9691,9700,9699,10023,10024,10033,10032
207126,9691,9692,9701,9700,10024,10025,10034,10033
207127,9692,9693,9702,9701,10025,10026,10035,10034
207128,9694,9695,9704,9703,10027,10028,10037,10036
207129,9695,9696,9705,9704,10028,10029,10038,10037
207130,9696,9697,9706,9705,10029,10030,10039,10038
207131,9697,9698,9707,9706,10030,10031,10040,10039
207132,9698,9699,9708,9707,10031,10032,10041,10040
207133,9699,9700,9709,9708,10032,10033,10042,10041
207134,9700,9701,9710,9709,10033,10034,10043,10042
207135,9701,9702,9711,9710,10034,10035,10044,10043
207136,9703,9704,9713,9712,10036,10037,10046,10045
207137,9704,9705,9714,9713,10037,10038,10047,10046
207138,9705,9706,9715,9714,10038,10039,10048,10047
207139,9706,9707,9716,9715,10039,10040,10049,10048
207140,9707,9708,9717,9716,10040,10041,10050,10049
207141,9708,9709,9718,9717,10041,10042,10051,10050
207142,9709,9710,9719,9718,10042,10043,10052,10051
207143,9710,9711,9720,9719,10043,10044,10053,10052
207144,9712,9713,9722,9721,10045,10046,10055,10054
207145,9713,9714,9723,9722,10046,10047,10056,10055
207146,9714,9715,9724,9723,10047,10048,10057,10056
207147,9715,9716,9725,9724,10048,10049,10058,10057
207148,9716,9717,9726,9725,10049,10050,10059,10058
207149,9717,9718,9727,9726,10050,10051,10060,10059
207150,9718,9719,9728,9727,10051,10052,10061,10060
207151,9719,9720,9729,9728,10052,10053,10062,10061
207152,9721,9722,9731,9730,10054,10055,10064,10063
207153,9722,9723,9732,9731,10055,10056,10065,10064
207154,9723,9724,9733,9732,10056,10057,10066,10065
207155,9724,9725,9734,9733,10057,10058,10067,10066
207156,9725,9726,9735,9734,10058,10059,10068,10067
207157,9726,9727,9736,9735,10059,10060,10069,10068
207158,9727,9728,9737,9736,10060,10061,10070,10069
207159,9728,9729,9738,9737,10061,10062,10071,10070
207160,9730,9731,9740,9739,10063,10064,10073,10072
207161,9731,9732,9741,9740,10064,10065,10074,10073
207162,9732,9733,9742,9741,10065,10066,10075,10074
207163,9733,9734,9743,9742,10066,10067,10076,10075
207164,9734,9735,9744,9743,10067,10068,10077,10076
207165,9735,9736,9745,9744,10068,10069,10078,10077
207166,9736,9737,9746,9745,10069,10070,10079,10078
207167,9737,9738,9747,9746,10070,10071,10080,10079
207168,9739,9740,9749,9748,10072,10073,10082,10081
207169,9740,9741,9750,9749,10073,10074,10083,10082
207170,9741,9742,9751,9750,10074,10075,10084,10083
207171,9742,9743,9752,9751,10075,10076,10085,10084
207172,9743,9744,9753,9752,10076,10077,10086,10085
207173,9744,9745,9754,9753,10077,10078,10087,10086
207174,9745,9746,9755,9754,10078,10079,10088,10087
207175,9746,9747,9756,9755,10079,10080,10089,10088
207176,9748,9749,9758,9757,10081,10082,10091,10090
207177,9749,9750,9759,9758,10082,10083,10092,10091
207178,9750,9751,9760,9759,10083,10084,10093,10092
207179,9751,9752,9761,9760,10084,10085,10094,10093
207180,9752,9753,9762,9761,10085,10086,10095,10094
207181,9753,9754,9763,9762,10086,10087,10096,10095
207182,9754,9755,9764,9763,10087,10088,10097,10096
207183,9755,9756,9765,9764,10088,10089,10098,10097
207184,9757,9758,9767,9766,10090,10091,10100,10099
207185,9758,9759,9768,9767,10091,10092,10101,10100
207186,9759,9760,9769,9768,10092,10093,10102,10101
207187,9760,9761,9770,9769,10093,10094,10103,10102
207188,9761,9762,9771,9770,10094,10095,10104,10103
207189,9762,9763,9772,9771,10095,10096,10105,10104
207190,9763,9764,9773,9772,10096,10097,10106,10105
207191,9764,9765,9774,9773,10097,10098,10107,10106
207192,9766,9767,9776,9775,10099,10100,10109,10108
207193,9767,9768,9777,9776,10100,10101,10110,10109
207194,9768,9769,9778,9777,10101,10102,10111,10110
207195,9769,9770,9779,9778,10102,10103,10112,10111
207196,9770,9771,9780,9779,10103,10104,10113,10112
207197,9771,9772,9781,9780,10104,10105,10114,10113
207198,9772,9773,9782,9781,10105,10106,10115,10114
207199,9773,9774,9783,9782,10106,10107,10116,10115
207200,9784,9785,9794,9793,10117,10118,10127,10126
207201,9785,9786,9795,9794,10118,10119,10128,10127
207202,9786,9787,9796,9795,10119,10120,10129,10128
207203,9787,9788,9797,9796,10120,10121,10130,10129
207204,9788,9789,9798,9797,10121,10122,10131,10130
207205,9789,9790,9799,9798,10122,10123,10132,10131
207206,9790,9791,9800,9799,10123,10124,10133,10132
207207,9791,9792,9801,9800,10124,10125,10134,10133
207208,9793,9794,9803,9802,10126,10127,10136,10135
207209,9794,9795,9804,9803,10127,10128,10137,10136
207210,9795,9796,9805,9804,10128,10129,10138,10137
207211,9796,9797,9806,9805,10129,10130,10139,10138
207212,9797,9798,9807,9806,10130,10131,10140,10139
207213,9798,9799,9808,9807,10131,10132,10141,10140
207214,9799,9800,9809,9808,10132,10133,10142,10141
207215,9800,9801,9810,9809,10133,10134,10143,10142
207216,9802,9803,9812,9811,10135,10136,10145,10144
207217,9803,9804,9813,9812,10136,10137,10146,10145
207218,9804,9805,9814,9813,10137,10138,10147,10146
207219,9805,9806,9815,9814,10138,10139,10148,10147
207220,9806,9807,9816,9815,10139,10140,10149,10148
207221,9807,9808,9817,9816,10140,10141,10150,10149
207222,9808,9809,9818,9817,10141,10142,10151,10150
207223,9809,9810,9819,9818,10142,10143,10152,10151
207224,9811,9812,9821,9820,10144,10145,10154,10153
207225,9812,9813,9822,9821,10145,10146,10155,10154
207226,9813,9814,9823,9822,10146,10147,10156,10155
207227,9814,9815,9824,9823,10147,10148,10157,10156
207228,9815,9816,9825,9824,10148,10149,10158,10157
207229,9816,9817,9826,9825,10149,10150,10159,10158
207230,9817,9818,9827,9826,10150,10151,10160,10159
207231,9818,9819,9828,9827,10151,10152,10161,10160
207232,9820,9821,9830,9829,10153,10154,10163,10162
207233,9821,9822,9831,9830,10154,10155,10164,10163
207234,9822,9823,9832,9831,10155,10156,10165,10164
207235,9823,9824,9833,9832,10156,10157,10166,10165
207236,9824,9825,9834,9833,10157,10158,10167,10166
207237,9825,9826,9835,9834,10158,10159,10168,10167
207238,9826,9827,9836,9835,10159,10160,10169,10168
207239,9827,9828,9837,9836,10160,10161,10170,10169
207240,9829,9830,9839,9838,10162,10163,10172,10171
207241,9830,9831,9840,9839,10163,10164,10173,10172
207242,9831,9832,9841,9840,10164,10165,10174,10173
207243,9832,9833,9842,9841,10165,10166,10175,10174
207244,9833,9834,9843,9842,10166,10167,10176,10175
207245,9834,9835,9844,9843,10167,10168,10177,10176
207246,9835,9836,9845,9844,10168,10169,10178,10177
207247,9836,9837,9846,9845,10169,10170,10179,10178
207248,9838,9839,9848,9847,10171,10172,10181,10180
207249,9839,9840,9849,9848,10172,10173,10182,10181
207250,9840,9841,9850,9849,10173,10174,10183,10182
207251,9841,9842,9851,9850,10174,10175,10184,10183
207252,9842,9843,9852,9851,10175,10176,10185,10184
207253,9843,9844,9853,9852,10176,10177,10186,10185
207254,9844,9845,9854,9853,10177,10178,10187,10186
207255,9845,9846,9855,9854,10178,10179,10188,10187
207256,9847,9848,9857,9856,10180,10181,10190,10189
207257,9848,9849,9858,9857,10181,10182,10191,10190
207258,9849,9850,9859,9858,10182,10183,10192,10191
207259,9850,9851,9860,9859,10183,10184,10193,10192
207260,9851,9852,9861,9860,10184,10185,10194,10193
207261,9852,9853,9862,9861,10185,10186,10195,10194
207262,9853,9854,9863,9862,10186,10187,10196,10195
207263,9854,9855,9864,9863,10187,10188,10197,10196
207264,9856,9857,9866,9865,10189,10190,10199,10198
207265,9857,9858,9867,9866,10190,10191,10200,10199
207266,9858,9859,9868,9867,10191,10192,10201,10200
207267,9859,9860,9869,9868,10192,10193,10202,10201
207268,9860,9861,9870,9869,10193,10194,10203,10202
207269,9861,9862,9871,9870,10194,10195,10204,10203
207270,9862,9863,9872,9871,10195,10196,10205,10204
207271,9863,9864,9873,9872,10196,10197,10206,10205
207272,9865,9866,9875,9874,10198,10199,10208,10207
207273,9866,9867,9876,9875,10199,10200,10209,10208
207274,9867,9868,9877,9876,10200,10201,10210,10209
207275,9868,9869,9878,9877,10201,10202,10211,10210
207276,9869,9870,9879,9878,10202,10203,10212,10211
207277,9870,9871,9880,9879,10203,10204,10213,10212
207278,9871,9872,9881,9880,10204,10205,10214,10213
207279,9872,9873,9882,9881,10205,10206,10215,10214
207280,9874,9875,9884,9883,10207,10208,10217,10216
207281,9875,9876,9885,9884,10208,10209,10218,10217
207282,9876,9877,9886,9885,10209,10210,10219,10218
207283,9877,9878,9887,9886,10210,10211,10220,10219
207284,9878,9879,9888,9887,10211,10212,10221,10220
207285,9879,9880,9889,9888,10212,10213,10222,10221
207286,9880,9881,9890,9889,10213,10214,10223,10222
207287,9881,9882,9891,9890,10214,10215,10224,10223
207288,9883,9884,9893,9892,10216,10217,10226,10225
207289,9884,9885,9894,9893,10217,10218,10227,10226
207290,9885,9886,9895,9894,10218,10219,10228,10227
207291,9886,9887,9896,9895,10219,10220,10229,10228
207292,9887,9888,9897,9896,10220,10221,10230,10229
207293,9888,9889,9898,9897,10221,10222,10231,10230
207294,9889,9890,9899,9898,10222,10223,10232,10231
207295,9890,9891,9900,9899,10223,10224,10233,10232
207296,9892,9893,9902,9901,10225,10226,10235,10234
207297,9893,9894,9903,9902,10226,10227,10236,10235
207298,9894,9895,9904,9903,10227,10228,10237,10236
207299,9895,9896,9905,9904,10228,10229,10238,10237
207300,9896,9897,9906,9905,10229,10230,10239,10238
207301,9897,9898,9907,9906,10230,10231,10240,10239
207302,9898,9899,9908,9907,10231,10232,10241,10240
207303,9899,9900,9909,9908,10232,10233,10242,10241
207304,9901,9902,9911,9910,10234,10235,10244,10243
207305,9902,9903,9912,9911,10235,10236,10245,10244
207306,9903,9904,9913,9912,10236,10237,10246,10245
207307,9904,9905,9914,9913,10237,10238,10247,10246
207308,9905,9906,9915,9914,10238,10239,10248,10247
207309,9906,9907,9916,9915,10239,10240,10249,10248
207310,9907,9908,9917,9916,10240,10241,10250,10249
207311,9908,9909,9918,9917,10241,10242,10251,10250
207312,9910,9911,9920,9919,10243,10244,10253,10252
207313,9911,9912,9921,9920,10244,10245,10254,10253
207314,9912,9913,9922,9921,10245,10246,10255,10254
207315,9913,9914,9923,9922,10246,10247,10256,10255
207316,9914,9915,9924,9923,10247,10248,10257,10256
207317,9915,9916,9925,9924,10248,10249,10258,10257
207318,9916,9917,9926,9925,10249,10250,10259,10258
207319,9917,9918,9927,9926,10250,10251,10260,10259
207320,9919,9920,9929,9928,10252,10253,10262,10261
207321,9920,9921,9930,9929,10253,10254,10263,10262
207322,9921,9922,9931,9930,10254,10255,10264,10263
207323,9922,9923,9932,9931,10255,10256,10265,10264
207324,9923,9924,9933,9932,10256,10257,10266,10265
207325,9924,9925,9934,9933,10257,10258,10267,10266
207326,9925,9926,9935,9934,10258,10259,10268,10267
207327,9926,9927,9936,9935,10259,10260,10269,10268
207328,9928,9929,9938,9937,10261,10262,10271,10270
207329,9929,9930,9939,9938,10262,10263,10272,10271
207330,9930,9931,9940,9939,10263,10264,10273,10272
207331,9931,9932,9941,9940,10264,10265,10274,10273
207332,9932,9933,9942,9941,10265,10266,10275,10274
207333,9933,9934,9943,9942,10266,10267,10276,10275
207334,9934,9935,9944,9943,10267,10268,10277,10276
207335,9935,9936,9945,9944,10268,10269,10278,10277
207336,9937,9938,9947,9946,10270,10271,10280,10279
207337,9938,9939,9948,9947,10271,10272,10281,10280
207338,9939,9940,9949,9948,10272,10273,10282,10281
207339,9940,9941,9950,9949,10273,10274,10283,10282
207340,9941,9942,9951,9950,10274,10275,10284,10283
207341,9942,9943,9952,9951,10275,10276,10285,10284
207342,9943,9944,9953,9952,10276,10277,10286,10285
207343,9944,9945,9954,9953,10277,10278,10287,10286
207344,9946,9947,9956,9955,10279,10280,10289,10288
207345,9947,9948,9957,9956,10280,10281,10290,10289
207346,9948,9949,9958,9957,10281,10282,10291,10290
207347,9949,9950,9959,9958,10282,10283,10292,10291
207348,9950,9951,9960,9959,10283,10284,10293,10292
207349,9951,9952,9961,9960,10284,10285,10294,10293
207350,9952,9953,9962,9961,10285,10286,10295,10294
207351,9953,9954,9963,9962,10286,10287,10296,10295
207352,9955,9956,9965,9964,10288,10289,10298,10297
207353,9956,9957,9966,9965,10289,10290,10299,10298
207354,9957,9958,9967,9966,10290,10291,10300,10299
207355,9958,9959,9968,9967,10291,10292,10301,10300
207356,9959,9960,9969,9968,10292,10293,10302,10301
207357,9960,9961,9970,9969,10293,10294,10303,10302
207358,9961,9962,9971,9970,10294,10295,10304,10303
207359,9962,9963,9972,9971,10295,10296,10305,10304
207360,9964,9965,9974,9973,10297,10298,10307,10306
207361,9965,9966,9975,9974,10298,10299,10308,10307
207362,9966,9967,9976,9975,10299,10300,10309,10308
207363,9967,9968,9977,9976,10300,10301,10310,10309
207364,9968,9969,9978,9977,10301,10302,10311,10310
207365,9969,9970,9979,9978,10302,10303,10312,10311
207366,9970,9971,9980,9979,10303,10304,10313,10312
207367,9971,9972,9981,9980,10304,10305,10314,10313
207368,9973,9974,9983,9982,10306,10307,10316,10315
207369,9974,9975,9984,9983,10307,10308,10317,10316
207370,9975,9976,9985,9984,10308,10309,10318,10317
207371,9976,9977,9986,9985,10309,10310,10319,10318
207372,9977,9978,9987,9986,10310,10311,10320,10319
207373,9978,9979,9988,9987,10311,10312,10321,10320
207374,9979,9980,9989,9988,10312,10313,10322,10321
207375,9980,9981,9990,9989,10313,10314,10323,10322
207376,9982,9983,9992,9991,10315,10316,10325,10324
207377,9983,9984,9993,9992,10316,10317,10326,10325
207378,9984,9985,9994,9993,10317,10318,10327,10326
207379,9985,9986,9995,9994,10318,10319,10328,10327
207380,9986,9987,9996,9995,10319,10320,10329,10328
207381,9987,9988,9997,9996,10320,10321,10330,10329
207382,9988,9989,9998,9997,10321,10322,10331,10330
207383,9989,9990,9999,9998,10322,10323,10332,10331
207384,9991,9992,10001,10000,10324,10325,10334,10333
207385,9992,9993,10002,10001,10325,10326,10335,10334
207386,9993,9994,10003,10002,10326,10327,10336,10335
207387,9994,9995,10004,10003,10327,10328,10337,10336
207388,9995,9996,10005,10004,10328,10329,10338,10337
207389,9996,9997,10006,10005,10329,10330,10339,10338
207390,9997,9998,10007,10006,10330,10331,10340,10339
207391,9998,9999,10008,10007,10331,10332,10341,10340
207392,10000,10001,10010,10009,10333,10334,10343,10342
207393,10001,10002,10011,10010,10334,10335,10344,10343
207394,10002,10003,10012,10011,10335,10336,10345,10344
207395,10003,10004,10013,10012,10336,10337,10346,10345
207396,10004,10005,10014,10013,10337,10338,10347,10346
207397,10005,10006,10015,10014,10338,10339,10348,10347
207398,10006,10007,10016,10015,10339,10340,10349,10348
207399,10007,10008,10017,10016,10340,10341,10350,10349
207400,10009,10010,10019,10018,10342,10343,10352,10351
207401,10010,10011,10020,10019,10343,10344,10353,10352
207402,10011,10012,10021,10020,10344,10345,10354,10353
207403,10012,10013,10022,10021,10345,10346,10355,10354
207404,10013,10014,10023,10022,10346,10347,10356,10355
207405,10014,10015,10024,10023,10347,10348,10357,10356
207406,10015,10016,10025,10024,10348,10349,10358,10357
207407,10016,10017,10026,10025,10349,10350,10359,10358
207408,10018,10019,10028,10027,10351,10352,10361,10360
207409,10019,10020,10029,10028,10352,10353,10362,10361
207410,10020,10021,10030,10029,10353,10354,10363,10362
207411,10021,10022,10031,10030,10354,10355,10364,10363
207412,10022,10023,10032,10031,10355,10356,10365,10364
207413,10023,10024,10033,10032,10356,10357,10366,10365
207414,10024,10025,10034,10033,10357,10358,10367,10366
207415,10025,10026,10035,10034,10358,10359,10368,10367
207416,10027,10028,10037,10036,10360,10361,10370,10369
207417,10028,10029,10038,10037,10361,10362,10371,10370
207418,10029,10030,10039,10038,10362,10363,10372,10371
207419,10030,10031,10040,10039,10363,10364,10373,10372
207420,10031,10032,10041,10040,10364,10365,10374,10373
207421,10032,10033,10042,10041,10365,10366,10375,10374
207422,10033,10034,10043,10042,10366,10367,10376,10375
207423,10034,10035,10044,10043,10367,10368,10377,10376
207424,10036,10037,10046,10045,10369,10370,10379,10378
207425,10037,10038,10047,10046,10370,10371,10380,10379
207426,10038,10039,10048,10047,10371,10372,10381,10380
207427,10039,10040,10049,10048,10372,10373,10382,10381
207428,10040,10041,10050,10049,10373,10374,10383,10382
207429,10041,10042,10051,10050,10374,10375,10384,10383
207430,10042,10043,10052,10051,10375,10376,10385,10384
207431,10043,10044,10053,10052,10376,10377,10386,10385
207432,10045,10046,10055,10054,10378,10379,10388,10387
207433,10046,10047,10056,10055,10379,10380,10389,10388
207434,10047,10048,10057,10056,10380,10381,10390,10389
207435,10048,10049,10058,10057,10381,10382,10391,10390
207436,10049,10050,10059,10058,10382,10383,10392,10391
207437,10050,10051,10060,10059,10383,10384,10393,10392
207438,10051,10052,10061,10060,10384,10385,10394,10393
207439,10052,10053,10062,10061,10385,10386,10395,10394
207440,10054,10055,10064,10063,10387,10388,10397,10396
207441,10055,10056,10065,10064,10388,10389,10398,10397
207442,10056,10057,10066,10065,10389,10390,10399,10398
207443,10057,10058,10067,10066,10390,10391,10400,10399
207444,10058,10059,10068,10067,10391,10392,10401,10400
207445,10059,10060,10069,10068,10392,10393,10402,10401
207446,10060,10061,10070,10069,10393,10394,10403,10402
207447,10061,10062,10071,10070,10394,10395,10404,10403
207448,10063,10064,10073,10072,10396,10397,10406,10405
207449,10064,10065,10074,10073,10397,10398,10407,10406
207450,10065,10066,10075,10074,10398,10399,10408,10407
207451,10066,10067,10076,10075,10399,10400,10409,10408
207452,10067,10068,10077,10076,10400,10401,10410,10409
207453,10068,10069,10078,10077,10401,10402,10411,10410
207454,10069,10070,10079,10078,10402,10403,10412,10411
207455,10070,10071,10080,10079,10403,10404,10413,10412
207456,10072,10073,10082,10081,10405,10406,10415,10414
207457,10073,10074,10083,10082,10406,10407,10416,10415
207458,10074,10075,10084,10083,10407,10408,10417,10416
207459,10075,10076,10085,10084,10408,10409,10418,10417
207460,10076,10077,10086,10085,10409,10410,10419,10418
207461,10077,10078,10087,10086,10410,10411,10420,10419
207462,10078,10079,10088,10087,10411,10412,10421,10420
207463,10079,10080,10089,10088,10412,10413,10422,10421
207464,10081,10082,10091,10090,10414,10415,10424,10423
207465,10082,10083,10092,10091,10415,10416,10425,10424
207466,10083,10084,10093,10092,10416,10417,10426,10425
207467,10084,10085,10094,10093,10417,10418,10427,10426
207468,10085,10086,10095,10094,10418,10419,10428,10427
207469,10086,10087,10096,10095,10419,10420,10429,10428
207470,10087,10088,10097,10096,10420,10421,10430,10429
207471,10088,10089,10098,10097,10421,10422,10431,10430
207472,10090,10091,10100,10099,10423,10424,10433,10432
207473,10091,10092,10101,10100,10424,10425,10434,10433
207474,10092,10093,10102,10101,10425,10426,10435,10434
207475,10093,10094,10103,10102,10426,10427,10436,10435
207476,10094,10095,10104,10103,10427,10428,10437,10436
207477,10095,10096,10105,10104,10428,10429,10438,10437
207478,10096,10097,10106,10105,10429,10430,10439,10438
207479,10097,10098,10107,10106,10430,10431,10440,10439
207480,10099,10100,10109,10108,10432,10433,10442,10441
207481,10100,10101,10110,10109,10433,10434,10443,10442
207482,10101,10102,10111,10110,10434,10435,10444,10443
207483,10102,10103,10112,10111,10435,10436,10445,10444
207484,10103,10104,10113,10112,10436,10437,10446,10445
207485,10104,10105,10114,10113,10437,10438,10447,10446
207486,10105,10106,10115,10114,10438,10439,10448,10447
207487,10106,10107,10116,10115,10439,10440,10449,10448
207488,10117,10118,10127,10126,10450,10451,10460,10459
207489,10118,10119,10128,10127,10451,10452,10461,10460
207490,10119,10120,10129,10128,10452,10453,10462,10461
207491,10120,10121,10130,10129,10453,10454,10463,10462
207492,10121,10122,10131,10130,10454,10455,10464,10463
207493,10122,10123,10132,10131,10455,10456,10465,10464
207494,10123,10124,10133,10132,10456,10457,10466,10465
207495,10124,10125,10134,10133,10457,10458,10467,10466
207496,10126,10127,10136,10135,10459,10460,10469,10468
207497,10127,10128,10137,10136,10460,10461,10470,10469
207498,10128,10129,10138,10137,10461,10462,10471,10470
207499,10129,10130,10139,10138,10462,10463,10472,10471
207500,10130,10131,10140,10139,10463,10464,10473,10472
207501,10131,10132,10141,10140,10464,10465,10474,10473
207502,10132,10133,10142,10141,10465,10466,10475,10474
207503,10133,10134,10143,10142,10466,10467,10476,10475
207504,10135,10136,10145,10144,10468,10469,10478,10477
207505,10136,10137,10146,10145,10469,10470,10479,10478
207506,10137,10138,10147,10146,10470,10471,10480,10479
207507,10138,10139,10148,10147,10471,10472,10481,10480
207508,10139,10140,10149,10148,10472,10473,10482,10481
207509,10140,10141,10150,10149,10473,10474,10483,10482
207510,10141,10142,10151,10150,10474,10475,10484,10483
207511,10142,10143,10152,10151,10475,10476,10485,10484
207512,10144,10145,10154,10153,10477,10478,10487,10486
207513,10145,10146,10155,10154,10478,10479,10488,10487
207514,10146,10147,10156,10155,10479,10480,10489,10488
207515,10147,10148,10157,10156,10480,10481,10490,10489
207516,10148,10149,10158,10157,10481,10482,10491,10490
207517,10149,10150,10159,10158,10482,10483,10492,10491
207518,10150,10151,10160,10159,10483,10484,10493,10492
207519,10151,10152,10161,10160,10484,10485,10494,10493
207520,10153,10154,10163,10162,10486,10487,10496,10495
207521,10154,10155,10164,10163,10487,10488,10497,10496
207522,10155,10156,10165,10164,10488,10489,10498,10497
207523,10156,10157,10166,10165,10489,10490,10499,10498
207524,10157,10158,10167,10166,10490,10491,10500,10499
207525,10158,10159,10168,10167,10491,10492,10501,10500
207526,10159,10160,10169,10168,10492,10493,10502,10501
207527,10160,10161,10170,10169,10493,10494,10503,10502
207528,10162,10163,10172,10171,10495,10496,10505,10504
207529,10163,10164,10173,10172,10496,10497,10506,10505
207530,10164,10165,10174,10173,10497,10498,10507,10506
207531,10165,10166,10175,10174,10498,10499,10508,10507
207532,10166,10167,10176,10175,10499,10500,10509,10508
207533,10167,10168,10177,10176,10500,10501,10510,10509
207534,10168,10169,10178,10177,10501,10502,10511,10510
207535,10169,10170,10179,10178,10502,10503,10512,10511
207536,10171,10172,10181,10180,10504,10505,10514,10513
207537,10172,10173,10182,10181,10505,10506,10515,10514
207538,10173,10174,10183,10182,10506,10507,10516,10515
207539,10174,10175,10184,10183,10507,10508,10517,10516
207540,10175,10176,10185,10184,10508,10509,10518,10517
207541,10176,10177,10186,10185,10509,10510,10519,10518
207542,10177,10178,10187,10186,10510,10511,10520,10519
207543,10178,10179,10188,10187,10511,10512,10521,10520
207544,10180,10181,10190,10189,10513,10514,10523,10522
207545,10181,10182,10191,10190,10514,10515,10524,10523
207546,10182,10183,10192,10191,10515,10516,10525,10524
207547,10183,10184,10193,10192,10516,10517,10526,10525
207548,10184,10185,10194,10193,10517,10518,10527,10526
207549,10185,10186,10195,10194,10518,10519,10528,10527
207550,10186,10187,10196,10195,10519,10520,10529,10528
207551,10187,10188,10197,10196,10520,10521,10530,10529
207552,10189,10190,10199,10198,10522,10523,10532,10531
207553,10190,10191,10200,10199,10523,10524,10533,10532
207554,10191,10192,10201,10200,10524,10525,10534,10533
207555,10192,10193,10202,10201,10525,10526,10535,10534
207556,10193,10194,10203,10202,10526,10527,10536,10535
207557,10194,10195,10204,10203,10527,10528,10537,10536
207558,10195,10196,10205,10204,10528,10529,10538,10537
207559,10196,10197,10206,10205,10529,10530,10539,10538
207560,10198,10199,10208,10207,10531,10532,10541,10540
207561,10199,10200,10209,10208,10532,10533,10542,10541
207562,10200,10201,10210,10209,10533,10534,10543,10542
207563,10201,10202,10211,10210,10534,10535,10544,10543
207564,10202,10203,10212,10211,10535,10536,10545,10544
207565,10203,10204,10213,10212,10536,10537,10546,10545
207566,10204,10205,10214,10213,10537,10538,10547,10546
207567,10205,10206,10215,10214,10538,10539,10548,10547
207568,10207,10208,10217,10216,10540,10541,10550,10549
207569,10208,10209,10218,10217,10541,10542,10551,10550
207570,10209,10210,10219,10218,10542,10543,10552,10551
207571,10210,10211,10220,10219,10543,10544,10553,10552
207572,10211,10212,10221,10220,10544,10545,10554,10553
207573,10212,10213,10222,10221,10545,10546,10555,10554
207574,10213,10214,10223,10222,10546,10547,10556,10555
207575,10214,10215,10224,10223,10547,10548,10557,10556
207576,10216,10217,10226,10225,10549,10550,10559,10558
207577,10217,10218,10227,10226,10550,10551,10560,10559
207578,10218,10219,10228,10227,10551,10552,10561,10560
207579,10219,10220,10229,10228,10552,10553,10562,10561
207580,10220,10221,10230,10229,10553,10554,10563,10562
207581,10221,10222,10231,10230,10554,10555,10564,10563
207582,10222,10223,10232,10231,10555,10556,10565,10564
207583,10223,10224,10233,10232,10556,10557,10566,10565
207584,10225,10226,10235,10234,10558,10559,10568,10567
207585,10226,10227,10236,10235,10559,10560,10569,10568
207586,10227,10228,10237,10236,10560,10561,10570,10569
207587,10228,10229,10238,10237,10561,10562,10571,10570
207588,10229,10230,10239,10238,10562,10563,10572,10571
207589,10230,10231,10240,10239,10563,10564,10573,10572
207590,10231,10232,10241,10240,10564,10565,10574,10573
207591,10232,10233,10242,10241,10565,10566,10575,10574
207592,10234,10235,10244,10243,10567,10568,10577,10576
207593,10235,10236,10245,10244,10568,10569,10578,10577
207594,10236,10237,10246,10245,10569,10570,10579,10578
207595,10237,10238,10247,10246,10570,10571,10580,10579
207596,10238,10239,10248,10247,10571,10572,10581,10580
207597,10239,10240,10249,10248,10572,10573,10582,10581
207598,10240,10241,10250,10249,10573,10574,10583,10582
207599,10241,10242,10251,10250,10574,10575,10584,10583
207600,10243,10244,10253,10252,10576,10577,10586,10585
207601,10244,10245,10254,10253,10577,10578,10587,10586
207602,10245,10246,10255,10254,10578,10579,10588,10587
207603,10246,10247,10256,10255,10579,10580,10589,10588
207604,10247,10248,10257,10256,10580,10581,10590,10589
207605,10248,10249,10258,10257,10581,10582,10591,10590
207606,10249,10250,10259,10258,10582,10583,10592,10591
207607,10250,10251,10260,10259,10583,10584,10593,10592
207608,10252,10253,10262,10261,10585,10586,10595,10594
207609,10253,10254,10263,10262,10586,10587,10596,10595
207610,10254,10255,10264,10263,10587,10588,10597,10596
207611,10255,10256,10265,10264,10588,10589,10598,10597
207612,10256,10257,10266,10265,10589,10590,10599,10598
207613,10257,10258,10267,10266,10590,10591,10600,10599
207614,10258,10259,10268,10267,10591,10592,10601,10600
207615,10259,10260,10269,10268,10592,10593,10602,10601
207616,10261,10262,10271,10270,10594,10595,10604,10603
207617,10262,10263,10272,10271,10595,10596,10605,10604
207618,10263,10264,10273,10272,10596,10597,10606,10605
207619,10264,10265,10274,10273,10597,10598,10607,10606
207620,10265,10266,10275,10274,10598,10599,10608,10607
207621,10266,10267,10276,10275,10599,10600,10609,10608
207622,10267,10268,10277,10276,10600,10601,10610,10609
207623,10268,10269,10278,10277,10601,10602,10611,10610
207624,10270,10271,10280,10279,10603,10604,10613,10612
207625,10271,10272,10281,10280,10604,10605,10614,10613
207626,10272,10273,10282,10281,10605,10606,10615,10614
207627,10273,10274,10283,10282,10606,10607,10616,10615
207628,10274,10275,10284,10283,10607,10608,10617,10616
207629,10275,10276,10285,10284,10608,10609,10618,10617
207630,10276,10277,10286,10285,10609,10610,10619,10618
207631,10277,10278,10287,10286,10610,10611,10620,10619
207632,10279,10280,10289,10288,10612,10613,10622,10621
207633,10280,10281,10290,10289,10613,10614,10623,10622
207634,10281,10282,10291,10290,10614,10615,10624,10623
207635,10282,10283,10292,10291,10615,10616,10625,10624
207636,10283,10284,10293,10292,10616,10617,10626,10625
207637,10284,10285,10294,10293,10617,10618,10627,10626
207638,10285,10286,10295,10294,10618,10619,10628,10627
207639,10286,10287,10296,10295,10619,10620,10629,10628
207640,10288,10289,10298,10297,10621,10622,10631,10630
207641,10289,10290,10299,10298,10622,10623,10632,10631
207642,10290,10291,10300,10299,10623,10624,10633,10632
207643,10291,10292,10301,10300,10624,10625,10634,10633
207644,10292,10293,10302,10301,10625,10626,10635,10634
207645,10293,10294,10303,10302,10626,10627,10636,10635
207646,10294,10295,10304,10303,10627,10628,10637,10636
207647,10295,10296,10305,10304,10628,10629,10638,10637
207648,10297,10298,10307,10306,10630,10631,10640,10639
207649,10298,10299,10308,10307,10631,10632,10641,10640
207650,10299,10300,10309,10308,10632,10633,10642,10641
207651,10300,10301,10310,10309,10633,10634,10643,10642
207652,10301,10302,10311,10310,10634,10635,10644,10643
207653,10302,10303,10312,10311,10635,10636,10645,10644
207654,10303,10304,10313,10312,10636,10637,10646,10645
207655,10304,10305,10314,10313,10637,10638,10647,10646
207656,10306,10307,10316,10315,10639,10640,10649,10648
207657,10307,10308,10317,10316,10640,10641,10650,10649
207658,10308,10309,10318,10317,10641,10642,10651,10650
207659,10309,10310,10319,10318,10642,10643,10652,10651
207660,10310,10311,10320,10319,10643,10644,10653,10652
207661,10311,10312,10321,10320,10644,10645,10654,10653
207662,10312,10313,10322,10321,10645,10646,10655,10654
207663,10313,10314,10323,10322,10646,10647,10656,10655
207664,10315,10316,10325,10324,10648,10649,10658,10657
207665,10316,10317,10326,10325,10649,10650,10659,10658
207666,10317,10318,10327,10326,10650,10651,10660,10659
207667,10318,10319,10328,10327,10651,10652,10661,10660
207668,10319,10320,10329,10328,10652,10653,10662,10661
207669,10320,10321,10330,10329,10653,10654,10663,10662
207670,10321,10322,10331,10330,10654,10655,10664,10663
207671,10322,10323,10332,10331,10655,10656,10665,10664
207672,10324,10325,10334,10333,10657,10658,10667,10666
207673,10325,10326,10335,10334,10658,10659,10668,10667
207674,10326,10327,10336,10335,10659,10660,10669,10668
207675,10327,10328,10337,10336,10660,10661,10670,10669
207676,10328,10329,10338,10337,10661,10662,10671,10670
207677,10329,10330,10339,10338,10662,10663,10672,10671
207678,10330,10331,10340,10339,10663,10664,10673,10672
207679,10331,10332,10341,10340,10664,10665,10674,10673
207680,10333,10334,10343,10342,10666,10667,10676,10675
207681,10334,10335,10344,10343,10667,10668,10677,10676
207682,10335,10336,10345,10344,10668,10669,10678,10677
207683,10336,10337,10346,10345,10669,10670,10679,10678
207684,10337,10338,10347,10346,10670,10671,10680,10679
207685,10338,10339,10348,10347,10671,10672,10681,10680
207686,10339,10340,10349,10348,10672,10673,10682,10681
207687,10340,10341,10350,10349,10673,10674,10683,10682
207688,10342,10343,10352,10351,10675,10676,10685,10684
207689,10343,10344,10353,10352,10676,10677,10686,10685
207690,10344,10345,10354,10353,10677,10678,10687,10686
207691,10345,10346,10355,10354,10678,10679,10688,10687
207692,10346,10347,10356,10355,10679,10680,10689,10688
207693,10347,10348,10357,10356,10680,10681,10690,10689
207694,10348,10349,10358,10357,10681,10682,10691,10690
207695,10349,10350,10359,10358,10682,10683,10692,10691
207696,10351,10352,10361,10360,10684,10685,10694,10693
207697,10352,10353,10362,10361,10685,10686,10695,10694
207698,10353,10354,10363,10362,10686,10687,10696,10695
207699,10354,10355,10364,10363,10687,10688,10697,10696
207700,10355,10356,10365,10364,10688,10689,10698,10697
207701,10356,10357,10366,10365,10689,10690,10699,10698
207702,10357,10358,10367,10366,10690,10691,10700,10699
207703,10358,10359,10368,10367,10691,10692,10701,10700
207704,10360,10361,10370,10369,10693,10694,10703,10702
207705,10361,10362,10371,10370,10694,10695,10704,10703
207706,10362,10363,10372,10371,10695,10696,10705,10704
207707,10363,10364,10373,10372,10696,10697,10706,10705
207708,10364,10365,10374,10373,10697,10698,10707,10706
207709,10365,10366,10375,10374,10698,10699,10708,10707
207710,10366,10367,10376,10375,10699,10700,10709,10708
207711,10367,10368,10377,10376,10700,10701,10710,10709
207712,10369,10370,10379,10378,10702,10703,10712,10711
207713,10370,10371,10380,10379,10703,10704,10713,10712
207714,10371,10372,10381,10380,10704,10705,10714,10713
207715,10372,10373,10382,10381,10705,10706,10715,10714
207716,10373,10374,10383,10382,10706,10707,10716,10715
207717,10374,10375,10384,10383,10707,10708,10717,10716
207718,10375,10376,10385,10384,10708,10709,10718,10717
207719,10376,10377,10386,10385,10709,10710,10719,10718
207720,10378,10379,10388,10387,10711,10712,10721,10720
207721,10379,10380,10389,10388,10712,10713,10722,10721
207722,10380,10381,10390,10389,10713,10714,10723,10722
207723,10381,10382,10391,10390,10714,10715,10724,10723
207724,10382,10383,10392,10391,10715,10716,10725,10724
207725,10383,10384,10393,10392,10716,10717,10726,10725
207726,10384,10385,10394,10393,10717,10718,10727,10726
207727,10385,10386,10395,10394,10718,10719,10728,10727
207728,10387,10388,10397,10396,10720,10721,10730,10729
207729,10388,10389,10398,10397,10721,10722,10731,10730
207730,10389,10390,10399,10398,10722,10723,10732,10731
207731,10390,10391,10400,10399,10723,10724,10733,10732
207732,10391,10392,10401,10400,10724,10725,10734,10733
207733,10392,10393,10402,10401,10725,10726,10735,10734
207734,10393,10394,10403,10402,10726,10727,10736,10735
207735,10394,10395,10404,10403,10727,10728,10737,10736
207736,10396,10397,10406,10405,10729,10730,10739,10738
207737,10397,10398,10407,10406,10730,10731,10740,10739
207738,10398,10399,10408,10407,10731,10732,10741,10740
207739,10399,10400,10409,10408,10732,10733,10742,10741
207740,10400,10401,10410,10409,10733,10734,10743,10742
207741,10401,10402,10411,10410,10734,10735,10744,10743
207742,10402,10403,10412,10411,10735,10736,10745,10744
207743,10403,10404,10413,10412,10736,10737,10746,10745
207744,10405,10406,10415,10414,10738,10739,10748,10747
207745,10406,10407,10416,10415,10739,10740,10749,10748
207746,10407,10408,10417,10416,10740,10741,10750,10749
207747,10408,10409,10418,10417,10741,10742,10751,10750
207748,10409,10410,10419,10418,10742,10743,10752,10751
207749,10410,10411,10420,10419,10743,10744,10753,10752
207750,10411,10412,10421,10420,10744,10745,10754,10753
207751,10412,10413,10422,10421,10745,10746,10755,10754
207752,10414,10415,10424,10423,10747,10748,10757,10756
207753,10415,10416,10425,10424,10748,10749,10758,10757
207754,10416,10417,10426,10425,10749,10750,10759,10758
207755,10417,10418,10427,10426,10750,10751,10760,10759
207756,10418,10419,10428,10427,10751,10752,10761,10760
207757,10419,10420,10429,10428,10752,10753,10762,10761
207758,10420,10421,10430,10429,10753,10754,10763,10762
207759,10421,10422,10431,10430,10754,10755,10764,10763
207760,10423,10424,10433,10432,10756,10757,10766,10765
207761,10424,10425,10434,10433,10757,10758,10767,10766
207762,10425,10426,10435,10434,10758,10759,10768,10767
207763,10426,10427,10436,10435,10759,10760,10769,10768
207764,10427,10428,10437,10436,10760,10761,10770,10769
207765,10428,10429,10438,10437,10761,10762,10771,10770
207766,10429,10430,10439,10438,10762,10763,10772,10771
207767,10430,10431,10440,10439,10763,10764,10773,10772
207768,10432,10433,10442,10441,10765,10766,10775,10774
207769,10433,10434,10443,10442,10766,10767,10776,10775
207770,10434,10435,10444,10443,10767,10768,10777,10776
207771,10435,10436,10445,10444,10768,10769,10778,10777
207772,10436,10437,10446,10445,10769,10770,10779,10778
207773,10437,10438,10447,10446,10770,10771,10780,10779
207774,10438,10439,10448,10447,10771,10772,10781,10780
207775,10439,10440,10449,10448,10772,10773,10782,10781
207776,10450,10451,10460,10459,10783,10784,10793,10792
207777,10451,10452,10461,10460,10784,10785,10794,10793
207778,10452,10453,10462,10461,10785,10786,10795,10794
207779,10453,10454,10463,10462,10786,10787,10796,10795
207780,10454,10455,10464,10463,10787,10788,10797,10796
207781,10455,10456,10465,10464,10788,10789,10798,10797
207782,10456,10457,10466,10465,10789,10790,10799,10798
207783,10457,10458,10467,10466,10790,10791,10800,10799
207784,10459,10460,10469,10468,10792,10793,10802,10801
207785,10460,10461,10470,10469,10793,10794,10803,10802
207786,10461,10462,10471,10470,10794,10795,10804,10803
207787,10462,10463,10472,10471,10795,10796,10805,10804
207788,10463,10464,10473,10472,10796,10797,10806,10805
207789,10464,10465,10474,10473,10797,10798,10807,10806
207790,10465,10466,10475,10474,10798,10799,10808,10807
207791,10466,10467,10476,10475,10799,10800,10809,10808
207792,10468,10469,10478,10477,10801,10802,10811,10810
207793,10469,10470,10479,10478,10802,10803,10812,10811
207794,10470,10471,10480,10479,10803,10804,10813,10812
207795,10471,10472,10481,10480,10804,10805,10814,10813
207796,10472,10473,10482,10481,10805,10806,10815,10814
207797,10473,10474,10483,10482,10806,10807,10816,10815
207798,10474,10475,10484,10483,10807,10808,10817,10816
207799,10475,10476,10485,10484,10808,10809,10818,10817
207800,10477,10478,10487,10486,10810,10811,10820,10819
207801,10478,10479,10488,10487,10811,10812,10821,10820
207802,10479,10480,10489,10488,10812,10813,10822,10821
207803,10480,10481,10490,10489,10813,10814,10823,10822
207804,10481,10482,10491,10490,10814,10815,10824,10823
207805,10482,10483,10492,10491,10815,10816,10825,10824
207806,10483,10484,10493,10492,10816,10817,10826,10825
207807,10484,10485,10494,10493,10817,10818,10827,10826
207808,10486,10487,10496,10495,10819,10820,10829,10828
207809,10487,10488,10497,10496,10820,10821,10830,10829
207810,10488,10489,10498,10497,10821,10822,10831,10830
207811,10489,10490,10499,10498,10822,10823,10832,10831
207812,10490,10491,10500,10499,10823,10824,10833,10832
207813,10491,10492,10501,10500,10824,10825,10834,10833
207814,10492,10493,10502,10501,10825,10826,10835,10834
207815,10493,10494,10503,10502,10826,10827,10836,10835
207816,10495,10496,10505,10504,10828,10829,10838,10837
207817,10496,10497,10506,10505,10829,10830,10839,10838
207818,10497,10498,10507,10506,10830,10831,10840,10839
207819,10498,10499,10508,10507,10831,10832,10841,10840
207820,10499,10500,10509,10508,10832,10833,10842,10841
207821,10500,10501,10510,10509,10833,10834,10843,10842
207822,10501,10502,10511,10510,10834,10835,10844,10843
207823,10502,10503,10512,10511,10835,10836,10845,10844
207824,10504,10505,10514,10513,10837,10838,10847,10846
207825,10505,10506,10515,10514,10838,10839,10848,10847
207826,10506,10507,10516,10515,10839,10840,10849,10848
207827,10507,10508,10517,10516,10840,10841,10850,10849
207828,10508,10509,10518,10517,10841,10842,10851,10850
207829,10509,10510,10519,10518,10842,10843,10852,10851
207830,10510,10511,10520,10519,10843,10844,10853,10852
207831,10511,10512,10521,10520,10844,10845,10854,10853
207832,10513,10514,10523,10522,10846,10847,10856,10855
207833,10514,10515,10524,10523,10847,10848,10857,10856
207834,10515,10516,10525,10524,10848,10849,10858,10857
207835,10516,10517,10526,10525,10849,10850,10859,10858
207836,10517,10518,10527,10526,10850,10851,10860,10859
207837,10518,10519,10528,10527,10851,10852,10861,10860
207838,10519,10520,10529,10528,10852,10853,10862,10861
207839,10520,10521,10530,10529,10853,10854,10863,10862
207840,10522,10523,10532,10531,10855,10856,10865,10864
207841,10523,10524,10533,10532,10856,10857,10866,10865
207842,10524,10525,10534,10533,10857,10858,10867,10866
207843,10525,10526,10535,10534,10858,10859,10868,10867
207844,10526,10527,10536,10535,10859,10860,10869,10868
207845,10527,10528,10537,10536,10860,10861,10870,10869
207846,10528,10529,10538,10537,10861,10862,10871,10870
207847,10529,10530,10539,10538,10862,10863,10872,10871
207848,10531,10532,10541,10540,10864,10865,10874,10873
207849,10532,10533,10542,10541,10865,10866,10875,10874
207850,10533,10534,10543,10542,10866,10867,10876,10875
207851,10534,10535,10544,10543,10867,10868,10877,10876
207852,10535,10536,10545,10544,10868,10869,10878,10877
207853,10536,10537,10546,10545,10869,10870,10879,10878
207854,10537,10538,10547,10546,10870,10871,10880,10879
207855,10538,10539,10548,10547,10871,10872,10881,10880
207856,10540,10541,10550,10549,10873,10874,10883,10882
207857,10541,10542,10551,10550,10874,10875,10884,10883
207858,10542,10543,10552,10551,10875,10876,10885,10884
207859,10543,10544,10553,10552,10876,10877,10886,10885
207860,10544,10545,10554,10553,10877,10878,10887,10886
207861,10545,10546,10555,10554,10878,10879,10888,10887
207862,10546,10547,10556,10555,10879,10880,10889,10888
207863,10547,10548,10557,10556,10880,10881,10890,10889
207864,10549,10550,10559,10558,10882,10883,10892,10891
207865,10550,10551,10560,10559,10883,10884,10893,10892
207866,10551,10552,10561,10560,10884,10885,10894,10893
207867,10552,10553,10562,10561,10885,10886,10895,10894
207868,10553,10554,10563,10562,10886,10887,10896,10895
207869,10554,10555,10564,10563,10887,10888,10897,10896
207870,10555,10556,10565,10564,10888,10889,10898,10897
207871,10556,10557,10566,10565,10889,10890,10899,10898
207872,10558,10559,10568,10567,10891,10892,10901,10900
207873,10559,10560,10569,10568,10892,10893,10902,10901
207874,10560,10561,10570,10569,10893,10894,10903,10902
207875,10561,10562,10571,10570,10894,10895,10904,10903
207876,10562,10563,10572,10571,10895,10896,10905,10904
207877,10563,10564,10573,10572,10896,10897,10906,10905
207878,10564,10565,10574,10573,10897,10898,10907,10906
207879,10565,10566,10575,10574,10898,10899,10908,10907
207880,10567,10568,10577,10576,10900,10901,10910,10909
207881,10568,10569,10578,10577,10901,10902,10911,10910
207882,10569,10570,10579,10578,10902,10903,10912,10911
207883,10570,10571,10580,10579,10903,10904,10913,10912
207884,10571,10572,10581,10580,10904,10905,10914,10913
207885,10572,10573,10582,10581,10905,10906,10915,10914
207886,10573,10574,10583,10582,10906,10907,10916,10915
207887,10574,10575,10584,10583,10907,10908,10917,10916
207888,10576,10577,10586,10585,10909,10910,10919,10918
207889,10577,10578,10587,10586,10910,10911,10920,10919
207890,10578,10579,10588,10587,10911,10912,10921,10920
207891,10579,10580,10589,10588,10912,10913,10922,10921
207892,10580,10581,10590,10589,10913,10914,10923,10922
207893,10581,10582,10591,10590,10914,10915,10924,10923
207894,10582,10583,10592,10591,10915,10916,10925,10924
207895,10583,10584,10593,10592,10916,10917,10926,10925
207896,10585,10586,10595,10594,10918,10919,10928,10927
207897,10586,10587,10596,10595,10919,10920,10929,10928
207898,10587,10588,10597,10596,10920,10921,10930,10929
207899,10588,10589,10598,10597,10921,10922,10931,10930
207900,10589,10590,10599,10598,10922,10923,10932,10931
207901,10590,10591,10600,10599,10923,10924,10933,10932
207902,10591,10592,10601,10600,10924,10925,10934,10933
207903,10592,10593,10602,10601,10925,10926,10935,10934
207904,10594,10595,10604,10603,10927,10928,10937,10936
207905,10595,10596,10605,10604,10928,10929,10938,10937
207906,10596,10597,10606,10605,10929,10930,10939,10938
207907,10597,10598,10607,10606,10930,10931,10940,10939
207908,10598,10599,10608,10607,10931,10932,10941,10940
207909,10599,10600,10609,10608,10932,10933,10942,10941
207910,10600,10601,10610,10609,10933,10934,10943,10942
207911,10601,10602,10611,10610,10934,10935,10944,10943
207912,10603,10604,10613,10612,10936,10937,10946,10945
207913,10604,10605,10614,10613,10937,10938,10947,10946
207914,10605,10606,10615,10614,10938,10939,10948,10947
207915,10606,10607,10616,10615,10939,10940,10949,10948
207916,10607,10608,10617,10616,10940,10941,10950,10949
207917,10608,10609,10618,10617,10941,10942,10951,10950
207918,10609,10610,10619,10618,10942,10943,10952,10951
207919,10610,10611,10620,10619,10943,10944,10953,10952
207920,10612,10613,10622,10621,10945,10946,10955,10954
207921,10613,10614,10623,10622,10946,10947,10956,10955
207922,10614,10615,10624,10623,10947,10948,10957,10956
207923,10615,10616,10625,10624,10948,10949,10958,10957
207924,10616,10617,10626,10625,10949,10950,10959,10958
207925,10617,10618,10627,10626,10950,10951,10960,10959
207926,10618,10619,10628,10627,10951,10952,10961,10960
207927,10619,10620,10629,10628,10952,10953,10962,10961
207928,10621,10622,10631,10630,10954,10955,10964,10963
207929,10622,10623,10632,10631,10955,10956,10965,10964
207930,10623,10624,10633,10632,10956,10957,10966,10965
207931,10624,10625,10634,10633,10957,10958,10967,10966
207932,10625,10626,10635,10634,10958,10959,10968,10967
207933,10626,10627,10636,10635,10959,10960,10969,10968
207934,10627,10628,10637,10636,10960,10961,10970,10969
207935,10628,10629,10638,10637,10961,10962,10971,10970
207936,10630,10631,10640,10639,10963,10964,10973,10972
207937,10631,10632,10641,10640,10964,10965,10974,10973
207938,10632,10633,10642,10641,10965,10966,10975,10974
207939,10633,10634,10643,10642,10966,10967,10976,10975
207940,10634,10635,10644,10643,10967,10968,10977,10976
207941,10635,10636,10645,10644,10968,10969,10978,10977
207942,10636,10637,10646,10645,10969,10970,10979,10978
207943,10637,10638,10647,10646,10970,10971,10980,10979
207944,10639,10640,10649,10648,10972,10973,10982,10981
207945,10640,10641,10650,10649,10973,10974,10983,10982
207946,10641,10642,10651,10650,10974,10975,10984,10983
207947,10642,10643,10652,10651,10975,10976,10985,10984
207948,10643,10644,10653,10652,10976,10977,10986,10985
207949,10644,10645,10654,10653,10977,10978,10987,10986
207950,10645,10646,10655,10654,10978,10979,10988,10987
207951,10646,10647,10656,10655,10979,10980,10989,10988
207952,10648,10649,10658,10657,10981,10982,10991,10990
207953,10649,10650,10659,10658,10982,10983,10992,10991
207954,10650,10651,10660,10659,10983,10984,10993,10992
207955,10651,10652,10661,10660,10984,10985,10994,10993
207956,10652,10653,10662,10661,10985,10986,10995,10994
207957,10653,10654,10663,10662,10986,10987,10996,10995
207958,10654,10655,10664,10663,10987,10988,10997,10996
207959,10655,10656,10665,10664,10988,10989,10998,10997
207960,10657,10658,10667,10666,10990,10991,11000,10999
207961,10658,10659,10668,10667,10991,10992,11001,11000
207962,10659,10660,10669,10668,10992,10993,11002,11001
207963,10660,10661,10670,10669,10993,10994,11003,11002
207964,10661,10662,10671,10670,10994,10995,11004,11003
207965,10662,10663,10672,10671,10995,10996,11005,11004
207966,10663,10664,10673,10672,10996,10997,11006,11005
207967,10664,10665,10674,10673,10997,10998,11007,11006
207968,10666,10667,10676,10675,10999,11000,11009,11008
207969,10667,10668,10677,10676,11000,11001,11010,11009
207970,10668,10669,10678,10677,11001,11002,11011,11010
207971,10669,10670,10679,10678,11002,11003,11012,11011
207972,10670,10671,10680,10679,11003,11004,11013,11012
207973,10671,10672,10681,10680,11004,11005,11014,11013
207974,10672,10673,10682,10681,11005,11006,11015,11014
207975,10673,10674,10683,10682,11006,11007,11016,11015
207976,10675,10676,10685,10684,11008,11009,11018,11017
207977,10676,10677,10686,10685,11009,11010,11019,11018
207978,10677,10678,10687,10686,11010,11011,11020,11019
207979,10678,10679,10688,10687,11011,11012,11021,11020
207980,10679,10680,10689,10688,11012,11013,11022,11021
207981,10680,10681,10690,10689,11013,11014,11023,11022
207982,10681,10682,10691,10690,11014,11015,11024,11023
207983,10682,10683,10692,10691,11015,11016,11025,11024
207984,10684,10685,10694,10693,11017,11018,11027,11026
207985,10685,10686,10695,10694,11018,11019,11028,11027
207986,10686,10687,10696,10695,11019,11020,11029,11028
207987,10687,10688,10697,10696,11020,11021,11030,11029
207988,10688,10689,10698,10697,11021,11022,11031,11030
207989,10689,10690,10699,10698,11022,11023,11032,11031
207990,10690,10691,10700,10699,11023,11024,11033,11032
207991,10691,10692,10701,10700,11024,11025,11034,11033
207992,10693,10694,10703,10702,11026,11027,11036,11035
207993,10694,10695,10704,10703,11027,11028,11037,11036
207994,10695,10696,10705,10704,11028,11029,11038,11037
207995,10696,10697,10706,10705,11029,11030,11039,11038
207996,10697,10698,10707,10706,11030,11031,11040,11039
207997,10698,10699,10708,10707,11031,11032,11041,11040
207998,10699,10700,10709,10708,11032,11033,11042,11041
207999,10700,10701,10710,10709,11033,11034,11043,11042
208000,10702,10703,10712,10711,11035,11036,11045,11044
208001,10703,10704,10713,10712,11036,11037,11046,11045
208002,10704,10705,10714,10713,11037,11038,11047,11046
208003,10705,10706,10715,10714,11038,11039,11048,11047
208004,10706,10707,10716,10715,11039,11040,11049,11048
208005,10707,10708,10717,10716,11040,11041,11050,11049
208006,10708,10709,10718,10717,11041,11042,11051,11050
208007,10709,10710,10719,10718,11042,11043,11052,11051
208008,10711,10712,10721,10720,11044,11045,11054,11053
208009,10712,10713,10722,10721,11045,11046,11055,11054
208010,10713,10714,10723,10722,11046,11047,11056,11055
208011,10714,10715,10724,10723,11047,11048,11057,11056
208012,10715,10716,10725,10724,11048,11049,11058,11057
208013,10716,10717,10726,10725,11049,11050,11059,11058
208014,10717,10718,10727,10726,11050,11051,11060,11059
208015,10718,10719,10728,10727,11051,11052,11061,11060
208016,10720,10721,10730,10729,11053,11054,11063,11062
208017,10721,10722,10731,10730,11054,11055,11064,11063
208018,10722,10723,10732,10731,11055,11056,11065,11064
208019,10723,10724,10733,10732,11056,11057,11066,11065
208020,10724,10725,10734,10733,11057,11058,11067,11066
208021,10725,10726,10735,10734,11058,11059,11068,11067
208022,10726,10727,10736,10735,11059,11060,11069,11068
208023,10727,10728,10737,10736,11060,11061,11070,11069
208024,10729,10730,10739,10738,11062,11063,11072,11071
208025,10730,10731,10740,10739,11063,11064,11073,11072
208026,10731,10732,10741,10740,11064,11065,11074,11073
208027,10732,10733,10742,10741,11065,11066,11075,11074
208028,10733,10734,10743,10742,11066,11067,11076,11075
208029,10734,10735,10744,10743,11067,11068,11077,11076
208030,10735,10736,10745,10744,11068,11069,11078,11077
208031,10736,10737,10746,10745,11069,11070,11079,11078
208032,10738,10739,10748,10747,11071,11072,11081,11080
208033,10739,10740,10749,10748,11072,11073,11082,11081
208034,10740,10741,10750,10749,11073,11074,11083,11082
208035,10741,10742,10751,10750,11074,11075,11084,11083
208036,10742,10743,10752,10751,11075,11076,11085,11084
208037,10743,10744,10753,10752,11076,11077,11086,11085
208038,10744,10745,10754,10753,11077,11078,11087,11086
208039,10745,10746,10755,10754,11078,11079,11088,11087
208040,10747,10748,10757,10756,11080,11081,11090,11089
208041,10748,10749,10758,10757,11081,11082,11091,11090
208042,10749,10750,10759,10758,11082,11083,11092,11091
208043,10750,10751,10760,10759,11083,11084,11093,11092
208044,10751,10752,10761,10760,11084,11085,11094,11093
208045,10752,10753,10762,10761,11085,11086,11095,11094
208046,10753,10754,10763,10762,11086,11087,11096,11095
208047,10754,10755,10764,10763,11087,11088,11097,11096
208048,10756,10757,10766,10765,11089,11090,11099,11098
208049,10757,10758,10767,10766,11090,11091,11100,11099
208050,10758,10759,10768,10767,11091,11092,11101,11100
208051,10759,10760,10769,10768,11092,11093,11102,11101
208052,10760,10761,10770,10769,11093,11094,11103,11102
208053,10761,10762,10771,10770,11094,11095,11104,11103
208054,10762,10763,10772,10771,11095,11096,11105,11104
208055,10763,10764,10773,10772,11096,11097,11106,11105
208056,10765,10766,10775,10774,11098,11099,11108,11107
208057,10766,10767,10776,10775,11099,11100,11109,11108
208058,10767,10768,10777,10776,11100,11101,11110,11109
208059,10768,10769,10778,10777,11101,11102,11111,11110
208060,10769,10770,10779,10778,11102,11103,11112,11111
208061,10770,10771,10780,10779,11103,11104,11113,11112
208062,10771,10772,10781,10780,11104,11105,11114,11113
208063,10772,10773,10782,10781,11105,11106,11115,11114
208064,10783,10784,10793,10792,11116,11117,11126,11125
208065,10784,10785,10794,10793,11117,11118,11127,11126
208066,10785,10786,10795,10794,11118,11119,11128,11127
208067,10786,10787,10796,10795,11119,11120,11129,11128
208068,10787,10788,10797,10796,11120,11121,11130,11129
208069,10788,10789,10798,10797,11121,11122,11131,11130
208070,10789,10790,10799,10798,11122,11123,11132,11131
208071,10790,10791,10800,10799,11123,11124,11133,11132
208072,10792,10793,10802,10801,11125,11126,11135,11134
208073,10793,10794,10803,10802,11126,11127,11136,11135
208074,10794,10795,10804,10803,11127,11128,11137,11136
208075,10795,10796,10805,10804,11128,11129,11138,11137
208076,10796,10797,10806,10805,11129,11130,11139,11138
208077,10797,10798,10807,10806,11130,11131,11140,11139
208078,10798,10799,10808,10807,11131,11132,11141,11140
208079,10799,10800,10809,10808,11132,11133,11142,11141
208080,10801,10802,10811,10810,11134,11135,11144,11143
208081,10802,10803,10812,10811,11135,11136,11145,11144
208082,10803,10804,10813,10812,11136,11137,11146,11145
208083,10804,10805,10814,10813,11137,11138,11147,11146
208084,10805,10806,10815,10814,11138,11139,11148,11147
208085,10806,10807,10816,10815,11139,11140,11149,11148
208086,10807,10808,10817,10816,11140,11141,11150,11149
208087,10808,10809,10818,10817,11141,11142,11151,11150
208088,10810,10811,10820,10819,11143,11144,11153,11152
208089,10811,10812,10821,10820,11144,11145,11154,11153
208090,10812,10813,10822,10821,11145,11146,11155,11154
208091,10813,10814,10823,10822,11146,11147,11156,11155
208092,10814,10815,10824,10823,11147,11148,11157,11156
208093,10815,10816,10825,10824,11148,11149,11158,11157
208094,10816,10817,10826,10825,11149,11150,11159,11158
208095,10817,10818,10827,10826,11150,11151,11160,11159
208096,10819,10820,10829,10828,11152,11153,11162,11161
208097,10820,10821,10830,10829,11153,11154,11163,11162
208098,10821,10822,10831,10830,11154,11155,11164,11163
208099,10822,10823,10832,10831,11155,11156,11165,11164
208100,10823,10824,10833,10832,11156,11157,11166,11165
208101,10824,10825,10834,10833,11157,11158,11167,11166
208102,10825,10826,10835,10834,11158,11159,11168,11167
208103,10826,10827,10836,10835,11159,11160,11169,11168
208104,10828,10829,10838,10837,11161,11162,11171,11170
208105,10829,10830,10839,10838,11162,11163,11172,11171
208106,10830,10831,10840,10839,11163,11164,11173,11172
208107,10831,10832,10841,10840,11164,11165,11174,11173
208108,10832,10833,10842,10841,11165,11166,11175,11174
208109,10833,10834,10843,10842,11166,11167,11176,11175
208110,10834,10835,10844,10843,11167,11168,11177,11176
208111,10835,10836,10845,10844,11168,11169,11178,11177
208112,10837,10838,10847,10846,11170,11171,11180,11179
208113,10838,10839,10848,10847,11171,11172,11181,11180
208114,10839,10840,10849,10848,11172,11173,11182,11181
208115,10840,10841,10850,10849,11173,11174,11183,11182
208116,10841,10842,10851,10850,11174,11175,11184,11183
208117,10842,10843,10852,10851,11175,11176,11185,11184
208118,10843,10844,10853,10852,11176,11177,11186,11185
208119,10844,10845,10854,10853,11177,11178,11187,11186
208120,10846,10847,10856,10855,11179,11180,11189,11188
208121,10847,10848,10857,10856,11180,11181,11190,11189
208122,10848,10849,10858,10857,11181,11182,11191,11190
208123,10849,10850,10859,10858,11182,11183,11192,11191
208124,10850,10851,10860,10859,11183,11184,11193,11192
208125,10851,10852,10861,10860,11184,11185,11194,11193
208126,10852,10853,10862,10861,11185,11186,11195,11194
208127,10853,10854,10863,10862,11186,11187,11196,11195
208128,10855,10856,10865,10864,11188,11189,11198,11197
208129,10856,10857,10866,10865,11189,11190,11199,11198
208130,10857,10858,10867,10866,11190,11191,11200,11199
208131,10858,10859,10868,10867,11191,11192,11201,11200
208132,10859,10860,10869,10868,11192,11193,11202,11201
208133,10860,10861,10870,10869,11193,11194,11203,11202
208134,10861,10862,10871,10870,11194,11195,11204,11203
208135,10862,10863,10872,10871,11195,11196,11205,11204
208136,10864,10865,10874,10873,11197,11198,11207,11206
208137,10865,10866,10875,10874,11198,11199,11208,11207
208138,10866,10867,10876,10875,11199,11200,11209,11208
208139,10867,10868,10877,10876,11200,11201,11210,11209
208140,10868,10869,10878,10877,11201,11202,11211,11210
208141,10869,10870,10879,10878,11202,11203,11212,11211
208142,10870,10871,10880,10879,11203,11204,11213,11212
208143,10871,10872,10881,10880,11204,11205,11214,11213
208144,10873,10874,10883,10882,11206,11207,11216,11215
208145,10874,10875,10884,10883,11207,11208,11217,11216
208146,10875,10876,10885,10884,11208,11209,11218,11217
208147,10876,10877,10886,10885,11209,11210,11219,11218
208148,10877,10878,10887,10886,11210,11211,11220,11219
208149,10878,10879,10888,10887,11211,11212,11221,11220
208150,10879,10880,10889,10888,11212,11213,11222,11221
208151,10880,10881,10890,10889,11213,11214,11223,11222
208152,10882,10883,10892,10891,11215,11216,11225,11224
208153,10883,10884,10893,10892,11216,11217,11226,11225
208154,10884,10885,10894,10893,11217,11218,11227,11226
208155,10885,10886,10895,10894,11218,11219,11228,11227
208156,10886,10887,10896,10895,11219,11220,11229,11228
208157,10887,10888,10897,10896,11220,11221,11230,11229
208158,10888,10889,10898,10897,11221,11222,11231,11230
208159,10889,10890,10899,10898,11222,11223,11232,11231
208160,10891,10892,10901,10900,11224,11225,11234,11233
208161,10892,10893,10902,10901,11225,11226,11235,11234
208162,10893,10894,10903,10902,11226,11227,11236,11235
208163,10894,10895,10904,10903,11227,11228,11237,11236
208164,10895,10896,10905,10904,11228,11229,11238,11237
208165,10896,10897,10906,10905,11229,11230,11239,11238
208166,10897,10898,10907,10906,11230,11231,11240,11239
208167,10898,10899,10908,10907,11231,11232,11241,11240
208168,10900,10901,10910,10909,11233,11234,11243,11242
208169,10901,10902,10911,10910,11234,11235,11244,11243
208170,10902,10903,10912,10911,11235,11236,11245,11244
208171,10903,10904,10913,10912,11236,11237,11246,11245
208172,10904,10905,10914,10913,11237,11238,11247,11246
208173,10905,10906,10915,10914,11238,11239,11248,11247
208174,10906,10907,10916,10915,11239,11240,11249,11248
208175,10907,10908,10917,10916,11240,11241,11250,11249
208176,10909,10910,10919,10918,11242,11243,11252,11251
208177,10910,10911,10920,10919,11243,11244,11253,11252
208178,10911,10912,10921,10920,11244,11245,11254,11253
208179,10912,10913,10922,10921,11245,11246,11255,11254
208180,10913,10914,10923,10922,11246,11247,11256,11255
208181,10914,10915,10924,10923,11247,11248,11257,11256
208182,10915,10916,10925,10924,11248,11249,11258,11257
208183,10916,10917,10926,10925,11249,11250,11259,11258
208184,10918,10919,10928,10927,11251,11252,11261,11260
208185,10919,10920,10929,10928,11252,11253,11262,11261
208186,10920,10921,10930,10929,11253,11254,11263,11262
208187,10921,10922,10931,10930,11254,11255,11264,11263
208188,10922,10923,10932,10931,11255,11256,11265,11264
208189,10923,10924,10933,10932,11256,11257,11266,11265
208190,10924,10925,10934,10933,11257,11258,11267,11266
208191,10925,10926,10935,10934,11258,11259,11268,11267
208192,10927,10928,10937,10936,11260,11261,11270,11269
208193,10928,10929,10938,10937,11261,11262,11271,11270
208194,10929,10930,10939,10938,11262,11263,11272,11271
208195,10930,10931,10940,10939,11263,11264,11273,11272
208196,10931,10932,10941,10940,11264,11265,11274,11273
208197,10932,10933,10942,10941,11265,11266,11275,11274
208198,10933,10934,10943,10942,11266,11267,11276,11275
208199,10934,10935,10944,10943,11267,11268,11277,11276
208200,10936,10937,10946,10945,11269,11270,11279,11278
208201,10937,10938,10947,10946,11270,11271,11280,11279
208202,10938,10939,10948,10947,11271,11272,11281,11280
208203,10939,10940,10949,10948,11272,11273,11282,11281
208204,10940,10941,10950,10949,11273,11274,11283,11282
208205,10941,10942,10951,10950,11274,11275,11284,11283
208206,10942,10943,10952,10951,11275,11276,11285,11284
208207,10943,10944,10953,10952,11276,11277,11286,11285
208208,10945,10946,10955,10954,11278,11279,11288,11287
208209,10946,10947,10956,10955,11279,11280,11289,11288
208210,10947,10948,10957,10956,11280,11281,11290,11289
208211,10948,10949,10958,10957,11281,11282,11291,11290
208212,10949,10950,10959,10958,11282,11283,11292,11291
208213,10950,10951,10960,10959,11283,11284,11293,11292
208214,10951,10952,10961,10960,11284,11285,11294,11293
208215,10952,10953,10962,10961,11285,11286,11295,11294
208216,10954,10955,10964,10963,11287,11288,11297,11296
208217,10955,10956,10965,10964,11288,11289,11298,11297
208218,10956,10957,10966,10965,11289,11290,11299,11298
208219,10957,10958,10967,10966,11290,11291,11300,11299
208220,10958,10959,10968,10967,11291,11292,11301,11300
208221,10959,10960,10969,10968,11292,11293,11302,11301
208222,10960,10961,10970,10969,11293,11294,11303,11302
208223,10961,10962,10971,10970,11294,11295,11304,11303
208224,10963,10964,10973,10972,11296,11297,11306,11305
208225,10964,10965,10974,10973,11297,11298,11307,11306
208226,10965,10966,10975,10974,11298,11299,11308,11307
208227,10966,10967,10976,10975,11299,11300,11309,11308
208228,10967,10968,10977,10976,11300,11301,11310,11309
208229,10968,10969,10978,10977,11301,11302,11311,11310
208230,10969,10970,10979,10978,11302,11303,11312,11311
208231,10970,10971,10980,10979,11303,11304,11313,11312
208232,10972,10973,10982,10981,11305,11306,11315,11314
208233,10973,10974,10983,10982,11306,11307,11316,11315
208234,10974,10975,10984,10983,11307,11308,11317,11316
208235,10975,10976,10985,10984,11308,11309,11318,11317
208236,10976,10977,10986,10985,11309,11310,11319,11318
208237,10977,10978,10987,10986,11310,11311,11320,11319
208238,10978,10979,10988,10987,11311,11312,11321,11320
208239,10979,10980,10989,10988,11312,11313,11322,11321
208240,10981,10982,10991,10990,11314,11315,11324,11323
208241,10982,10983,10992,10991,11315,11316,11325,11324
208242,10983,10984,10993,10992,11316,11317,11326,11325
208243,10984,10985,10994,10993,11317,11318,11327,11326
208244,10985,10986,10995,10994,11318,11319,11328,11327
208245,10986,10987,10996,10995,11319,11320,11329,11328
208246,10987,10988,10997,10996,11320,11321,11330,11329
208247,10988,10989,10998,10997,11321,11322,11331,11330
208248,10990,10991,11000,10999,11323,11324,11333,11332
208249,10991,10992,11001,11000,11324,11325,11334,11333
208250,10992,10993,11002,11001,11325,11326,11335,11334
208251,10993,10994,11003,11002,11326,11327,11336,11335
208252,10994,10995,11004,11003,11327,11328,11337,11336
208253,10995,10996,11005,11004,11328,11329,11338,11337
208254,10996,10997,11006,11005,11329,11330,11339,11338
208255,10997,10998,11007,11006,11330,11331,11340,11339
208256,10999,11000,11009,11008,11332,11333,11342,11341
208257,11000,11001,11010,11009,11333,11334,11343,11342
208258,11001,11002,11011,11010,11334,11335,11344,11343
208259,11002,11003,11012,11011,11335,11336,11345,11344
208260,11003,11004,11013,11012,11336,11337,11346,11345
208261,11004,11005,11014,11013,11337,11338,11347,11346
208262,11005,11006,11015,11014,11338,11339,11348,11347
208263,11006,11007,11016,11015,11339,11340,11349,11348
208264,11008,11009,11018,11017,11341,11342,11351,11350
208265,11009,11010,11019,11018,11342,11343,11352,11351
208266,11010,11011,11020,11019,11343,11344,11353,11352
208267,11011,11012,11021,11020,11344,11345,11354,11353
208268,11012,11013,11022,11021,11345,11346,11355,11354
208269,11013,11014,11023,11022,11346,11347,11356,11355
208270,11014,11015,11024,11023,11347,11348,11357,11356
208271,11015,11016,11025,11024,11348,11349,11358,11357
208272,11017,11018,11027,11026,11350,11351,11360,11359
208273,11018,11019,11028,11027,11351,11352,11361,11360
208274,11019,11020,11029,11028,11352,11353,11362,11361
208275,11020,11021,11030,11029,11353,11354,11363,11362
208276,11021,11022,11031,11030,11354,11355,11364,11363
208277,11022,11023,11032,11031,11355,11356,11365,11364
208278,11023,11024,11033,11032,11356,11357,11366,11365
208279,11024,11025,11034,11033,11357,11358,11367,11366
208280,11026,11027,11036,11035,11359,11360,11369,11368
208281,11027,11028,11037,11036,11360,11361,11370,11369
208282,11028,11029,11038,11037,11361,11362,11371,11370
208283,11029,11030,11039,11038,11362,11363,11372,11371
208284,11030,11031,11040,11039,11363,11364,11373,11372
208285,11031,11032,11041,11040,11364,11365,11374,11373
208286,11032,11033,11042,11041,11365,11366,11375,11374
208287,11033,11034,11043,11042,11366,11367,11376,11375
208288,11035,11036,11045,11044,11368,11369,11378,11377
208289,11036,11037,11046,11045,11369,11370,11379,11378
208290,11037,11038,11047,11046,11370,11371,11380,11379
208291,11038,11039,11048,11047,11371,11372,11381,11380
208292,11039,11040,11049,11048,11372,11373,11382,11381
208293,11040,11041,11050,11049,11373,11374,11383,11382
208294,11041,11042,11051,11050,11374,11375,11384,11383
208295,11042,11043,11052,11051,11375,11376,11385,11384
208296,11044,11045,11054,11053,11377,11378,11387,11386
208297,11045,11046,11055,11054,11378,11379,11388,11387
208298,11046,11047,11056,11055,11379,11380,11389,11388
208299,11047,11048,11057,11056,11380,11381,11390,11389
208300,11048,11049,11058,11057,11381,11382,11391,11390
208301,11049,11050,11059,11058,11382,11383,11392,11391
208302,11050,11051,11060,11059,11383,11384,11393,11392
208303,11051,11052,11061,11060,11384,11385,11394,11393
208304,11053,11054,11063,11062,11386,11387,11396,11395
208305,11054,11055,11064,11063,11387,11388,11397,11396
208306,11055,11056,11065,11064,11388,11389,11398,11397
208307,11056,11057,11066,11065,11389,11390,11399,11398
208308,11057,11058,11067,11066,11390,11391,11400,11399
208309,11058,11059,11068,11067,11391,11392,11401,11400
208310,11059,11060,11069,11068,11392,11393,11402,11401
208311,11060,11061,11070,11069,11393,11394,11403,11402
208312,11062,11063,11072,11071,11395,11396,11405,11404
208313,11063,11064,11073,11072,11396,11397,11406,11405
208314,11064,11065,11074,11073,11397,11398,11407,11406
208315,11065,11066,11075,11074,11398,11399,11408,11407
208316,11066,11067,11076,11075,11399,11400,11409,11408
208317,11067,11068,11077,11076,11400,11401,11410,11409
208318,11068,11069,11078,11077,11401,11402,11411,11410
208319,11069,11070,11079,11078,11402,11403,11412,11411
208320,11071,11072,11081,11080,11404,11405,11414,11413
208321,11072,11073,11082,11081,11405,11406,11415,11414
208322,11073,11074,11083,11082,11406,11407,11416,11415
208323,11074,11075,11084,11083,11407,11408,11417,11416
208324,11075,11076,11085,11084,11408,11409,11418,11417
208325,11076,11077,11086,11085,11409,11410,11419,11418
208326,11077,11078,11087,11086,11410,11411,11420,11419
208327,11078,11079,11088,11087,11411,11412,11421,11420
208328,11080,11081,11090,11089,11413,11414,11423,11422
208329,11081,11082,11091,11090,11414,11415,11424,11423
208330,11082,11083,11092,11091,11415,11416,11425,11424
208331,11083,11084,11093,11092,11416,11417,11426,11425
208332,11084,11085,11094,11093,11417,11418,11427,11426
208333,11085,11086,11095,11094,11418,11419,11428,11427
208334,11086,11087,11096,11095,11419,11420,11429,11428
208335,11087,11088,11097,11096,11420,11421,11430,11429
208336,11089,11090,11099,11098,11422,11423,11432,11431
208337,11090,11091,11100,11099,11423,11424,11433,11432
208338,11091,11092,11101,11100,11424,11425,11434,11433
208339,11092,11093,11102,11101,11425,11426,11435,11434
208340,11093,11094,11103,11102,11426,11427,11436,11435
208341,11094,11095,11104,11103,11427,11428,11437,11436
208342,11095,11096,11105,11104,11428,11429,11438,11437
208343,11096,11097,11106,11105,11429,11430,11439,11438
208344,11098,11099,11108,11107,11431,11432,11441,11440
208345,11099,11100,11109,11108,11432,11433,11442,11441
208346,11100,11101,11110,11109,11433,11434,11443,11442
208347,11101,11102,11111,11110,11434,11435,11444,11443
208348,11102,11103,11112,11111,11435,11436,11445,11444
208349,11103,11104,11113,11112,11436,11437,11446,11445
208350,11104,11105,11114,11113,11437,11438,11447,11446
208351,11105,11106,11115,11114,11438,11439,11448,11447
208352,11116,11117,11126,11125,11449,11450,11459,11458
208353,11117,11118,11127,11126,11450,11451,11460,11459
208354,11118,11119,11128,11127,11451,11452,11461,11460
208355,11119,11120,11129,11128,11452,11453,11462,11461
208356,11120,11121,11130,11129,11453,11454,11463,11462
208357,11121,11122,11131,11130,11454,11455,11464,11463
208358,11122,11123,11132,11131,11455,11456,11465,11464
208359,11123,11124,11133,11132,11456,11457,11466,11465
208360,11125,11126,11135,11134,11458,11459,11468,11467
208361,11126,11127,11136,11135,11459,11460,11469,11468
208362,11127,11128,11137,11136,11460,11461,11470,11469
208363,11128,11129,11138,11137,11461,11462,11471,11470
208364,11129,11130,11139,11138,11462,11463,11472,11471
208365,11130,11131,11140,11139,11463,11464,11473,11472
208366,11131,11132,11141,11140,11464,11465,11474,11473
208367,11132,11133,11142,11141,11465,11466,11475,11474
208368,11134,11135,11144,11143,11467,11468,11477,11476
208369,11135,11136,11145,11144,11468,11469,11478,11477
208370,11136,11137,11146,11145,11469,11470,11479,11478
208371,11137,11138,11147,11146,11470,11471,11480,11479
208372,11138,11139,11148,11147,11471,11472,11481,11480
208373,11139,11140,11149,11148,11472,11473,11482,11481
208374,11140,11141,11150,11149,11473,11474,11483,11482
208375,11141,11142,11151,11150,11474,11475,11484,11483
208376,11143,11144,11153,11152,11476,11477,11486,11485
208377,11144,11145,11154,11153,11477,11478,11487,11486
208378,11145,11146,11155,11154,11478,11479,11488,11487
208379,11146,11147,11156,11155,11479,11480,11489,11488
208380,11147,11148,11157,11156,11480,11481,11490,11489
208381,11148,11149,11158,11157,11481,11482,11491,11490
208382,11149,11150,11159,11158,11482,11483,11492,11491
208383,11150,11151,11160,11159,11483,11484,11493,11492
208384,11152,11153,11162,11161,11485,11486,11495,11494
208385,11153,11154,11163,11162,11486,11487,11496,11495
208386,11154,11155,11164,11163,11487,11488,11497,11496
208387,11155,11156,11165,11164,11488,11489,11498,11497
208388,11156,11157,11166,11165,11489,11490,11499,11498
208389,11157,11158,11167,11166,11490,11491,11500,11499
208390,11158,11159,11168,11167,11491,11492,11501,11500
208391,11159,11160,11169,11168,11492,11493,11502,11501
208392,11161,11162,11171,11170,11494,11495,11504,11503
208393,11162,11163,11172,11171,11495,11496,11505,11504
208394,11163,11164,11173,11172,11496,11497,11506,11505
208395,11164,11165,11174,11173,11497,11498,11507,11506
208396,11165,11166,11175,11174,11498,11499,11508,11507
208397,11166,11167,11176,11175,11499,11500,11509,11508
208398,11167,11168,11177,11176,11500,11501,11510,11509
208399,11168,11169,11178,11177,11501,11502,11511,11510
208400,11170,11171,11180,11179,11503,11504,11513,11512
208401,11171,11172,11181,11180,11504,11505,11514,11513
208402,11172,11173,11182,11181,11505,11506,11515,11514
208403,11173,11174,11183,11182,11506,11507,11516,11515
208404,11174,11175,11184,11183,11507,11508,11517,11516
208405,11175,11176,11185,11184,11508,11509,11518,11517
208406,11176,11177,11186,11185,11509,11510,11519,11518
208407,11177,11178,11187,11186,11510,11511,11520,11519
208408,11179,11180,11189,11188,11512,11513,11522,11521
208409,11180,11181,11190,11189,11513,11514,11523,11522
208410,11181,11182,11191,11190,11514,11515,11524,11523
208411,11182,11183,11192,11191,11515,11516,11525,11524
208412,11183,11184,11193,11192,11516,11517,11526,11525
208413,11184,11185,11194,11193,11517,11518,11527,11526
208414,11185,11186,11195,11194,11518,11519,11528,11527
208415,11186,11187,11196,11195,11519,11520,11529,11528
208416,11188,11189,11198,11197,11521,11522,11531,11530
208417,11189,11190,11199,11198,11522,11523,11532,11531
208418,11190,11191,11200,11199,11523,11524,11533,11532
208419,11191,11192,11201,11200,11524,11525,11534,11533
208420,11192,11193,11202,11201,11525,11526,11535,11534
208421,11193,11194,11203,11202,11526,11527,11536,11535
208422,11194,11195,11204,11203,11527,11528,11537,11536
208423,11195,11196,11205,11204,11528,11529,11538,11537
208424,11197,11198,11207,11206,11530,11531,11540,11539
208425,11198,11199,11208,11207,11531,11532,11541,11540
208426,11199,11200,11209,11208,11532,11533,11542,11541
208427,11200,11201,11210,11209,11533,11534,11543,11542
208428,11201,11202,11211,11210,11534,11535,11544,11543
208429,11202,11203,11212,11211,11535,11536,11545,11544
208430,11203,11204,11213,11212,11536,11537,11546,11545
208431,11204,11205,11214,11213,11537,11538,11547,11546
208432,11206,11207,11216,11215,11539,11540,11549,11548
208433,11207,11208,11217,11216,11540,11541,11550,11549
208434,11208,11209,11218,11217,11541,11542,11551,11550
208435,11209,11210,11219,11218,11542,11543,11552,11551
208436,11210,11211,11220,11219,11543,11544,11553,11552
208437,11211,11212,11221,11220,11544,11545,11554,11553
208438,11212,11213,11222,11221,11545,11546,11555,11554
208439,11213,11214,11223,11222,11546,11547,11556,11555
208440,11215,11216,11225,11224,11548,11549,11558,11557
208441,11216,11217,11226,11225,11549,11550,11559,11558
208442,11217,11218,11227,11226,11550,11551,11560,11559
208443,11218,11219,11228,11227,11551,11552,11561,11560
208444,11219,11220,11229,11228,11552,11553,11562,11561
208445,11220,11221,11230,11229,11553,11554,11563,11562
208446,11221,11222,11231,11230,11554,11555,11564,11563
208447,11222,11223,11232,11231,11555,11556,11565,11564
208448,11224,11225,11234,11233,11557,11558,11567,11566
208449,11225,11226,11235,11234,11558,11559,11568,11567
208450,11226,11227,11236,11235,11559,11560,11569,11568
208451,11227,11228,11237,11236,11560,11561,11570,11569
208452,11228,11229,11238,11237,11561,11562,11571,11570
208453,11229,11230,11239,11238,11562,11563,11572,11571
208454,11230,11231,11240,11239,11563,11564,11573,11572
208455,11231,11232,11241,11240,11564,11565,11574,11573
208456,11233,11234,11243,11242,11566,11567,11576,11575
208457,11234,11235,11244,11243,11567,11568,11577,11576
208458,11235,11236,11245,11244,11568,11569,11578,11577
208459,11236,11237,11246,11245,11569,11570,11579,11578
208460,11237,11238,11247,11246,11570,11571,11580,11579
208461,11238,11239,11248,11247,11571,11572,11581,11580
208462,11239,11240,11249,11248,11572,11573,11582,11581
208463,11240,11241,11250,11249,11573,11574,11583,11582
208464,11242,11243,11252,11251,11575,11576,11585,11584
208465,11243,11244,11253,11252,11576,11577,11586,11585
208466,11244,11245,11254,11253,11577,11578,11587,11586
208467,11245,11246,11255,11254,11578,11579,11588,11587
208468,11246,11247,11256,11255,11579,11580,11589,11588
208469,11247,11248,11257,11256,11580,11581,11590,11589
208470,11248,11249,11258,11257,11581,11582,11591,11590
208471,11249,11250,11259,11258,11582,11583,11592,11591
208472,11251,11252,11261,11260,11584,11585,11594,11593
208473,11252,11253,11262,11261,11585,11586,11595,11594
208474,11253,11254,11263,11262,11586,11587,11596,11595
208475,11254,11255,11264,11263,11587,11588,11597,11596
208476,11255,11256,11265,11264,11588,11589,11598,11597
208477,11256,11257,11266,11265,11589,11590,11599,11598
208478,11257,11258,11267,11266,11590,11591,11600,11599
208479,11258,11259,11268,11267,11591,11592,11601,11600
208480,11260,11261,11270,11269,11593,11594,11603,11602
208481,11261,11262,11271,11270,11594,11595,11604,11603
208482,11262,11263,11272,11271,11595,11596,11605,11604
208483,11263,11264,11273,11272,11596,11597,11606,11605
208484,11264,11265,11274,11273,11597,11598,11607,11606
208485,11265,11266,11275,11274,11598,11599,11608,11607
208486,11266,11267,11276,11275,11599,11600,11609,11608
208487,11267,11268,11277,11276,11600,11601,11610,11609
208488,11269,11270,11279,11278,11602,11603,11612,11611
208489,11270,11271,11280,11279,11603,11604,11613,11612
208490,11271,11272,11281,11280,11604,11605,11614,11613
208491,11272,11273,11282,11281,11605,11606,11615,11614
208492,11273,11274,11283,11282,11606,11607,11616,11615
208493,11274,11275,11284,11283,11607,11608,11617,11616
208494,11275,11276,11285,11284,11608,11609,11618,11617
208495,11276,11277,11286,11285,11609,11610,11619,11618
208496,11278,11279,11288,11287,11611,11612,11621,11620
208497,11279,11280,11289,11288,11612,11613,11622,11621
208498,11280,11281,11290,11289,11613,11614,11623,11622
208499,11281,11282,11291,11290,11614,11615,11624,11623
208500,11282,11283,11292,11291,11615,11616,11625,11624
208501,11283,11284,11293,11292,11616,11617,11626,11625
208502,11284,11285,11294,11293,11617,11618,11627,11626
208503,11285,11286,11295,11294,11618,11619,11628,11627
208504,11287,11288,11297,11296,11620,11621,11630,11629
208505,11288,11289,11298,11297,11621,11622,11631,11630
208506,11289,11290,11299,11298,11622,11623,11632,11631
208507,11290,11291,11300,11299,11623,11624,11633,11632
208508,11291,11292,11301,11300,11624,11625,11634,11633
208509,11292,11293,11302,11301,11625,11626,11635,11634
208510,11293,11294,11303,11302,11626,11627,11636,11635
208511,11294,11295,11304,11303,11627,11628,11637,11636
208512,11296,11297,11306,11305,11629,11630,11639,11638
208513,11297,11298,11307,11306,11630,11631,11640,11639
208514,11298,11299,11308,11307,11631,11632,11641,11640
208515,11299,11300,11309,11308,11632,11633,11642,11641
208516,11300,11301,11310,11309,11633,11634,11643,11642
208517,11301,11302,11311,11310,11634,11635,11644,11643
208518,11302,11303,11312,11311,11635,11636,11645,11644
208519,11303,11304,11313,11312,11636,11637,11646,11645
208520,11305,11306,11315,11314,11638,11639,11648,11647
208521,11306,11307,11316,11315,11639,11640,11649,11648
208522,11307,11308,11317,11316,11640,11641,11650,11649
208523,11308,11309,11318,11317,11641,11642,11651,11650
208524,11309,11310,11319,11318,11642,11643,11652,11651
208525,11310,11311,11320,11319,11643,11644,11653,11652
208526,11311,11312,11321,11320,11644,11645,11654,11653
208527,11312,11313,11322,11321,11645,11646,11655,11654
208528,11314,11315,11324,11323,11647,11648,11657,11656
208529,11315,11316,11325,11324,11648,11649,11658,11657
208530,11316,11317,11326,11325,11649,11650,11659,11658
208531,11317,11318,11327,11326,11650,11651,11660,11659
208532,11318,11319,11328,11327,11651,11652,11661,11660
208533,11319,11320,11329,11328,11652,11653,11662,11661
208534,11320,11321,11330,11329,11653,11654,11663,11662
208535,11321,11322,11331,11330,11654,11655,11664,11663
208536,11323,11324,11333,11332,11656,11657,11666,11665
208537,11324,11325,11334,11333,11657,11658,11667,11666
208538,11325,11326,11335,11334,11658,11659,11668,11667
208539,11326,11327,11336,11335,11659,11660,11669,11668
208540,11327,11328,11337,11336,11660,11661,11670,11669
208541,11328,11329,11338,11337,11661,11662,11671,11670
208542,11329,11330,11339,11338,11662,11663,11672,11671
208543,11330,11331,11340,11339,11663,11664,11673,11672
208544,11332,11333,11342,11341,11665,11666,11675,11674
208545,11333,11334,11343,11342,11666,11667,11676,11675
208546,11334,11335,11344,11343,11667,11668,11677,11676
208547,11335,11336,11345,11344,11668,11669,11678,11677
208548,11336,11337,11346,11345,11669,11670,11679,11678
208549,11337,11338,11347,11346,11670,11671,11680,11679
208550,11338,11339,11348,11347,11671,11672,11681,11680
208551,11339,11340,11349,11348,11672,11673,11682,11681
208552,11341,11342,11351,11350,11674,11675,11684,11683
208553,11342,11343,11352,11351,11675,11676,11685,11684
208554,11343,11344,11353,11352,11676,11677,11686,11685
208555,11344,11345,11354,11353,11677,11678,11687,11686
208556,11345,11346,11355,11354,11678,11679,11688,11687
208557,11346,11347,11356,11355,11679,11680,11689,11688
208558,11347,11348,11357,11356,11680,11681,11690,11689
208559,11348,11349,11358,11357,11681,11682,11691,11690
208560,11350,11351,11360,11359,11683,11684,11693,11692
208561,11351,11352,11361,11360,11684,11685,11694,11693
208562,11352,11353,11362,11361,11685,11686,11695,11694
208563,11353,11354,11363,11362,11686,11687,11696,11695
208564,11354,11355,11364,11363,11687,11688,11697,11696
208565,11355,11356,11365,11364,11688,11689,11698,11697
208566,11356,11357,11366,11365,11689,11690,11699,11698
208567,11357,11358,11367,11366,11690,11691,11700,11699
208568,11359,11360,11369,11368,11692,11693,11702,11701
208569,11360,11361,11370,11369,11693,11694,11703,11702
208570,11361,11362,11371,11370,11694,11695,11704,11703
208571,11362,11363,11372,11371,11695,11696,11705,11704
208572,11363,11364,11373,11372,11696,11697,11706,11705
208573,11364,11365,11374,11373,11697,11698,11707,11706
208574,11365,11366,11375,11374,11698,11699,11708,11707
208575,11366,11367,11376,11375,11699,11700,11709,11708
208576,11368,11369,11378,11377,11701,11702,11711,11710
208577,11369,11370,11379,11378,11702,11703,11712,11711
208578,11370,11371,11380,11379,11703,11704,11713,11712
208579,11371,11372,11381,11380,11704,11705,11714,11713
208580,11372,11373,11382,11381,11705,11706,11715,11714
208581,11373,11374,11383,11382,11706,11707,11716,11715
208582,11374,11375,11384,11383,11707,11708,11717,11716
208583,11375,11376,11385,11384,11708,11709,11718,11717
208584,11377,11378,11387,11386,11710,11711,11720,11719
208585,11378,11379,11388,11387,11711,11712,11721,11720
208586,11379,11380,11389,11388,11712,11713,11722,11721
208587,11380,11381,11390,11389,11713,11714,11723,11722
208588,11381,11382,11391,11390,11714,11715,11724,11723
208589,11382,11383,11392,11391,11715,11716,11725,11724
208590,11383,11384,11393,11392,11716,11717,11726,11725
208591,11384,11385,11394,11393,11717,11718,11727,11726
208592,11386,11387,11396,11395,11719,11720,11729,11728
208593,11387,11388,11397,11396,11720,11721,11730,11729
208594,11388,11389,11398,11397,11721,11722,11731,11730
208595,11389,11390,11399,11398,11722,11723,11732,11731
208596,11390,11391,11400,11399,11723,11724,11733,11732
208597,11391,11392,11401,11400,11724,11725,11734,11733
208598,11392,11393,11402,11401,11725,11726,11735,11734
208599,11393,11394,11403,11402,11726,11727,11736,11735
208600,11395,11396,11405,11404,11728,11729,11738,11737
208601,11396,11397,11406,11405,11729,11730,11739,11738
208602,11397,11398,11407,11406,11730,11731,11740,11739
208603,11398,11399,11408,11407,11731,11732,11741,11740
208604,11399,11400,11409,11408,11732,11733,11742,11741
208605,11400,11401,11410,11409,11733,11734,11743,11742
208606,11401,11402,11411,11410,11734,11735,11744,11743
208607,11402,11403,11412,11411,11735,11736,11745,11744
208608,11404,11405,11414,11413,11737,11738,11747,11746
208609,11405,11406,11415,11414,11738,11739,11748,11747
208610,11406,11407,11416,11415,11739,11740,11749,11748
208611,11407,11408,11417,11416,11740,11741,11750,11749
208612,11408,11409,11418,11417,11741,11742,11751,11750
208613,11409,11410,11419,11418,11742,11743,11752,11751
208614,11410,11411,11420,11419,11743,11744,11753,11752
208615,11411,11412,11421,11420,11744,11745,11754,11753
208616,11413,11414,11423,11422,11746,11747,11756,11755
208617,11414,11415,11424,11423,11747,11748,11757,11756
208618,11415,11416,11425,11424,11748,11749,11758,11757
208619,11416,11417,11426,11425,11749,11750,11759,11758
208620,11417,11418,11427,11426,11750,11751,11760,11759
208621,11418,11419,11428,11427,11751,11752,11761,11760
208622,11419,11420,11429,11428,11752,11753,11762,11761
208623,11420,11421,11430,11429,11753,11754,11763,11762
208624,11422,11423,11432,11431,11755,11756,11765,11764
208625,11423,11424,11433,11432,11756,11757,11766,11765
208626,11424,11425,11434,11433,11757,11758,11767,11766
208627,11425,11426,11435,11434,11758,11759,11768,11767
208628,11426,11427,11436,11435,11759,11760,11769,11768
208629,11427,11428,11437,11436,11760,11761,11770,11769
208630,11428,11429,11438,11437,11761,11762,11771,11770
208631,11429,11430,11439,11438,11762,11763,11772,11771
208632,11431,11432,11441,11440,11764,11765,11774,11773
208633,11432,11433,11442,11441,11765,11766,11775,11774
208634,11433,11434,11443,11442,11766,11767,11776,11775
208635,11434,11435,11444,11443,11767,11768,11777,11776
208636,11435,11436,11445,11444,11768,11769,11778,11777
208637,11436,11437,11446,11445,11769,11770,11779,11778
208638,11437,11438,11447,11446,11770,11771,11780,11779
208639,11438,11439,11448,11447,11771,11772,11781,11780
208640,11449,11450,11459,11458,11782,11783,11792,11791
208641,11450,11451,11460,11459,11783,11784,11793,11792
208642,11451,11452,11461,11460,11784,11785,11794,11793
208643,11452,11453,11462,11461,11785,11786,11795,11794
208644,11453,11454,11463,11462,11786,11787,11796,11795
208645,11454,11455,11464,11463,11787,11788,11797,11796
208646,11455,11456,11465,11464,11788,11789,11798,11797
208647,11456,11457,11466,11465,11789,11790,11799,11798
208648,11458,11459,11468,11467,11791,11792,11801,11800
208649,11459,11460,11469,11468,11792,11793,11802,11801
208650,11460,11461,11470,11469,11793,11794,11803,11802
208651,11461,11462,11471,11470,11794,11795,11804,11803
208652,11462,11463,11472,11471,11795,11796,11805,11804
208653,11463,11464,11473,11472,11796,11797,11806,11805
208654,11464,11465,11474,11473,11797,11798,11807,11806
208655,11465,11466,11475,11474,11798,11799,11808,11807
208656,11467,11468,11477,11476,11800,11801,11810,11809
208657,11468,11469,11478,11477,11801,11802,11811,11810
208658,11469,11470,11479,11478,11802,11803,11812,11811
208659,11470,11471,11480,11479,11803,11804,11813,11812
208660,11471,11472,11481,11480,11804,11805,11814,11813
208661,11472,11473,11482,11481,11805,11806,11815,11814
208662,11473,11474,11483,11482,11806,11807,11816,11815
208663,11474,11475,11484,11483,11807,11808,11817,11816
208664,11476,11477,11486,11485,11809,11810,11819,11818
208665,11477,11478,11487,11486,11810,11811,11820,11819
208666,11478,11479,11488,11487,11811,11812,11821,11820
208667,11479,11480,11489,11488,11812,11813,11822,11821
208668,11480,11481,11490,11489,11813,11814,11823,11822
208669,11481,11482,11491,11490,11814,11815,11824,11823
208670,11482,11483,11492,11491,11815,11816,11825,11824
208671,11483,11484,11493,11492,11816,11817,11826,11825
208672,11485,11486,11495,11494,11818,11819,11828,11827
208673,11486,11487,11496,11495,11819,11820,11829,11828
208674,11487,11488,11497,11496,11820,11821,11830,11829
208675,11488,11489,11498,11497,11821,11822,11831,11830
208676,11489,11490,11499,11498,11822,11823,11832,11831
208677,11490,11491,11500,11499,11823,11824,11833,11832
208678,11491,11492,11501,11500,11824,11825,11834,11833
208679,11492,11493,11502,11501,11825,11826,11835,11834
208680,11494,11495,11504,11503,11827,11828,11837,11836
208681,11495,11496,11505,11504,11828,11829,11838,11837
208682,11496,11497,11506,11505,11829,11830,11839,11838
208683,11497,11498,11507,11506,11830,11831,11840,11839
208684,11498,11499,11508,11507,11831,11832,11841,11840
208685,11499,11500,11509,11508,11832,11833,11842,11841
208686,11500,11501,11510,11509,11833,11834,11843,11842
208687,11501,11502,11511,11510,11834,11835,11844,11843
208688,11503,11504,11513,11512,11836,11837,11846,11845
208689,11504,11505,11514,11513,11837,11838,11847,11846
208690,11505,11506,11515,11514,11838,11839,11848,11847
208691,11506,11507,11516,11515,11839,11840,11849,11848
208692,11507,11508,11517,11516,11840,11841,11850,11849
208693,11508,11509,11518,11517,11841,11842,11851,11850
208694,11509,11510,11519,11518,11842,11843,11852,11851
208695,11510,11511,11520,11519,11843,11844,11853,11852
208696,11512,11513,11522,11521,11845,11846,11855,11854
208697,11513,11514,11523,11522,11846,11847,11856,11855
208698,11514,11515,11524,11523,11847,11848,11857,11856
208699,11515,11516,11525,11524,11848,11849,11858,11857
208700,11516,11517,11526,11525,11849,11850,11859,11858
208701,11517,11518,11527,11526,11850,11851,11860,11859
208702,11518,11519,11528,11527,11851,11852,11861,11860
208703,11519,11520,11529,11528,11852,11853,11862,11861
208704,11521,11522,11531,11530,11854,11855,11864,11863
208705,11522,11523,11532,11531,11855,11856,11865,11864
208706,11523,11524,11533,11532,11856,11857,11866,11865
208707,11524,11525,11534,11533,11857,11858,11867,11866
208708,11525,11526,11535,11534,11858,11859,11868,11867
208709,11526,11527,11536,11535,11859,11860,11869,11868
208710,11527,11528,11537,11536,11860,11861,11870,11869
208711,11528,11529,11538,11537,11861,11862,11871,11870
208712,11530,11531,11540,11539,11863,11864,11873,11872
208713,11531,11532,11541,11540,11864,11865,11874,11873
208714,11532,11533,11542,11541,11865,11866,11875,11874
208715,11533,11534,11543,11542,11866,11867,11876,11875
208716,11534,11535,11544,11543,11867,11868,11877,11876
208717,11535,11536,11545,11544,11868,11869,11878,11877
208718,11536,11537,11546,11545,11869,11870,11879,11878
208719,11537,11538,11547,11546,11870,11871,11880,11879
208720,11539,11540,11549,11548,11872,11873,11882,11881
208721,11540,11541,11550,11549,11873,11874,11883,11882
208722,11541,11542,11551,11550,11874,11875,11884,11883
208723,11542,11543,11552,11551,11875,11876,11885,11884
208724,11543,11544,11553,11552,11876,11877,11886,11885
208725,11544,11545,11554,11553,11877,11878,11887,11886
208726,11545,11546,11555,11554,11878,11879,11888,11887
208727,11546,11547,11556,11555,11879,11880,11889,11888
208728,11548,11549,11558,11557,11881,11882,11891,11890
208729,11549,11550,11559,11558,11882,11883,11892,11891
208730,11550,11551,11560,11559,11883,11884,11893,11892
208731,11551,11552,11561,11560,11884,11885,11894,11893
208732,11552,11553,11562,11561,11885,11886,11895,11894
208733,11553,11554,11563,11562,11886,11887,11896,11895
208734,11554,11555,11564,11563,11887,11888,11897,11896
208735,11555,11556,11565,11564,11888,11889,11898,11897
208736,11557,11558,11567,11566,11890,11891,11900,11899
208737,11558,11559,11568,11567,11891,11892,11901,11900
208738,11559,11560,11569,11568,11892,11893,11902,11901
208739,11560,11561,11570,11569,11893,11894,11903,11902
208740,11561,11562,11571,11570,11894,11895,11904,11903
208741,11562,11563,11572,11571,11895,11896,11905,11904
208742,11563,11564,11573,11572,11896,11897,11906,11905
208743,11564,11565,11574,11573,11897,11898,11907,11906
208744,11566,11567,11576,11575,11899,11900,11909,11908
208745,11567,11568,11577,11576,11900,11901,11910,11909
208746,11568,11569,11578,11577,11901,11902,11911,11910
208747,11569,11570,11579,11578,11902,11903,11912,11911
208748,11570,11571,11580,11579,11903,11904,11913,11912
208749,11571,11572,11581,11580,11904,11905,11914,11913
208750,11572,11573,11582,11581,11905,11906,11915,11914
208751,11573,11574,11583,11582,11906,11907,11916,11915
208752,11575,11576,11585,11584,11908,11909,11918,11917
208753,11576,11577,11586,11585,11909,11910,11919,11918
208754,11577,11578,11587,11586,11910,11911,11920,11919
208755,11578,11579,11588,11587,11911,11912,11921,11920
208756,11579,11580,11589,11588,11912,11913,11922,11921
208757,11580,11581,11590,11589,11913,11914,11923,11922
208758,11581,11582,11591,11590,11914,11915,11924,11923
208759,11582,11583,11592,11591,11915,11916,11925,11924
208760,11584,11585,11594,11593,11917,11918,11927,11926
208761,11585,11586,11595,11594,11918,11919,11928,11927
208762,11586,11587,11596,11595,11919,11920,11929,11928
208763,11587,11588,11597,11596,11920,11921,11930,11929
208764,11588,11589,11598,11597,11921,11922,11931,11930
208765,11589,11590,11599,11598,11922,11923,11932,11931
208766,11590,11591,11600,11599,11923,11924,11933,11932
208767,11591,11592,11601,11600,11924,11925,11934,11933
208768,11593,11594,11603,11602,11926,11927,11936,11935
208769,11594,11595,11604,11603,11927,11928,11937,11936
208770,11595,11596,11605,11604,11928,11929,11938,11937
208771,11596,11597,11606,11605,11929,11930,11939,11938
208772,11597,11598,11607,11606,11930,11931,11940,11939
208773,11598,11599,11608,11607,11931,11932,11941,11940
208774,11599,11600,11609,11608,11932,11933,11942,11941
208775,11600,11601,11610,11609,11933,11934,11943,11942
208776,11602,11603,11612,11611,11935,11936,11945,11944
208777,11603,11604,11613,11612,11936,11937,11946,11945
208778,11604,11605,11614,11613,11937,11938,11947,11946
208779,11605,11606,11615,11614,11938,11939,11948,11947
208780,11606,11607,11616,11615,11939,11940,11949,11948
208781,11607,11608,11617,11616,11940,11941,11950,11949
208782,11608,11609,11618,11617,11941,11942,11951,11950
208783,11609,11610,11619,11618,11942,11943,11952,11951
208784,11611,11612,11621,11620,11944,11945,11954,11953
208785,11612,11613,11622,11621,11945,11946,11955,11954
208786,11613,11614,11623,11622,11946,11947,11956,11955
208787,11614,11615,11624,11623,11947,11948,11957,11956
208788,11615,11616,11625,11624,11948,11949,11958,11957
208789,11616,11617,11626,11625,11949,11950,11959,11958
208790,11617,11618,11627,11626,11950,11951,11960,11959
208791,11618,11619,11628,11627,11951,11952,11961,11960
208792,11620,11621,11630,11629,11953,11954,11963,11962
208793,11621,11622,11631,11630,11954,11955,11964,11963
208794,11622,11623,11632,11631,11955,11956,11965,11964
208795,11623,11624,11633,11632,11956,11957,11966,11965
208796,11624,11625,11634,11633,11957,11958,11967,11966
208797,11625,11626,11635,11634,11958,11959,11968,11967
208798,11626,11627,11636,11635,11959,11960,11969,11968
208799,11627,11628,11637,11636,11960,11961,11970,11969
208800,11629,11630,11639,11638,11962,11963,11972,11971
208801,11630,11631,11640,11639,11963,11964,11973,11972
208802,11631,11632,11641,11640,11964,11965,11974,11973
208803,11632,11633,11642,11641,11965,11966,11975,11974
208804,11633,11634,11643,11642,11966,11967,11976,11975
208805,11634,11635,11644,11643,11967,11968,11977,11976
208806,11635,11636,11645,11644,11968,11969,11978,11977
208807,11636,11637,11646,11645,11969,11970,11979,11978
208808,11638,11639,11648,11647,11971,11972,11981,11980
208809,11639,11640,11649,11648,11972,11973,11982,11981
208810,11640,11641,11650,11649,11973,11974,11983,11982
208811,11641,11642,11651,11650,11974,11975,11984,11983
208812,11642,11643,11652,11651,11975,11976,11985,11984
208813,11643,11644,11653,11652,11976,11977,11986,11985
208814,11644,11645,11654,11653,11977,11978,11987,11986
208815,11645,11646,11655,11654,11978,11979,11988,11987
208816,11647,11648,11657,11656,11980,11981,11990,11989
208817,11648,11649,11658,11657,11981,11982,11991,11990
208818,11649,11650,11659,11658,11982,11983,11992,11991
208819,11650,11651,11660,11659,11983,11984,11993,11992
208820,11651,11652,11661,11660,11984,11985,11994,11993
208821,11652,11653,11662,11661,11985,11986,11995,11994
208822,11653,11654,11663,11662,11986,11987,11996,11995
208823,11654,11655,11664,11663,11987,11988,11997,11996
208824,11656,11657,11666,11665,11989,11990,11999,11998
208825,11657,11658,11667,11666,11990,11991,12000,11999
208826,11658,11659,11668,11667,11991,11992,12001,12000
208827,11659,11660,11669,11668,11992,11993,12002,12001
208828,11660,11661,11670,11669,11993,11994,12003,12002
208829,11661,11662,11671,11670,11994,11995,12004,12003
208830,11662,11663,11672,11671,11995,11996,12005,12004
208831,11663,11664,11673,11672,11996,11997,12006,12005
208832,11665,11666,11675,11674,11998,11999,12008,12007
208833,11666,11667,11676,11675,11999,12000,12009,12008
208834,11667,11668,11677,11676,12000,12001,12010,12009
208835,11668,11669,11678,11677,12001,12002,12011,12010
208836,11669,11670,11679,11678,12002,12003,12012,12011
208837,11670,11671,11680,11679,12003,12004,12013,12012
208838,11671,11672,11681,11680,12004,12005,12014,12013
208839,11672,11673,11682,11681,12005,12006,12015,12014
208840,11674,11675,11684,11683,12007,12008,12017,12016
208841,11675,11676,11685,11684,12008,12009,12018,12017
208842,11676,11677,11686,11685,12009,12010,12019,12018
208843,11677,11678,11687,11686,12010,12011,12020,12019
208844,11678,11679,11688,11687,12011,12012,12021,12020
208845,11679,11680,11689,11688,12012,12013,12022,12021
208846,11680,11681,11690,11689,12013,12014,12023,12022
208847,11681,11682,11691,11690,12014,12015,12024,12023
208848,11683,11684,11693,11692,12016,12017,12026,12025
208849,11684,11685,11694,11693,12017,12018,12027,12026
208850,11685,11686,11695,11694,12018,12019,12028,12027
208851,11686,11687,11696,11695,12019,12020,12029,12028
208852,11687,11688,11697,11696,12020,12021,12030,12029
208853,11688,11689,11698,11697,12021,12022,12031,12030
208854,11689,11690,11699,11698,12022,12023,12032,12031
208855,11690,11691,11700,11699,12023,12024,12033,12032
208856,11692,11693,11702,11701,12025,12026,12035,12034
208857,11693,11694,11703,11702,12026,12027,12036,12035
208858,11694,11695,11704,11703,12027,12028,12037,12036
208859,11695,11696,11705,11704,12028,12029,12038,12037
208860,11696,11697,11706,11705,12029,12030,12039,12038
208861,11697,11698,11707,11706,12030,12031,12040,12039
208862,11698,11699,11708,11707,12031,12032,12041,12040
208863,11699,11700,11709,11708,12032,12033,12042,12041
208864,11701,11702,11711,11710,12034,12035,12044,12043
208865,11702,11703,11712,11711,12035,12036,12045,12044
208866,11703,11704,11713,11712,12036,12037,12046,12045
208867,11704,11705,11714,11713,12037,12038,12047,12046
208868,11705,11706,11715,11714,12038,12039,12048,12047
208869,11706,11707,11716,11715,12039,12040,12049,12048
208870,11707,11708,11717,11716,12040,12041,12050,12049
208871,11708,11709,11718,11717,12041,12042,12051,12050
208872,11710,11711,11720,11719,12043,12044,12053,12052
208873,11711,11712,11721,11720,12044,12045,12054,12053
208874,11712,11713,11722,11721,12045,12046,12055,12054
208875,11713,11714,11723,11722,12046,12047,12056,12055
208876,11714,11715,11724,11723,12047,12048,12057,12056
208877,11715,11716,11725,11724,12048,12049,12058,12057
208878,11716,11717,11726,11725,12049,12050,12059,12058
208879,11717,11718,11727,11726,12050,12051,12060,12059
208880,11719,11720,11729,11728,12052,12053,12062,12061
208881,11720,11721,11730,11729,12053,12054,12063,12062
208882,11721,11722,11731,11730,12054,12055,12064,12063
208883,11722,11723,11732,11731,12055,12056,12065,12064
208884,11723,11724,11733,11732,12056,12057,12066,12065
208885,11724,11725,11734,11733,12057,12058,12067,12066
208886,11725,11726,11735,11734,12058,12059,12068,12067
208887,11726,11727,11736,11735,12059,12060,12069,12068
208888,11728,11729,11738,11737,12061,12062,12071,12070
208889,11729,11730,11739,11738,12062,12063,12072,12071
208890,11730,11731,11740,11739,12063,12064,12073,12072
208891,11731,11732,11741,11740,12064,12065,12074,12073
208892,11732,11733,11742,11741,12065,12066,12075,12074
208893,11733,11734,11743,11742,12066,12067,12076,12075
208894,11734,11735,11744,11743,12067,12068,12077,12076
208895,11735,11736,11745,11744,12068,12069,12078,12077
208896,11737,11738,11747,11746,12070,12071,12080,12079
208897,11738,11739,11748,11747,12071,12072,12081,12080
208898,11739,11740,11749,11748,12072,12073,12082,12081
208899,11740,11741,11750,11749,12073,12074,12083,12082
208900,11741,11742,11751,11750,12074,12075,12084,12083
208901,11742,11743,11752,11751,12075,12076,12085,12084
208902,11743,11744,11753,11752,12076,12077,12086,12085
208903,11744,11745,11754,11753,12077,12078,12087,12086
208904,11746,11747,11756,11755,12079,12080,12089,12088
208905,11747,11748,11757,11756,12080,12081,12090,12089
208906,11748,11749,11758,11757,12081,12082,12091,12090
208907,11749,11750,11759,11758,12082,12083,12092,12091
208908,11750,11751,11760,11759,12083,12084,12093,12092
208909,11751,11752,11761,11760,12084,12085,12094,12093
208910,11752,11753,11762,11761,12085,12086,12095,12094
208911,11753,11754,11763,11762,12086,12087,12096,12095
208912,11755,11756,11765,11764,12088,12089,12098,12097
208913,11756,11757,11766,11765,12089,12090,12099,12098
208914,11757,11758,11767,11766,12090,12091,12100,12099
208915,11758,11759,11768,11767,12091,12092,12101,12100
208916,11759,11760,11769,11768,12092,12093,12102,12101
208917,11760,11761,11770,11769,12093,12094,12103,12102
208918,11761,11762,11771,11770,12094,12095,12104,12103
208919,11762,11763,11772,11771,12095,12096,12105,12104
208920,11764,11765,11774,11773,12097,12098,12107,12106
208921,11765,11766,11775,11774,12098,12099,12108,12107
208922,11766,11767,11776,11775,12099,12100,12109,12108
208923,11767,11768,11777,11776,12100,12101,12110,12109
208924,11768,11769,11778,11777,12101,12102,12111,12110
208925,11769,11770,11779,11778,12102,12103,12112,12111
208926,11770,11771,11780,11779,12103,12104,12113,12112
208927,11771,11772,11781,11780,12104,12105,12114,12113
208928,11782,11783,11792,11791,12115,12116,12125,12124
208929,11783,11784,11793,11792,12116,12117,12126,12125
208930,11784,11785,11794,11793,12117,12118,12127,12126
208931,11785,11786,11795,11794,12118,12119,12128,12127
208932,11786,11787,11796,11795,12119,12120,12129,12128
208933,11787,11788,11797,11796,12120,12121,12130,12129
208934,11788,11789,11798,11797,12121,12122,12131,12130
208935,11789,11790,11799,11798,12122,12123,12132,12131
208936,11791,11792,11801,11800,12124,12125,12134,12133
208937,11792,11793,11802,11801,12125,12126,12135,12134
208938,11793,11794,11803,11802,12126,12127,12136,12135
208939,11794,11795,11804,11803,12127,12128,12137,12136
208940,11795,11796,11805,11804,12128,12129,12138,12137
208941,11796,11797,11806,11805,12129,12130,12139,12138
208942,11797,11798,11807,11806,12130,12131,12140,12139
208943,11798,11799,11808,11807,12131,12132,12141,12140
208944,11800,11801,11810,11809,12133,12134,12143,12142
208945,11801,11802,11811,11810,12134,12135,12144,12143
208946,11802,11803,11812,11811,12135,12136,12145,12144
208947,11803,11804,11813,11812,12136,12137,12146,12145
208948,11804,11805,11814,11813,12137,12138,12147,12146
208949,11805,11806,11815,11814,12138,12139,12148,12147
208950,11806,11807,11816,11815,12139,12140,12149,12148
208951,11807,11808,11817,11816,12140,12141,12150,12149
208952,11809,11810,11819,11818,12142,12143,12152,12151
208953,11810,11811,11820,11819,12143,12144,12153,12152
208954,11811,11812,11821,11820,12144,12145,12154,12153
208955,11812,11813,11822,11821,12145,12146,12155,12154
208956,11813,11814,11823,11822,12146,12147,12156,12155
208957,11814,11815,11824,11823,12147,12148,12157,12156
208958,11815,11816,11825,11824,12148,12149,12158,12157
208959,11816,11817,11826,11825,12149,12150,12159,12158
208960,11818,11819,11828,11827,12151,12152,12161,12160
208961,11819,11820,11829,11828,12152,12153,12162,12161
208962,11820,11821,11830,11829,12153,12154,12163,12162
208963,11821,11822,11831,11830,12154,12155,12164,12163
208964,11822,11823,11832,11831,12155,12156,12165,12164
208965,11823,11824,11833,11832,12156,12157,12166,12165
208966,11824,11825,11834,11833,12157,12158,12167,12166
208967,11825,11826,11835,11834,12158,12159,12168,12167
208968,11827,11828,11837,11836,12160,12161,12170,12169
208969,11828,11829,11838,11837,12161,12162,12171,12170
208970,11829,11830,11839,11838,12162,12163,12172,12171
208971,11830,11831,11840,11839,12163,12164,12173,12172
208972,11831,11832,11841,11840,12164,12165,12174,12173
208973,11832,11833,11842,11841,12165,12166,12175,12174
208974,11833,11834,11843,11842,12166,12167,12176,12175
208975,11834,11835,11844,11843,12167,12168,12177,12176
208976,11836,11837,11846,11845,12169,12170,12179,12178
208977,11837,11838,11847,11846,12170,12171,12180,12179
208978,11838,11839,11848,11847,12171,12172,12181,12180
208979,11839,11840,11849,11848,12172,12173,12182,12181
208980,11840,11841,11850,11849,12173,12174,12183,12182
208981,11841,11842,11851,11850,12174,12175,12184,12183
208982,11842,11843,11852,11851,12175,12176,12185,12184
208983,11843,11844,11853,11852,12176,12177,12186,12185
208984,11845,11846,11855,11854,12178,12179,12188,12187
208985,11846,11847,11856,11855,12179,12180,12189,12188
208986,11847,11848,11857,11856,12180,12181,12190,12189
208987,11848,11849,11858,11857,12181,12182,12191,12190
208988,11849,11850,11859,11858,12182,12183,12192,12191
208989,11850,11851,11860,11859,12183,12184,12193,12192
208990,11851,11852,11861,11860,12184,12185,12194,12193
208991,11852,11853,11862,11861,12185,12186,12195,12194
208992,11854,11855,11864,11863,12187,12188,12197,12196
208993,11855,11856,11865,11864,12188,12189,12198,12197
208994,11856,11857,11866,11865,12189,12190,12199,12198
208995,11857,11858,11867,11866,12190,12191,12200,12199
208996,11858,11859,11868,11867,12191,12192,12201,12200
208997,11859,11860,11869,11868,12192,12193,12202,12201
208998,11860,11861,11870,11869,12193,12194,12203,12202
208999,11861,11862,11871,11870,12194,12195,12204,12203
209000,11863,11864,11873,11872,12196,12197,12206,12205
209001,11864,11865,11874,11873,12197,12198,12207,12206
209002,11865,11866,11875,11874,12198,12199,12208,12207
209003,11866,11867,11876,11875,12199,12200,12209,12208
209004,11867,11868,11877,11876,12200,12201,12210,12209
209005,11868,11869,11878,11877,12201,12202,12211,12210
209006,11869,11870,11879,11878,12202,12203,12212,12211
209007,11870,11871,11880,11879,12203,12204,12213,12212
209008,11872,11873,11882,11881,12205,12206,12215,12214
209009,11873,11874,11883,11882,12206,12207,12216,12215
209010,11874,11875,11884,11883,12207,12208,12217,12216
209011,11875,11876,11885,11884,12208,12209,12218,12217
209012,11876,11877,11886,11885,12209,12210,12219,12218
209013,11877,11878,11887,11886,12210,12211,12220,12219
209014,11878,11879,11888,11887,12211,12212,12221,12220
209015,11879,11880,11889,11888,12212,12213,12222,12221
209016,11881,11882,11891,11890,12214,12215,12224,12223
209017,11882,11883,11892,11891,12215,12216,12225,12224
209018,11883,11884,11893,11892,12216,12217,12226,12225
209019,11884,11885,11894,11893,12217,12218,12227,12226
209020,11885,11886,11895,11894,12218,12219,12228,12227
209021,11886,11887,11896,11895,12219,12220,12229,12228
209022,11887,11888,11897,11896,12220,12221,12230,12229
209023,11888,11889,11898,11897,12221,12222,12231,12230
209024,11890,11891,11900,11899,12223,12224,12233,12232
209025,11891,11892,11901,11900,12224,12225,12234,12233
209026,11892,11893,11902,11901,12225,12226,12235,12234
209027,11893,11894,11903,11902,12226,12227,12236,12235
209028,11894,11895,11904,11903,12227,12228,12237,12236
209029,11895,11896,11905,11904,12228,12229,12238,12237
209030,11896,11897,11906,11905,12229,12230,12239,12238
209031,11897,11898,11907,11906,12230,12231,12240,12239
209032,11899,11900,11909,11908,12232,12233,12242,12241
209033,11900,11901,11910,11909,12233,12234,12243,12242
209034,11901,11902,11911,11910,12234,12235,12244,12243
209035,11902,11903,11912,11911,12235,12236,12245,12244
209036,11903,11904,11913,11912,12236,12237,12246,12245
209037,11904,11905,11914,11913,12237,12238,12247,12246
209038,11905,11906,11915,11914,12238,12239,12248,12247
209039,11906,11907,11916,11915,12239,12240,12249,12248
209040,11908,11909,11918,11917,12241,12242,12251,12250
209041,11909,11910,11919,11918,12242,12243,12252,12251
209042,11910,11911,11920,11919,12243,12244,12253,12252
209043,11911,11912,11921,11920,12244,12245,12254,12253
209044,11912,11913,11922,11921,12245,12246,12255,12254
209045,11913,11914,11923,11922,12246,12247,12256,12255
209046,11914,11915,11924,11923,12247,12248,12257,12256
209047,11915,11916,11925,11924,12248,12249,12258,12257
209048,11917,11918,11927,11926,12250,12251,12260,12259
209049,11918,11919,11928,11927,12251,12252,12261,12260
209050,11919,11920,11929,11928,12252,12253,12262,12261
209051,11920,11921,11930,11929,12253,12254,12263,12262
209052,11921,11922,11931,11930,12254,12255,12264,12263
209053,11922,11923,11932,11931,12255,12256,12265,12264
209054,11923,11924,11933,11932,12256,12257,12266,12265
209055,11924,11925,11934,11933,12257,12258,12267,12266
209056,11926,11927,11936,11935,12259,12260,12269,12268
209057,11927,11928,11937,11936,12260,12261,12270,12269
209058,11928,11929,11938,11937,12261,12262,12271,12270
209059,11929,11930,11939,11938,12262,12263,12272,12271
209060,11930,11931,11940,11939,12263,12264,12273,12272
209061,11931,11932,11941,11940,12264,12265,12274,12273
209062,11932,11933,11942,11941,12265,12266,12275,12274
209063,11933,11934,11943,11942,12266,12267,12276,12275
209064,11935,11936,11945,11944,12268,12269,12278,12277
209065,11936,11937,11946,11945,12269,12270,12279,12278
209066,11937,11938,11947,11946,12270,12271,12280,12279
209067,11938,11939,11948,11947,12271,12272,12281,12280
209068,11939,11940,11949,11948,12272,12273,12282,12281
209069,11940,11941,11950,11949,12273,12274,12283,12282
209070,11941,11942,11951,11950,12274,12275,12284,12283
209071,11942,11943,11952,11951,12275,12276,12285,12284
209072,11944,11945,11954,11953,12277,12278,12287,12286
209073,11945,11946,11955,11954,12278,12279,12288,12287
209074,11946,11947,11956,11955,12279,12280,12289,12288
209075,11947,11948,11957,11956,12280,12281,12290,12289
209076,11948,11949,11958,11957,12281,12282,12291,12290
209077,11949,11950,11959,11958,12282,12283,12292,12291
209078,11950,11951,11960,11959,12283,12284,12293,12292
209079,11951,11952,11961,11960,12284,12285,12294,12293
209080,11953,11954,11963,11962,12286,12287,12296,12295
209081,11954,11955,11964,11963,12287,12288,12297,12296
209082,11955,11956,11965,11964,12288,12289,12298,12297
209083,11956,11957,11966,11965,12289,12290,12299,12298
209084,11957,11958,11967,11966,12290,12291,12300,12299
209085,11958,11959,11968,11967,12291,12292,12301,12300
209086,11959,11960,11969,11968,12292,12293,12302,12301
209087,11960,11961,11970,11969,12293,12294,12303,12302
209088,11962,11963,11972,11971,12295,12296,12305,12304
209089,11963,11964,11973,11972,12296,12297,12306,12305
209090,11964,11965,11974,11973,12297,12298,12307,12306
209091,11965,11966,11975,11974,12298,12299,12308,12307
209092,11966,11967,11976,11975,12299,12300,12309,12308
209093,11967,11968,11977,11976,12300,12301,12310,12309
209094,11968,11969,11978,11977,12301,12302,12311,12310
209095,11969,11970,11979,11978,12302,12303,12312,12311
209096,11971,11972,11981,11980,12304,12305,12314,12313
209097,11972,11973,11982,11981,12305,12306,12315,12314
209098,11973,11974,11983,11982,12306,12307,12316,12315
209099,11974,11975,11984,11983,12307,12308,12317,12316
209100,11975,11976,11985,11984,12308,12309,12318,12317
209101,11976,11977,11986,11985,12309,12310,12319,12318
209102,11977,11978,11987,11986,12310,12311,12320,12319
209103,11978,11979,11988,11987,12311,12312,12321,12320
209104,11980,11981,11990,11989,12313,12314,12323,12322
209105,11981,11982,11991,11990,12314,12315,12324,12323
209106,11982,11983,11992,11991,12315,12316,12325,12324
209107,11983,11984,11993,11992,12316,12317,12326,12325
209108,11984,11985,11994,11993,12317,12318,12327,12326
209109,11985,11986,11995,11994,12318,12319,12328,12327
209110,11986,11987,11996,11995,12319,12320,12329,12328
209111,11987,11988,11997,11996,12320,12321,12330,12329
209112,11989,11990,11999,11998,12322,12323,12332,12331
209113,11990,11991,12000,11999,12323,12324,12333,12332
209114,11991,11992,12001,12000,12324,12325,12334,12333
209115,11992,11993,12002,12001,12325,12326,12335,12334
209116,11993,11994,12003,12002,12326,12327,12336,12335
209117,11994,11995,12004,12003,12327,12328,12337,12336
209118,11995,11996,12005,12004,12328,12329,12338,12337
209119,11996,11997,12006,12005,12329,12330,12339,12338
209120,11998,11999,12008,12007,12331,12332,12341,12340
209121,11999,12000,12009,12008,12332,12333,12342,12341
209122,12000,12001,12010,12009,12333,12334,12343,12342
209123,12001,12002,12011,12010,12334,12335,12344,12343
209124,12002,12003,12012,12011,12335,12336,12345,12344
209125,12003,12004,12013,12012,12336,12337,12346,12345
209126,12004,12005,12014,12013,12337,12338,12347,12346
209127,12005,12006,12015,12014,12338,12339,12348,12347
209128,12007,12008,12017,12016,12340,12341,12350,12349
209129,12008,12009,12018,12017,12341,12342,12351,12350
209130,12009,12010,12019,12018,12342,12343,12352,12351
209131,12010,12011,12020,12019,12343,12344,12353,12352
209132,12011,12012,12021,12020,12344,12345,12354,12353
209133,12012,12013,12022,12021,12345,12346,12355,12354
209134,12013,12014,12023,12022,12346,12347,12356,12355
209135,12014,12015,12024,12023,12347,12348,12357,12356
209136,12016,12017,12026,12025,12349,12350,12359,12358
209137,12017,12018,12027,12026,12350,12351,12360,12359
209138,12018,12019,12028,12027,12351,12352,12361,12360
209139,12019,12020,12029,12028,12352,12353,12362,12361
209140,12020,12021,12030,12029,12353,12354,12363,12362
209141,12021,12022,12031,12030,12354,12355,12364,12363
209142,12022,12023,12032,12031,12355,12356,12365,12364
209143,12023,12024,12033,12032,12356,12357,12366,12365
209144,12025,12026,12035,12034,12358,12359,12368,12367
209145,12026,12027,12036,12035,12359,12360,12369,12368
209146,12027,12028,12037,12036,12360,12361,12370,12369
209147,12028,12029,12038,12037,12361,12362,12371,12370
209148,12029,12030,12039,12038,12362,12363,12372,12371
209149,12030,12031,12040,12039,12363,12364,12373,12372
209150,12031,12032,12041,12040,12364,12365,12374,12373
209151,12032,12033,12042,12041,12365,12366,12375,12374
209152,12034,12035,12044,12043,12367,12368,12377,12376
209153,12035,12036,12045,12044,12368,12369,12378,12377
209154,12036,12037,12046,12045,12369,12370,12379,12378
209155,12037,12038,12047,12046,12370,12371,12380,12379
209156,12038,12039,12048,12047,12371,12372,12381,12380
209157,12039,12040,12049,12048,12372,12373,12382,12381
209158,12040,12041,12050,12049,12373,12374,12383,12382
209159,12041,12042,12051,12050,12374,12375,12384,12383
209160,12043,12044,12053,12052,12376,12377,12386,12385
209161,12044,12045,12054,12053,12377,12378,12387,12386
209162,12045,12046,12055,12054,12378,12379,12388,12387
209163,12046,12047,12056,12055,12379,12380,12389,12388
209164,12047,12048,12057,12056,12380,12381,12390,12389
209165,12048,12049,12058,12057,12381,12382,12391,12390
209166,12049,12050,12059,12058,12382,12383,12392,12391
209167,12050,12051,12060,12059,12383,12384,12393,12392
209168,12052,12053,12062,12061,12385,12386,12395,12394
209169,12053,12054,12063,12062,12386,12387,12396,12395
209170,12054,12055,12064,12063,12387,12388,12397,12396
209171,12055,12056,12065,12064,12388,12389,12398,12397
209172,12056,12057,12066,12065,12389,12390,12399,12398
209173,12057,12058,12067,12066,12390,12391,12400,12399
209174,12058,12059,12068,12067,12391,12392,12401,12400
209175,12059,12060,12069,12068,12392,12393,12402,12401
209176,12061,12062,12071,12070,12394,12395,12404,12403
209177,12062,12063,12072,12071,12395,12396,12405,12404
209178,12063,12064,12073,12072,12396,12397,12406,12405
209179,12064,12065,12074,12073,12397,12398,12407,12406
209180,12065,12066,12075,12074,12398,12399,12408,12407
209181,12066,12067,12076,12075,12399,12400,12409,12408
209182,12067,12068,12077,12076,12400,12401,12410,12409
209183,12068,12069,12078,12077,12401,12402,12411,12410
209184,12070,12071,12080,12079,12403,12404,12413,12412
209185,12071,12072,12081,12080,12404,12405,12414,12413
209186,12072,12073,12082,12081,12405,12406,12415,12414
209187,12073,12074,12083,12082,12406,12407,12416,12415
209188,12074,12075,12084,12083,12407,12408,12417,12416
209189,12075,12076,12085,12084,12408,12409,12418,12417
209190,12076,12077,12086,12085,12409,12410,12419,12418
209191,12077,12078,12087,12086,12410,12411,12420,12419
209192,12079,12080,12089,12088,12412,12413,12422,12421
209193,12080,12081,12090,12089,12413,12414,12423,12422
209194,12081,12082,12091,12090,12414,12415,12424,12423
209195,12082,12083,12092,12091,12415,12416,12425,12424
209196,12083,12084,12093,12092,12416,12417,12426,12425
209197,12084,12085,12094,12093,12417,12418,12427,12426
209198,12085,12086,12095,12094,12418,12419,12428,12427
209199,12086,12087,12096,12095,12419,12420,12429,12428
209200,12088,12089,12098,12097,12421,12422,12431,12430
209201,12089,12090,12099,12098,12422,12423,12432,12431
209202,12090,12091,12100,12099,12423,12424,12433,12432
209203,12091,12092,12101,12100,12424,12425,12434,12433
209204,12092,12093,12102,12101,12425,12426,12435,12434
209205,12093,12094,12103,12102,12426,12427,12436,12435
209206,12094,12095,12104,12103,12427,12428,12437,12436
209207,12095,12096,12105,12104,12428,12429,12438,12437
209208,12097,12098,12107,12106,12430,12431,12440,12439
209209,12098,12099,12108,12107,12431,12432,12441,12440
209210,12099,12100,12109,12108,12432,12433,12442,12441
209211,12100,12101,12110,12109,12433,12434,12443,12442
209212,12101,12102,12111,12110,12434,12435,12444,12443
209213,12102,12103,12112,12111,12435,12436,12445,12444
209214,12103,12104,12113,12112,12436,12437,12446,12445
209215,12104,12105,12114,12113,12437,12438,12447,12446
*Nset, nset=WZ0
1459,1460,1461,1462,1463,1464,1465,1466,1467,1468,1469,1470,1471,1472,1473,1474,1475,1476,1477,1478,1479,1480,1481,1482,1483,1484,1485,1486,1487,1488,1489,1490,1491,1492,1493,1494,1495,1496,1497,1498,1499,1500,1501,1502,1503,1504,1505,1506,1507,1508,1509,1510,1511,1512,1513,1514,1515,1516,1517,1518,1519,1520,1521,1522,1523,1524,1525,1526,1527,1528,1529,1530,1531,1532,1533,1534,1535,1536,1537,1538,1539,1540,1541,1542,1543,1544,1545,1546,1547,1548,1549,1550,1551,1552,1553,1554,1555,1556,1557,1558,1559,1560,1561,1562,1563,1564,1565,1566,1567,1568,1569,1570,1571,1572,1573,1574,1575,1576,1577,1578,1579,1580,1581,1582,1583,1584,1585,1586,1587,1588,1589,1590,1591,1592,1593,1594,1595,1596,1597,1598,1599,1600,1601,1602,1603,1604,1605,1606,1607,1608,1609,1610,1611,1612,1613,1614,1615,1616,1617,1618,1619,1620,1621,1622,1623,1624,1625,1626,1627,1628,1629,1630,1631,1632,1633,1634,1635,1636,1637,1638,1639,1640,1641,1642,1643,1644,1645,1646,1647,1648,1649,1650,1651,1652,1653,1654,1655,1656,1657,1658,1659,1660,1661,1662,1663,1664,1665,1666,1667,1668,1669,1670,1671,1672,1673,1674,1675,1676,1677,1678,1679,1680,1681,1682,1683,1684,1685,1686,1687,1688,1689,1690,1691,1692,1693,1694,1695,1696,1697,1698,1699,1700,1701,1702,1703,1704,1705,1706,1707,1708,1709,1710,1711,1712,1713,1714,1715,1716,1717,1718,1719,1720,1721,1722,1723,1724,1725,1726,1727,1728,1729,1730,1731,1732,1733,1734,1735,1736,1737,1738,1739,1740,1741,1742,1743,1744,1745,1746,1747,1748,1749,1750,1751,1752,1753,1754,1755,1756,1757,1758,1759,1760,1761,1762,1763,1764,1765,1766,1767,1768,1769,1770,1771,1772,1773,1774,1775,1776,1777,1778,1779,1780,1781,1782,1783,1784,1785,1786,1787,1788,1789,1790,1791,
*Nset, nset=WZL
12115,12116,12117,12118,12119,12120,12121,12122,12123,12124,12125,12126,12127,12128,12129,12130,12131,12132,12133,12134,12135,12136,12137,12138,12139,12140,12141,12142,12143,12144,12145,12146,12147,12148,12149,12150,12151,12152,12153,12154,12155,12156,12157,12158,12159,12160,12161,12162,12163,12164,12165,12166,12167,12168,12169,12170,12171,12172,12173,12174,12175,12176,12177,12178,12179,12180,12181,12182,12183,12184,12185,12186,12187,12188,12189,12190,12191,12192,12193,12194,12195,12196,12197,12198,12199,12200,12201,12202,12203,12204,12205,12206,12207,12208,12209,12210,12211,12212,12213,12214,12215,12216,12217,12218,12219,12220,12221,12222,12223,12224,12225,12226,12227,12228,12229,12230,12231,12232,12233,12234,12235,12236,12237,12238,12239,12240,12241,12242,12243,12244,12245,12246,12247,12248,12249,12250,12251,12252,12253,12254,12255,12256,12257,12258,12259,12260,12261,12262,12263,12264,12265,12266,12267,12268,12269,12270,12271,12272,12273,12274,12275,12276,12277,12278,12279,12280,12281,12282,12283,12284,12285,12286,12287,12288,12289,12290,12291,12292,12293,12294,12295,12296,12297,12298,12299,12300,12301,12302,12303,12304,12305,12306,12307,12308,12309,12310,12311,12312,12313,12314,12315,12316,12317,12318,12319,12320,12321,12322,12323,12324,12325,12326,12327,12328,12329,12330,12331,12332,12333,12334,12335,12336,12337,12338,12339,12340,12341,12342,12343,12344,12345,12346,12347,12348,12349,12350,12351,12352,12353,12354,12355,12356,12357,12358,12359,12360,12361,12362,12363,12364,12365,12366,12367,12368,12369,12370,12371,12372,12373,12374,12375,12376,12377,12378,12379,12380,12381,12382,12383,12384,12385,12386,12387,12388,12389,12390,12391,12392,12393,12394,12395,12396,12397,12398,12399,12400,12401,12402,12403,12404,12405,12406,12407,12408,12409,12410,12411,12412,12413,12414,12415,12416,12417,12418,12419,12420,12421,12422,12423,12424,12425,12426,12427,12428,12429,12430,12431,12432,12433,12434,12435,12436,12437,12438,12439,12440,12441,12442,12443,12444,12445,12446,12447,
*Solid Section, elset=WPALL, material=AISI_304
,
*End Part
*Assembly, name=Assembly
*Instance, name=BI, part=Belt
*End Instance
*Instance, name=WI, part=WP
*End Instance
*End Assembly
*Surface Interaction, name=GenProp
*Friction
0.45,
*Surface Behavior, pressure-overclosure=HARD
,
*Contact
*Contact Inclusions, ALL EXTERIOR
*Contact Property Assignment
,,GenProp
*Step, name=Pretension, nlgeom=YES, inc=2000, unsymm=YES
*Static, stabilize=0.0001
0.01,1.0,1e-08,0.1
*Boundary
BI.LEFT,1,3,0.
BI.LEFT,4,6,0.
BI.RIGHT,1,1,0.41
BI.RIGHT,2,3,0.
BI.RIGHT,4,6,0.
WI.WZ0,ENCASTRE
WI.WZL,ENCASTRE
*Output, field
*Node Output
U,RF
*Element Output
S
*Contact Output
CSTATUS,CNORMF
*End Step
*Step, name=Closure, nlgeom=YES, inc=2000, unsymm=YES
*Static, stabilize=0.0001
0.01,1.0,1e-08,0.1
*Boundary, op=NEW
BI.LEFT,1,3,0.
BI.LEFT,4,6,0.
BI.RIGHT,1,1,0.41
BI.RIGHT,2,3,0.
BI.RIGHT,4,6,0.
BI.BELTMID,3,3,0.1500
WI.WZ0,ENCASTRE
WI.WZL,ENCASTRE
*Output, field
*Node Output
U,RF
*Element Output
S,SF,PEEQ
*Contact Output
CSTATUS,CNORMF
*End Step
*Step, name=Equilibrium, nlgeom=YES, inc=2000, unsymm=YES
*Static, stabilize=0.00005
0.01,1.0,1e-08,0.1
*Boundary, op=NEW
BI.LEFT,1,3,0.
BI.LEFT,4,6,0.
BI.RIGHT,1,1,0.41
BI.RIGHT,2,3,0.
BI.RIGHT,4,6,0.
BI.BELTMID,3,3,0.1500
WI.WZ0,ENCASTRE
WI.WZL,ENCASTRE
*Output, field
*Node Output
U,RF
*Element Output
S,SF,PEEQ
*Contact Output
CSTATUS,CNORMF
*End Step
