*Heading
** V9 Frame-Driven Contact: rough, x2=42.5mm, theta=11.8479deg
** True Cylinder O-grid WP + Curved Belt S4R shell
*Preprint, echo=NO, model=NO, history=NO, contact=NO
*Material, name=AISI_304
*Density
 7.9e-09,
*Elastic
 200000.0, 0.30
*Plastic
  230.0, 0.000000
  270.0, 0.002000
  320.0, 0.010000
  390.0, 0.030000
  470.0, 0.070000
  550.0, 0.150000
  630.0, 0.250000
  700.0, 0.400000
*Material, name=BeltMat
*Density
 1.5e-09,
*Elastic
 4000.0, 0.30
*Part, name=Belt
*Node
  1, -15.00000, 49.56766, 25.80329
  2, -11.25000, 49.56766, 25.80329
  3, -7.50000, 49.56766, 25.80329
  4, -3.75000, 49.56766, 25.80329
  5, 0.00000, 49.56766, 25.80329
  6, 3.75000, 49.56766, 25.80329
  7, 7.50000, 49.56766, 25.80329
  8, 11.25000, 49.56766, 25.80329
  9, 15.00000, 49.56766, 25.80329
  10, -15.00000, 48.23129, 26.68921
  11, -11.25000, 48.23129, 26.68921
  12, -7.50000, 48.23129, 26.68921
  13, -3.75000, 48.23129, 26.68921
  14, 0.00000, 48.23129, 26.68921
  15, 3.75000, 48.23129, 26.68921
  16, 7.50000, 48.23129, 26.68921
  17, 11.25000, 48.23129, 26.68921
  18, 15.00000, 48.23129, 26.68921
  19, -15.00000, 46.85158, 27.50598
  20, -11.25000, 46.85158, 27.50598
  21, -7.50000, 46.85158, 27.50598
  22, -3.75000, 46.85158, 27.50598
  23, 0.00000, 46.85158, 27.50598
  24, 3.75000, 46.85158, 27.50598
  25, 7.50000, 46.85158, 27.50598
  26, 11.25000, 46.85158, 27.50598
  27, 15.00000, 46.85158, 27.50598
  28, -15.00000, 45.43209, 28.25149
  29, -11.25000, 45.43209, 28.25149
  30, -7.50000, 45.43209, 28.25149
  31, -3.75000, 45.43209, 28.25149
  32, 0.00000, 45.43209, 28.25149
  33, 3.75000, 45.43209, 28.25149
  34, 7.50000, 45.43209, 28.25149
  35, 11.25000, 45.43209, 28.25149
  36, 15.00000, 45.43209, 28.25149
  37, -15.00000, 43.97651, 28.92381
  38, -11.25000, 43.97651, 28.92381
  39, -7.50000, 43.97651, 28.92381
  40, -3.75000, 43.97651, 28.92381
  41, 0.00000, 43.97651, 28.92381
  42, 3.75000, 43.97651, 28.92381
  43, 7.50000, 43.97651, 28.92381
  44, 11.25000, 43.97651, 28.92381
  45, 15.00000, 43.97651, 28.92381
  46, -15.00000, 42.48861, 29.52119
  47, -11.25000, 42.48861, 29.52119
  48, -7.50000, 42.48861, 29.52119
  49, -3.75000, 42.48861, 29.52119
  50, 0.00000, 42.48861, 29.52119
  51, 3.75000, 42.48861, 29.52119
  52, 7.50000, 42.48861, 29.52119
  53, 11.25000, 42.48861, 29.52119
  54, 15.00000, 42.48861, 29.52119
  55, -15.00000, 40.97223, 30.04208
  56, -11.25000, 40.97223, 30.04208
  57, -7.50000, 40.97223, 30.04208
  58, -3.75000, 40.97223, 30.04208
  59, 0.00000, 40.97223, 30.04208
  60, 3.75000, 40.97223, 30.04208
  61, 7.50000, 40.97223, 30.04208
  62, 11.25000, 40.97223, 30.04208
  63, 15.00000, 40.97223, 30.04208
  64, -15.00000, 39.43132, 30.48515
  65, -11.25000, 39.43132, 30.48515
  66, -7.50000, 39.43132, 30.48515
  67, -3.75000, 39.43132, 30.48515
  68, 0.00000, 39.43132, 30.48515
  69, 3.75000, 39.43132, 30.48515
  70, 7.50000, 39.43132, 30.48515
  71, 11.25000, 39.43132, 30.48515
  72, 15.00000, 39.43132, 30.48515
  73, -15.00000, 37.86985, 30.84923
  74, -11.25000, 37.86985, 30.84923
  75, -7.50000, 37.86985, 30.84923
  76, -3.75000, 37.86985, 30.84923
  77, 0.00000, 37.86985, 30.84923
  78, 3.75000, 37.86985, 30.84923
  79, 7.50000, 37.86985, 30.84923
  80, 11.25000, 37.86985, 30.84923
  81, 15.00000, 37.86985, 30.84923
  82, -15.00000, 36.29189, 31.13339
  83, -11.25000, 36.29189, 31.13339
  84, -7.50000, 36.29189, 31.13339
  85, -3.75000, 36.29189, 31.13339
  86, 0.00000, 36.29189, 31.13339
  87, 3.75000, 36.29189, 31.13339
  88, 7.50000, 36.29189, 31.13339
  89, 11.25000, 36.29189, 31.13339
  90, 15.00000, 36.29189, 31.13339
  91, -15.00000, 34.70150, 31.33689
  92, -11.25000, 34.70150, 31.33689
  93, -7.50000, 34.70150, 31.33689
  94, -3.75000, 34.70150, 31.33689
  95, 0.00000, 34.70150, 31.33689
  96, 3.75000, 34.70150, 31.33689
  97, 7.50000, 34.70150, 31.33689
  98, 11.25000, 34.70150, 31.33689
  99, 15.00000, 34.70150, 31.33689
  100, -15.00000, 33.10283, 31.45919
  101, -11.25000, 33.10283, 31.45919
  102, -7.50000, 33.10283, 31.45919
  103, -3.75000, 33.10283, 31.45919
  104, 0.00000, 33.10283, 31.45919
  105, 3.75000, 33.10283, 31.45919
  106, 7.50000, 33.10283, 31.45919
  107, 11.25000, 33.10283, 31.45919
  108, 15.00000, 33.10283, 31.45919
  109, -15.00000, 31.50000, 31.50000
  110, -11.25000, 31.50000, 31.50000
  111, -7.50000, 31.50000, 31.50000
  112, -3.75000, 31.50000, 31.50000
  113, 0.00000, 31.50000, 31.50000
  114, 3.75000, 31.50000, 31.50000
  115, 7.50000, 31.50000, 31.50000
  116, 11.25000, 31.50000, 31.50000
  117, 15.00000, 31.50000, 31.50000
  118, -15.00000, 29.89717, 31.45919
  119, -11.25000, 29.89717, 31.45919
  120, -7.50000, 29.89717, 31.45919
  121, -3.75000, 29.89717, 31.45919
  122, 0.00000, 29.89717, 31.45919
  123, 3.75000, 29.89717, 31.45919
  124, 7.50000, 29.89717, 31.45919
  125, 11.25000, 29.89717, 31.45919
  126, 15.00000, 29.89717, 31.45919
  127, -15.00000, 28.29850, 31.33689
  128, -11.25000, 28.29850, 31.33689
  129, -7.50000, 28.29850, 31.33689
  130, -3.75000, 28.29850, 31.33689
  131, 0.00000, 28.29850, 31.33689
  132, 3.75000, 28.29850, 31.33689
  133, 7.50000, 28.29850, 31.33689
  134, 11.25000, 28.29850, 31.33689
  135, 15.00000, 28.29850, 31.33689
  136, -15.00000, 26.70811, 31.13339
  137, -11.25000, 26.70811, 31.13339
  138, -7.50000, 26.70811, 31.13339
  139, -3.75000, 26.70811, 31.13339
  140, 0.00000, 26.70811, 31.13339
  141, 3.75000, 26.70811, 31.13339
  142, 7.50000, 26.70811, 31.13339
  143, 11.25000, 26.70811, 31.13339
  144, 15.00000, 26.70811, 31.13339
  145, -15.00000, 25.13015, 30.84923
  146, -11.25000, 25.13015, 30.84923
  147, -7.50000, 25.13015, 30.84923
  148, -3.75000, 25.13015, 30.84923
  149, 0.00000, 25.13015, 30.84923
  150, 3.75000, 25.13015, 30.84923
  151, 7.50000, 25.13015, 30.84923
  152, 11.25000, 25.13015, 30.84923
  153, 15.00000, 25.13015, 30.84923
  154, -15.00000, 23.56868, 30.48515
  155, -11.25000, 23.56868, 30.48515
  156, -7.50000, 23.56868, 30.48515
  157, -3.75000, 23.56868, 30.48515
  158, 0.00000, 23.56868, 30.48515
  159, 3.75000, 23.56868, 30.48515
  160, 7.50000, 23.56868, 30.48515
  161, 11.25000, 23.56868, 30.48515
  162, 15.00000, 23.56868, 30.48515
  163, -15.00000, 22.02777, 30.04208
  164, -11.25000, 22.02777, 30.04208
  165, -7.50000, 22.02777, 30.04208
  166, -3.75000, 22.02777, 30.04208
  167, 0.00000, 22.02777, 30.04208
  168, 3.75000, 22.02777, 30.04208
  169, 7.50000, 22.02777, 30.04208
  170, 11.25000, 22.02777, 30.04208
  171, 15.00000, 22.02777, 30.04208
  172, -15.00000, 20.51139, 29.52119
  173, -11.25000, 20.51139, 29.52119
  174, -7.50000, 20.51139, 29.52119
  175, -3.75000, 20.51139, 29.52119
  176, 0.00000, 20.51139, 29.52119
  177, 3.75000, 20.51139, 29.52119
  178, 7.50000, 20.51139, 29.52119
  179, 11.25000, 20.51139, 29.52119
  180, 15.00000, 20.51139, 29.52119
  181, -15.00000, 19.02349, 28.92381
  182, -11.25000, 19.02349, 28.92381
  183, -7.50000, 19.02349, 28.92381
  184, -3.75000, 19.02349, 28.92381
  185, 0.00000, 19.02349, 28.92381
  186, 3.75000, 19.02349, 28.92381
  187, 7.50000, 19.02349, 28.92381
  188, 11.25000, 19.02349, 28.92381
  189, 15.00000, 19.02349, 28.92381
  190, -15.00000, 17.56791, 28.25149
  191, -11.25000, 17.56791, 28.25149
  192, -7.50000, 17.56791, 28.25149
  193, -3.75000, 17.56791, 28.25149
  194, 0.00000, 17.56791, 28.25149
  195, 3.75000, 17.56791, 28.25149
  196, 7.50000, 17.56791, 28.25149
  197, 11.25000, 17.56791, 28.25149
  198, 15.00000, 17.56791, 28.25149
  199, -15.00000, 16.14842, 27.50598
  200, -11.25000, 16.14842, 27.50598
  201, -7.50000, 16.14842, 27.50598
  202, -3.75000, 16.14842, 27.50598
  203, 0.00000, 16.14842, 27.50598
  204, 3.75000, 16.14842, 27.50598
  205, 7.50000, 16.14842, 27.50598
  206, 11.25000, 16.14842, 27.50598
  207, 15.00000, 16.14842, 27.50598
  208, -15.00000, 14.76871, 26.68921
  209, -11.25000, 14.76871, 26.68921
  210, -7.50000, 14.76871, 26.68921
  211, -3.75000, 14.76871, 26.68921
  212, 0.00000, 14.76871, 26.68921
  213, 3.75000, 14.76871, 26.68921
  214, 7.50000, 14.76871, 26.68921
  215, 11.25000, 14.76871, 26.68921
  216, 15.00000, 14.76871, 26.68921
  217, -15.00000, 13.43234, 25.80329
  218, -11.25000, 13.43234, 25.80329
  219, -7.50000, 13.43234, 25.80329
  220, -3.75000, 13.43234, 25.80329
  221, 0.00000, 13.43234, 25.80329
  222, 3.75000, 13.43234, 25.80329
  223, 7.50000, 13.43234, 25.80329
  224, 11.25000, 13.43234, 25.80329
  225, 15.00000, 13.43234, 25.80329
*Element, type=S4R, ELSET=EALL
  1, 1, 2, 11, 10
  2, 2, 3, 12, 11
  3, 3, 4, 13, 12
  4, 4, 5, 14, 13
  5, 5, 6, 15, 14
  6, 6, 7, 16, 15
  7, 7, 8, 17, 16
  8, 8, 9, 18, 17
  9, 10, 11, 20, 19
  10, 11, 12, 21, 20
  11, 12, 13, 22, 21
  12, 13, 14, 23, 22
  13, 14, 15, 24, 23
  14, 15, 16, 25, 24
  15, 16, 17, 26, 25
  16, 17, 18, 27, 26
  17, 19, 20, 29, 28
  18, 20, 21, 30, 29
  19, 21, 22, 31, 30
  20, 22, 23, 32, 31
  21, 23, 24, 33, 32
  22, 24, 25, 34, 33
  23, 25, 26, 35, 34
  24, 26, 27, 36, 35
  25, 28, 29, 38, 37
  26, 29, 30, 39, 38
  27, 30, 31, 40, 39
  28, 31, 32, 41, 40
  29, 32, 33, 42, 41
  30, 33, 34, 43, 42
  31, 34, 35, 44, 43
  32, 35, 36, 45, 44
  33, 37, 38, 47, 46
  34, 38, 39, 48, 47
  35, 39, 40, 49, 48
  36, 40, 41, 50, 49
  37, 41, 42, 51, 50
  38, 42, 43, 52, 51
  39, 43, 44, 53, 52
  40, 44, 45, 54, 53
  41, 46, 47, 56, 55
  42, 47, 48, 57, 56
  43, 48, 49, 58, 57
  44, 49, 50, 59, 58
  45, 50, 51, 60, 59
  46, 51, 52, 61, 60
  47, 52, 53, 62, 61
  48, 53, 54, 63, 62
  49, 55, 56, 65, 64
  50, 56, 57, 66, 65
  51, 57, 58, 67, 66
  52, 58, 59, 68, 67
  53, 59, 60, 69, 68
  54, 60, 61, 70, 69
  55, 61, 62, 71, 70
  56, 62, 63, 72, 71
  57, 64, 65, 74, 73
  58, 65, 66, 75, 74
  59, 66, 67, 76, 75
  60, 67, 68, 77, 76
  61, 68, 69, 78, 77
  62, 69, 70, 79, 78
  63, 70, 71, 80, 79
  64, 71, 72, 81, 80
  65, 73, 74, 83, 82
  66, 74, 75, 84, 83
  67, 75, 76, 85, 84
  68, 76, 77, 86, 85
  69, 77, 78, 87, 86
  70, 78, 79, 88, 87
  71, 79, 80, 89, 88
  72, 80, 81, 90, 89
  73, 82, 83, 92, 91
  74, 83, 84, 93, 92
  75, 84, 85, 94, 93
  76, 85, 86, 95, 94
  77, 86, 87, 96, 95
  78, 87, 88, 97, 96
  79, 88, 89, 98, 97
  80, 89, 90, 99, 98
  81, 91, 92, 101, 100
  82, 92, 93, 102, 101
  83, 93, 94, 103, 102
  84, 94, 95, 104, 103
  85, 95, 96, 105, 104
  86, 96, 97, 106, 105
  87, 97, 98, 107, 106
  88, 98, 99, 108, 107
  89, 100, 101, 110, 109
  90, 101, 102, 111, 110
  91, 102, 103, 112, 111
  92, 103, 104, 113, 112
  93, 104, 105, 114, 113
  94, 105, 106, 115, 114
  95, 106, 107, 116, 115
  96, 107, 108, 117, 116
  97, 109, 110, 119, 118
  98, 110, 111, 120, 119
  99, 111, 112, 121, 120
  100, 112, 113, 122, 121
  101, 113, 114, 123, 122
  102, 114, 115, 124, 123
  103, 115, 116, 125, 124
  104, 116, 117, 126, 125
  105, 118, 119, 128, 127
  106, 119, 120, 129, 128
  107, 120, 121, 130, 129
  108, 121, 122, 131, 130
  109, 122, 123, 132, 131
  110, 123, 124, 133, 132
  111, 124, 125, 134, 133
  112, 125, 126, 135, 134
  113, 127, 128, 137, 136
  114, 128, 129, 138, 137
  115, 129, 130, 139, 138
  116, 130, 131, 140, 139
  117, 131, 132, 141, 140
  118, 132, 133, 142, 141
  119, 133, 134, 143, 142
  120, 134, 135, 144, 143
  121, 136, 137, 146, 145
  122, 137, 138, 147, 146
  123, 138, 139, 148, 147
  124, 139, 140, 149, 148
  125, 140, 141, 150, 149
  126, 141, 142, 151, 150
  127, 142, 143, 152, 151
  128, 143, 144, 153, 152
  129, 145, 146, 155, 154
  130, 146, 147, 156, 155
  131, 147, 148, 157, 156
  132, 148, 149, 158, 157
  133, 149, 150, 159, 158
  134, 150, 151, 160, 159
  135, 151, 152, 161, 160
  136, 152, 153, 162, 161
  137, 154, 155, 164, 163
  138, 155, 156, 165, 164
  139, 156, 157, 166, 165
  140, 157, 158, 167, 166
  141, 158, 159, 168, 167
  142, 159, 160, 169, 168
  143, 160, 161, 170, 169
  144, 161, 162, 171, 170
  145, 163, 164, 173, 172
  146, 164, 165, 174, 173
  147, 165, 166, 175, 174
  148, 166, 167, 176, 175
  149, 167, 168, 177, 176
  150, 168, 169, 178, 177
  151, 169, 170, 179, 178
  152, 170, 171, 180, 179
  153, 172, 173, 182, 181
  154, 173, 174, 183, 182
  155, 174, 175, 184, 183
  156, 175, 176, 185, 184
  157, 176, 177, 186, 185
  158, 177, 178, 187, 186
  159, 178, 179, 188, 187
  160, 179, 180, 189, 188
  161, 181, 182, 191, 190
  162, 182, 183, 192, 191
  163, 183, 184, 193, 192
  164, 184, 185, 194, 193
  165, 185, 186, 195, 194
  166, 186, 187, 196, 195
  167, 187, 188, 197, 196
  168, 188, 189, 198, 197
  169, 190, 191, 200, 199
  170, 191, 192, 201, 200
  171, 192, 193, 202, 201
  172, 193, 194, 203, 202
  173, 194, 195, 204, 203
  174, 195, 196, 205, 204
  175, 196, 197, 206, 205
  176, 197, 198, 207, 206
  177, 199, 200, 209, 208
  178, 200, 201, 210, 209
  179, 201, 202, 211, 210
  180, 202, 203, 212, 211
  181, 203, 204, 213, 212
  182, 204, 205, 214, 213
  183, 205, 206, 215, 214
  184, 206, 207, 216, 215
  185, 208, 209, 218, 217
  186, 209, 210, 219, 218
  187, 210, 211, 220, 219
  188, 211, 212, 221, 220
  189, 212, 213, 222, 221
  190, 213, 214, 223, 222
  191, 214, 215, 224, 223
  192, 215, 216, 225, 224
*Nset, nset=BLEFT
  1,
  2,
  3,
  4,
  5,
  6,
  7,
  8,
  9,
*Nset, nset=BRIGHT
  217,
  218,
  219,
  220,
  221,
  222,
  223,
  224,
  225,
*Shell Section, elset=EALL, material=BeltMat
  1.0,
*End Part
*Part, name=WP
*Node
  1225, 0.00000, 0.50000, 0.00000
  1226, 0.00000, 2.06250, 0.00000
  1227, 0.00000, 3.62500, 0.00000
  1228, 0.00000, 5.18750, 0.00000
  1229, 0.00000, 6.75000, 0.00000
  1230, 0.00000, 8.31250, 0.00000
  1231, 0.00000, 9.87500, 0.00000
  1232, 0.00000, 11.43750, 0.00000
  1233, 0.00000, 13.00000, 0.00000
  1234, 0.00000, 0.49240, 0.08682
  1235, 0.00000, 2.03117, 0.35815
  1236, 0.00000, 3.56993, 0.62947
  1237, 0.00000, 5.10869, 0.90080
  1238, 0.00000, 6.64745, 1.17213
  1239, 0.00000, 8.18621, 1.44345
  1240, 0.00000, 9.72498, 1.71478
  1241, 0.00000, 11.26374, 1.98610
  1242, 0.00000, 12.80250, 2.25743
  1243, 0.00000, 0.46985, 0.17101
  1244, 0.00000, 1.93812, 0.70542
  1245, 0.00000, 3.40639, 1.23982
  1246, 0.00000, 4.87466, 1.77423
  1247, 0.00000, 6.34293, 2.30864
  1248, 0.00000, 7.81119, 2.84304
  1249, 0.00000, 9.27946, 3.37745
  1250, 0.00000, 10.74773, 3.91186
  1251, 0.00000, 12.21600, 4.44626
  1252, 0.00000, 0.43301, 0.25000
  1253, 0.00000, 1.78618, 1.03125
  1254, 0.00000, 3.13934, 1.81250
  1255, 0.00000, 4.49251, 2.59375
  1256, 0.00000, 5.84567, 3.37500
  1257, 0.00000, 7.19884, 4.15625
  1258, 0.00000, 8.55200, 4.93750
  1259, 0.00000, 9.90517, 5.71875
  1260, 0.00000, 11.25833, 6.50000
  1261, 0.00000, 0.38302, 0.32139
  1262, 0.00000, 1.57997, 1.32575
  1263, 0.00000, 2.77691, 2.33011
  1264, 0.00000, 3.97386, 3.33446
  1265, 0.00000, 5.17080, 4.33882
  1266, 0.00000, 6.36774, 5.34317
  1267, 0.00000, 7.56469, 6.34753
  1268, 0.00000, 8.76163, 7.35188
  1269, 0.00000, 9.95858, 8.35624
  1270, 0.00000, 0.32139, 0.38302
  1271, 0.00000, 1.32575, 1.57997
  1272, 0.00000, 2.33011, 2.77691
  1273, 0.00000, 3.33446, 3.97386
  1274, 0.00000, 4.33882, 5.17080
  1275, 0.00000, 5.34317, 6.36774
  1276, 0.00000, 6.34753, 7.56469
  1277, 0.00000, 7.35188, 8.76163
  1278, 0.00000, 8.35624, 9.95858
  1279, 0.00000, 0.25000, 0.43301
  1280, 0.00000, 1.03125, 1.78618
  1281, 0.00000, 1.81250, 3.13934
  1282, 0.00000, 2.59375, 4.49251
  1283, 0.00000, 3.37500, 5.84567
  1284, 0.00000, 4.15625, 7.19884
  1285, 0.00000, 4.93750, 8.55200
  1286, 0.00000, 5.71875, 9.90517
  1287, 0.00000, 6.50000, 11.25833
  1288, 0.00000, 0.17101, 0.46985
  1289, 0.00000, 0.70542, 1.93812
  1290, 0.00000, 1.23982, 3.40639
  1291, 0.00000, 1.77423, 4.87466
  1292, 0.00000, 2.30864, 6.34293
  1293, 0.00000, 2.84304, 7.81119
  1294, 0.00000, 3.37745, 9.27946
  1295, 0.00000, 3.91186, 10.74773
  1296, 0.00000, 4.44626, 12.21600
  1297, 0.00000, 0.08682, 0.49240
  1298, 0.00000, 0.35815, 2.03117
  1299, 0.00000, 0.62947, 3.56993
  1300, 0.00000, 0.90080, 5.10869
  1301, 0.00000, 1.17213, 6.64745
  1302, 0.00000, 1.44345, 8.18621
  1303, 0.00000, 1.71478, 9.72498
  1304, 0.00000, 1.98610, 11.26374
  1305, 0.00000, 2.25743, 12.80250
  1306, 0.00000, 0.00000, 0.50000
  1307, 0.00000, 0.00000, 2.06250
  1308, 0.00000, 0.00000, 3.62500
  1309, 0.00000, 0.00000, 5.18750
  1310, 0.00000, 0.00000, 6.75000
  1311, 0.00000, 0.00000, 8.31250
  1312, 0.00000, 0.00000, 9.87500
  1313, 0.00000, 0.00000, 11.43750
  1314, 0.00000, 0.00000, 13.00000
  1315, 0.00000, -0.08682, 0.49240
  1316, 0.00000, -0.35815, 2.03117
  1317, 0.00000, -0.62947, 3.56993
  1318, 0.00000, -0.90080, 5.10869
  1319, 0.00000, -1.17213, 6.64745
  1320, 0.00000, -1.44345, 8.18621
  1321, 0.00000, -1.71478, 9.72498
  1322, 0.00000, -1.98610, 11.26374
  1323, 0.00000, -2.25743, 12.80250
  1324, 0.00000, -0.17101, 0.46985
  1325, 0.00000, -0.70542, 1.93812
  1326, 0.00000, -1.23982, 3.40639
  1327, 0.00000, -1.77423, 4.87466
  1328, 0.00000, -2.30864, 6.34293
  1329, 0.00000, -2.84304, 7.81119
  1330, 0.00000, -3.37745, 9.27946
  1331, 0.00000, -3.91186, 10.74773
  1332, 0.00000, -4.44626, 12.21600
  1333, 0.00000, -0.25000, 0.43301
  1334, 0.00000, -1.03125, 1.78618
  1335, 0.00000, -1.81250, 3.13934
  1336, 0.00000, -2.59375, 4.49251
  1337, 0.00000, -3.37500, 5.84567
  1338, 0.00000, -4.15625, 7.19884
  1339, 0.00000, -4.93750, 8.55200
  1340, 0.00000, -5.71875, 9.90517
  1341, 0.00000, -6.50000, 11.25833
  1342, 0.00000, -0.32139, 0.38302
  1343, 0.00000, -1.32575, 1.57997
  1344, 0.00000, -2.33011, 2.77691
  1345, 0.00000, -3.33446, 3.97386
  1346, 0.00000, -4.33882, 5.17080
  1347, 0.00000, -5.34317, 6.36774
  1348, 0.00000, -6.34753, 7.56469
  1349, 0.00000, -7.35188, 8.76163
  1350, 0.00000, -8.35624, 9.95858
  1351, 0.00000, -0.38302, 0.32139
  1352, 0.00000, -1.57997, 1.32575
  1353, 0.00000, -2.77691, 2.33011
  1354, 0.00000, -3.97386, 3.33446
  1355, 0.00000, -5.17080, 4.33882
  1356, 0.00000, -6.36774, 5.34317
  1357, 0.00000, -7.56469, 6.34753
  1358, 0.00000, -8.76163, 7.35188
  1359, 0.00000, -9.95858, 8.35624
  1360, 0.00000, -0.43301, 0.25000
  1361, 0.00000, -1.78618, 1.03125
  1362, 0.00000, -3.13934, 1.81250
  1363, 0.00000, -4.49251, 2.59375
  1364, 0.00000, -5.84567, 3.37500
  1365, 0.00000, -7.19884, 4.15625
  1366, 0.00000, -8.55200, 4.93750
  1367, 0.00000, -9.90517, 5.71875
  1368, 0.00000, -11.25833, 6.50000
  1369, 0.00000, -0.46985, 0.17101
  1370, 0.00000, -1.93812, 0.70542
  1371, 0.00000, -3.40639, 1.23982
  1372, 0.00000, -4.87466, 1.77423
  1373, 0.00000, -6.34293, 2.30864
  1374, 0.00000, -7.81119, 2.84304
  1375, 0.00000, -9.27946, 3.37745
  1376, 0.00000, -10.74773, 3.91186
  1377, 0.00000, -12.21600, 4.44626
  1378, 0.00000, -0.49240, 0.08682
  1379, 0.00000, -2.03117, 0.35815
  1380, 0.00000, -3.56993, 0.62947
  1381, 0.00000, -5.10869, 0.90080
  1382, 0.00000, -6.64745, 1.17213
  1383, 0.00000, -8.18621, 1.44345
  1384, 0.00000, -9.72498, 1.71478
  1385, 0.00000, -11.26374, 1.98610
  1386, 0.00000, -12.80250, 2.25743
  1387, 0.00000, -0.50000, 0.00000
  1388, 0.00000, -2.06250, 0.00000
  1389, 0.00000, -3.62500, 0.00000
  1390, 0.00000, -5.18750, 0.00000
  1391, 0.00000, -6.75000, 0.00000
  1392, 0.00000, -8.31250, 0.00000
  1393, 0.00000, -9.87500, 0.00000
  1394, 0.00000, -11.43750, 0.00000
  1395, 0.00000, -13.00000, 0.00000
  1396, 0.00000, -0.49240, -0.08682
  1397, 0.00000, -2.03117, -0.35815
  1398, 0.00000, -3.56993, -0.62947
  1399, 0.00000, -5.10869, -0.90080
  1400, 0.00000, -6.64745, -1.17213
  1401, 0.00000, -8.18621, -1.44345
  1402, 0.00000, -9.72498, -1.71478
  1403, 0.00000, -11.26374, -1.98610
  1404, 0.00000, -12.80250, -2.25743
  1405, 0.00000, -0.46985, -0.17101
  1406, 0.00000, -1.93812, -0.70542
  1407, 0.00000, -3.40639, -1.23982
  1408, 0.00000, -4.87466, -1.77423
  1409, 0.00000, -6.34293, -2.30864
  1410, 0.00000, -7.81119, -2.84304
  1411, 0.00000, -9.27946, -3.37745
  1412, 0.00000, -10.74773, -3.91186
  1413, 0.00000, -12.21600, -4.44626
  1414, 0.00000, -0.43301, -0.25000
  1415, 0.00000, -1.78618, -1.03125
  1416, 0.00000, -3.13934, -1.81250
  1417, 0.00000, -4.49251, -2.59375
  1418, 0.00000, -5.84567, -3.37500
  1419, 0.00000, -7.19884, -4.15625
  1420, 0.00000, -8.55200, -4.93750
  1421, 0.00000, -9.90517, -5.71875
  1422, 0.00000, -11.25833, -6.50000
  1423, 0.00000, -0.38302, -0.32139
  1424, 0.00000, -1.57997, -1.32575
  1425, 0.00000, -2.77691, -2.33011
  1426, 0.00000, -3.97386, -3.33446
  1427, 0.00000, -5.17080, -4.33882
  1428, 0.00000, -6.36774, -5.34317
  1429, 0.00000, -7.56469, -6.34753
  1430, 0.00000, -8.76163, -7.35188
  1431, 0.00000, -9.95858, -8.35624
  1432, 0.00000, -0.32139, -0.38302
  1433, 0.00000, -1.32575, -1.57997
  1434, 0.00000, -2.33011, -2.77691
  1435, 0.00000, -3.33446, -3.97386
  1436, 0.00000, -4.33882, -5.17080
  1437, 0.00000, -5.34317, -6.36774
  1438, 0.00000, -6.34753, -7.56469
  1439, 0.00000, -7.35188, -8.76163
  1440, 0.00000, -8.35624, -9.95858
  1441, 0.00000, -0.25000, -0.43301
  1442, 0.00000, -1.03125, -1.78618
  1443, 0.00000, -1.81250, -3.13934
  1444, 0.00000, -2.59375, -4.49251
  1445, 0.00000, -3.37500, -5.84567
  1446, 0.00000, -4.15625, -7.19884
  1447, 0.00000, -4.93750, -8.55200
  1448, 0.00000, -5.71875, -9.90517
  1449, 0.00000, -6.50000, -11.25833
  1450, 0.00000, -0.17101, -0.46985
  1451, 0.00000, -0.70542, -1.93812
  1452, 0.00000, -1.23982, -3.40639
  1453, 0.00000, -1.77423, -4.87466
  1454, 0.00000, -2.30864, -6.34293
  1455, 0.00000, -2.84304, -7.81119
  1456, 0.00000, -3.37745, -9.27946
  1457, 0.00000, -3.91186, -10.74773
  1458, 0.00000, -4.44626, -12.21600
  1459, 0.00000, -0.08682, -0.49240
  1460, 0.00000, -0.35815, -2.03117
  1461, 0.00000, -0.62947, -3.56993
  1462, 0.00000, -0.90080, -5.10869
  1463, 0.00000, -1.17213, -6.64745
  1464, 0.00000, -1.44345, -8.18621
  1465, 0.00000, -1.71478, -9.72498
  1466, 0.00000, -1.98610, -11.26374
  1467, 0.00000, -2.25743, -12.80250
  1468, 0.00000, -0.00000, -0.50000
  1469, 0.00000, -0.00000, -2.06250
  1470, 0.00000, -0.00000, -3.62500
  1471, 0.00000, -0.00000, -5.18750
  1472, 0.00000, -0.00000, -6.75000
  1473, 0.00000, -0.00000, -8.31250
  1474, 0.00000, -0.00000, -9.87500
  1475, 0.00000, -0.00000, -11.43750
  1476, 0.00000, -0.00000, -13.00000
  1477, 0.00000, 0.08682, -0.49240
  1478, 0.00000, 0.35815, -2.03117
  1479, 0.00000, 0.62947, -3.56993
  1480, 0.00000, 0.90080, -5.10869
  1481, 0.00000, 1.17213, -6.64745
  1482, 0.00000, 1.44345, -8.18621
  1483, 0.00000, 1.71478, -9.72498
  1484, 0.00000, 1.98610, -11.26374
  1485, 0.00000, 2.25743, -12.80250
  1486, 0.00000, 0.17101, -0.46985
  1487, 0.00000, 0.70542, -1.93812
  1488, 0.00000, 1.23982, -3.40639
  1489, 0.00000, 1.77423, -4.87466
  1490, 0.00000, 2.30864, -6.34293
  1491, 0.00000, 2.84304, -7.81119
  1492, 0.00000, 3.37745, -9.27946
  1493, 0.00000, 3.91186, -10.74773
  1494, 0.00000, 4.44626, -12.21600
  1495, 0.00000, 0.25000, -0.43301
  1496, 0.00000, 1.03125, -1.78618
  1497, 0.00000, 1.81250, -3.13934
  1498, 0.00000, 2.59375, -4.49251
  1499, 0.00000, 3.37500, -5.84567
  1500, 0.00000, 4.15625, -7.19884
  1501, 0.00000, 4.93750, -8.55200
  1502, 0.00000, 5.71875, -9.90517
  1503, 0.00000, 6.50000, -11.25833
  1504, 0.00000, 0.32139, -0.38302
  1505, 0.00000, 1.32575, -1.57997
  1506, 0.00000, 2.33011, -2.77691
  1507, 0.00000, 3.33446, -3.97386
  1508, 0.00000, 4.33882, -5.17080
  1509, 0.00000, 5.34317, -6.36774
  1510, 0.00000, 6.34753, -7.56469
  1511, 0.00000, 7.35188, -8.76163
  1512, 0.00000, 8.35624, -9.95858
  1513, 0.00000, 0.38302, -0.32139
  1514, 0.00000, 1.57997, -1.32575
  1515, 0.00000, 2.77691, -2.33011
  1516, 0.00000, 3.97386, -3.33446
  1517, 0.00000, 5.17080, -4.33882
  1518, 0.00000, 6.36774, -5.34317
  1519, 0.00000, 7.56469, -6.34753
  1520, 0.00000, 8.76163, -7.35188
  1521, 0.00000, 9.95858, -8.35624
  1522, 0.00000, 0.43301, -0.25000
  1523, 0.00000, 1.78618, -1.03125
  1524, 0.00000, 3.13934, -1.81250
  1525, 0.00000, 4.49251, -2.59375
  1526, 0.00000, 5.84567, -3.37500
  1527, 0.00000, 7.19884, -4.15625
  1528, 0.00000, 8.55200, -4.93750
  1529, 0.00000, 9.90517, -5.71875
  1530, 0.00000, 11.25833, -6.50000
  1531, 0.00000, 0.46985, -0.17101
  1532, 0.00000, 1.93812, -0.70542
  1533, 0.00000, 3.40639, -1.23982
  1534, 0.00000, 4.87466, -1.77423
  1535, 0.00000, 6.34293, -2.30864
  1536, 0.00000, 7.81119, -2.84304
  1537, 0.00000, 9.27946, -3.37745
  1538, 0.00000, 10.74773, -3.91186
  1539, 0.00000, 12.21600, -4.44626
  1540, 0.00000, 0.49240, -0.08682
  1541, 0.00000, 2.03117, -0.35815
  1542, 0.00000, 3.56993, -0.62947
  1543, 0.00000, 5.10869, -0.90080
  1544, 0.00000, 6.64745, -1.17213
  1545, 0.00000, 8.18621, -1.44345
  1546, 0.00000, 9.72498, -1.71478
  1547, 0.00000, 11.26374, -1.98610
  1548, 0.00000, 12.80250, -2.25743
  1549, 0.00000, 0.50000, -0.00000
  1550, 0.00000, 2.06250, -0.00000
  1551, 0.00000, 3.62500, -0.00000
  1552, 0.00000, 5.18750, -0.00000
  1553, 0.00000, 6.75000, -0.00000
  1554, 0.00000, 8.31250, -0.00000
  1555, 0.00000, 9.87500, -0.00000
  1556, 0.00000, 11.43750, -0.00000
  1557, 0.00000, 13.00000, -0.00000
  1558, 5.00000, 0.50000, 0.00000
  1559, 5.00000, 2.06250, 0.00000
  1560, 5.00000, 3.62500, 0.00000
  1561, 5.00000, 5.18750, 0.00000
  1562, 5.00000, 6.75000, 0.00000
  1563, 5.00000, 8.31250, 0.00000
  1564, 5.00000, 9.87500, 0.00000
  1565, 5.00000, 11.43750, 0.00000
  1566, 5.00000, 13.00000, 0.00000
  1567, 5.00000, 0.49240, 0.08682
  1568, 5.00000, 2.03117, 0.35815
  1569, 5.00000, 3.56993, 0.62947
  1570, 5.00000, 5.10869, 0.90080
  1571, 5.00000, 6.64745, 1.17213
  1572, 5.00000, 8.18621, 1.44345
  1573, 5.00000, 9.72498, 1.71478
  1574, 5.00000, 11.26374, 1.98610
  1575, 5.00000, 12.80250, 2.25743
  1576, 5.00000, 0.46985, 0.17101
  1577, 5.00000, 1.93812, 0.70542
  1578, 5.00000, 3.40639, 1.23982
  1579, 5.00000, 4.87466, 1.77423
  1580, 5.00000, 6.34293, 2.30864
  1581, 5.00000, 7.81119, 2.84304
  1582, 5.00000, 9.27946, 3.37745
  1583, 5.00000, 10.74773, 3.91186
  1584, 5.00000, 12.21600, 4.44626
  1585, 5.00000, 0.43301, 0.25000
  1586, 5.00000, 1.78618, 1.03125
  1587, 5.00000, 3.13934, 1.81250
  1588, 5.00000, 4.49251, 2.59375
  1589, 5.00000, 5.84567, 3.37500
  1590, 5.00000, 7.19884, 4.15625
  1591, 5.00000, 8.55200, 4.93750
  1592, 5.00000, 9.90517, 5.71875
  1593, 5.00000, 11.25833, 6.50000
  1594, 5.00000, 0.38302, 0.32139
  1595, 5.00000, 1.57997, 1.32575
  1596, 5.00000, 2.77691, 2.33011
  1597, 5.00000, 3.97386, 3.33446
  1598, 5.00000, 5.17080, 4.33882
  1599, 5.00000, 6.36774, 5.34317
  1600, 5.00000, 7.56469, 6.34753
  1601, 5.00000, 8.76163, 7.35188
  1602, 5.00000, 9.95858, 8.35624
  1603, 5.00000, 0.32139, 0.38302
  1604, 5.00000, 1.32575, 1.57997
  1605, 5.00000, 2.33011, 2.77691
  1606, 5.00000, 3.33446, 3.97386
  1607, 5.00000, 4.33882, 5.17080
  1608, 5.00000, 5.34317, 6.36774
  1609, 5.00000, 6.34753, 7.56469
  1610, 5.00000, 7.35188, 8.76163
  1611, 5.00000, 8.35624, 9.95858
  1612, 5.00000, 0.25000, 0.43301
  1613, 5.00000, 1.03125, 1.78618
  1614, 5.00000, 1.81250, 3.13934
  1615, 5.00000, 2.59375, 4.49251
  1616, 5.00000, 3.37500, 5.84567
  1617, 5.00000, 4.15625, 7.19884
  1618, 5.00000, 4.93750, 8.55200
  1619, 5.00000, 5.71875, 9.90517
  1620, 5.00000, 6.50000, 11.25833
  1621, 5.00000, 0.17101, 0.46985
  1622, 5.00000, 0.70542, 1.93812
  1623, 5.00000, 1.23982, 3.40639
  1624, 5.00000, 1.77423, 4.87466
  1625, 5.00000, 2.30864, 6.34293
  1626, 5.00000, 2.84304, 7.81119
  1627, 5.00000, 3.37745, 9.27946
  1628, 5.00000, 3.91186, 10.74773
  1629, 5.00000, 4.44626, 12.21600
  1630, 5.00000, 0.08682, 0.49240
  1631, 5.00000, 0.35815, 2.03117
  1632, 5.00000, 0.62947, 3.56993
  1633, 5.00000, 0.90080, 5.10869
  1634, 5.00000, 1.17213, 6.64745
  1635, 5.00000, 1.44345, 8.18621
  1636, 5.00000, 1.71478, 9.72498
  1637, 5.00000, 1.98610, 11.26374
  1638, 5.00000, 2.25743, 12.80250
  1639, 5.00000, 0.00000, 0.50000
  1640, 5.00000, 0.00000, 2.06250
  1641, 5.00000, 0.00000, 3.62500
  1642, 5.00000, 0.00000, 5.18750
  1643, 5.00000, 0.00000, 6.75000
  1644, 5.00000, 0.00000, 8.31250
  1645, 5.00000, 0.00000, 9.87500
  1646, 5.00000, 0.00000, 11.43750
  1647, 5.00000, 0.00000, 13.00000
  1648, 5.00000, -0.08682, 0.49240
  1649, 5.00000, -0.35815, 2.03117
  1650, 5.00000, -0.62947, 3.56993
  1651, 5.00000, -0.90080, 5.10869
  1652, 5.00000, -1.17213, 6.64745
  1653, 5.00000, -1.44345, 8.18621
  1654, 5.00000, -1.71478, 9.72498
  1655, 5.00000, -1.98610, 11.26374
  1656, 5.00000, -2.25743, 12.80250
  1657, 5.00000, -0.17101, 0.46985
  1658, 5.00000, -0.70542, 1.93812
  1659, 5.00000, -1.23982, 3.40639
  1660, 5.00000, -1.77423, 4.87466
  1661, 5.00000, -2.30864, 6.34293
  1662, 5.00000, -2.84304, 7.81119
  1663, 5.00000, -3.37745, 9.27946
  1664, 5.00000, -3.91186, 10.74773
  1665, 5.00000, -4.44626, 12.21600
  1666, 5.00000, -0.25000, 0.43301
  1667, 5.00000, -1.03125, 1.78618
  1668, 5.00000, -1.81250, 3.13934
  1669, 5.00000, -2.59375, 4.49251
  1670, 5.00000, -3.37500, 5.84567
  1671, 5.00000, -4.15625, 7.19884
  1672, 5.00000, -4.93750, 8.55200
  1673, 5.00000, -5.71875, 9.90517
  1674, 5.00000, -6.50000, 11.25833
  1675, 5.00000, -0.32139, 0.38302
  1676, 5.00000, -1.32575, 1.57997
  1677, 5.00000, -2.33011, 2.77691
  1678, 5.00000, -3.33446, 3.97386
  1679, 5.00000, -4.33882, 5.17080
  1680, 5.00000, -5.34317, 6.36774
  1681, 5.00000, -6.34753, 7.56469
  1682, 5.00000, -7.35188, 8.76163
  1683, 5.00000, -8.35624, 9.95858
  1684, 5.00000, -0.38302, 0.32139
  1685, 5.00000, -1.57997, 1.32575
  1686, 5.00000, -2.77691, 2.33011
  1687, 5.00000, -3.97386, 3.33446
  1688, 5.00000, -5.17080, 4.33882
  1689, 5.00000, -6.36774, 5.34317
  1690, 5.00000, -7.56469, 6.34753
  1691, 5.00000, -8.76163, 7.35188
  1692, 5.00000, -9.95858, 8.35624
  1693, 5.00000, -0.43301, 0.25000
  1694, 5.00000, -1.78618, 1.03125
  1695, 5.00000, -3.13934, 1.81250
  1696, 5.00000, -4.49251, 2.59375
  1697, 5.00000, -5.84567, 3.37500
  1698, 5.00000, -7.19884, 4.15625
  1699, 5.00000, -8.55200, 4.93750
  1700, 5.00000, -9.90517, 5.71875
  1701, 5.00000, -11.25833, 6.50000
  1702, 5.00000, -0.46985, 0.17101
  1703, 5.00000, -1.93812, 0.70542
  1704, 5.00000, -3.40639, 1.23982
  1705, 5.00000, -4.87466, 1.77423
  1706, 5.00000, -6.34293, 2.30864
  1707, 5.00000, -7.81119, 2.84304
  1708, 5.00000, -9.27946, 3.37745
  1709, 5.00000, -10.74773, 3.91186
  1710, 5.00000, -12.21600, 4.44626
  1711, 5.00000, -0.49240, 0.08682
  1712, 5.00000, -2.03117, 0.35815
  1713, 5.00000, -3.56993, 0.62947
  1714, 5.00000, -5.10869, 0.90080
  1715, 5.00000, -6.64745, 1.17213
  1716, 5.00000, -8.18621, 1.44345
  1717, 5.00000, -9.72498, 1.71478
  1718, 5.00000, -11.26374, 1.98610
  1719, 5.00000, -12.80250, 2.25743
  1720, 5.00000, -0.50000, 0.00000
  1721, 5.00000, -2.06250, 0.00000
  1722, 5.00000, -3.62500, 0.00000
  1723, 5.00000, -5.18750, 0.00000
  1724, 5.00000, -6.75000, 0.00000
  1725, 5.00000, -8.31250, 0.00000
  1726, 5.00000, -9.87500, 0.00000
  1727, 5.00000, -11.43750, 0.00000
  1728, 5.00000, -13.00000, 0.00000
  1729, 5.00000, -0.49240, -0.08682
  1730, 5.00000, -2.03117, -0.35815
  1731, 5.00000, -3.56993, -0.62947
  1732, 5.00000, -5.10869, -0.90080
  1733, 5.00000, -6.64745, -1.17213
  1734, 5.00000, -8.18621, -1.44345
  1735, 5.00000, -9.72498, -1.71478
  1736, 5.00000, -11.26374, -1.98610
  1737, 5.00000, -12.80250, -2.25743
  1738, 5.00000, -0.46985, -0.17101
  1739, 5.00000, -1.93812, -0.70542
  1740, 5.00000, -3.40639, -1.23982
  1741, 5.00000, -4.87466, -1.77423
  1742, 5.00000, -6.34293, -2.30864
  1743, 5.00000, -7.81119, -2.84304
  1744, 5.00000, -9.27946, -3.37745
  1745, 5.00000, -10.74773, -3.91186
  1746, 5.00000, -12.21600, -4.44626
  1747, 5.00000, -0.43301, -0.25000
  1748, 5.00000, -1.78618, -1.03125
  1749, 5.00000, -3.13934, -1.81250
  1750, 5.00000, -4.49251, -2.59375
  1751, 5.00000, -5.84567, -3.37500
  1752, 5.00000, -7.19884, -4.15625
  1753, 5.00000, -8.55200, -4.93750
  1754, 5.00000, -9.90517, -5.71875
  1755, 5.00000, -11.25833, -6.50000
  1756, 5.00000, -0.38302, -0.32139
  1757, 5.00000, -1.57997, -1.32575
  1758, 5.00000, -2.77691, -2.33011
  1759, 5.00000, -3.97386, -3.33446
  1760, 5.00000, -5.17080, -4.33882
  1761, 5.00000, -6.36774, -5.34317
  1762, 5.00000, -7.56469, -6.34753
  1763, 5.00000, -8.76163, -7.35188
  1764, 5.00000, -9.95858, -8.35624
  1765, 5.00000, -0.32139, -0.38302
  1766, 5.00000, -1.32575, -1.57997
  1767, 5.00000, -2.33011, -2.77691
  1768, 5.00000, -3.33446, -3.97386
  1769, 5.00000, -4.33882, -5.17080
  1770, 5.00000, -5.34317, -6.36774
  1771, 5.00000, -6.34753, -7.56469
  1772, 5.00000, -7.35188, -8.76163
  1773, 5.00000, -8.35624, -9.95858
  1774, 5.00000, -0.25000, -0.43301
  1775, 5.00000, -1.03125, -1.78618
  1776, 5.00000, -1.81250, -3.13934
  1777, 5.00000, -2.59375, -4.49251
  1778, 5.00000, -3.37500, -5.84567
  1779, 5.00000, -4.15625, -7.19884
  1780, 5.00000, -4.93750, -8.55200
  1781, 5.00000, -5.71875, -9.90517
  1782, 5.00000, -6.50000, -11.25833
  1783, 5.00000, -0.17101, -0.46985
  1784, 5.00000, -0.70542, -1.93812
  1785, 5.00000, -1.23982, -3.40639
  1786, 5.00000, -1.77423, -4.87466
  1787, 5.00000, -2.30864, -6.34293
  1788, 5.00000, -2.84304, -7.81119
  1789, 5.00000, -3.37745, -9.27946
  1790, 5.00000, -3.91186, -10.74773
  1791, 5.00000, -4.44626, -12.21600
  1792, 5.00000, -0.08682, -0.49240
  1793, 5.00000, -0.35815, -2.03117
  1794, 5.00000, -0.62947, -3.56993
  1795, 5.00000, -0.90080, -5.10869
  1796, 5.00000, -1.17213, -6.64745
  1797, 5.00000, -1.44345, -8.18621
  1798, 5.00000, -1.71478, -9.72498
  1799, 5.00000, -1.98610, -11.26374
  1800, 5.00000, -2.25743, -12.80250
  1801, 5.00000, -0.00000, -0.50000
  1802, 5.00000, -0.00000, -2.06250
  1803, 5.00000, -0.00000, -3.62500
  1804, 5.00000, -0.00000, -5.18750
  1805, 5.00000, -0.00000, -6.75000
  1806, 5.00000, -0.00000, -8.31250
  1807, 5.00000, -0.00000, -9.87500
  1808, 5.00000, -0.00000, -11.43750
  1809, 5.00000, -0.00000, -13.00000
  1810, 5.00000, 0.08682, -0.49240
  1811, 5.00000, 0.35815, -2.03117
  1812, 5.00000, 0.62947, -3.56993
  1813, 5.00000, 0.90080, -5.10869
  1814, 5.00000, 1.17213, -6.64745
  1815, 5.00000, 1.44345, -8.18621
  1816, 5.00000, 1.71478, -9.72498
  1817, 5.00000, 1.98610, -11.26374
  1818, 5.00000, 2.25743, -12.80250
  1819, 5.00000, 0.17101, -0.46985
  1820, 5.00000, 0.70542, -1.93812
  1821, 5.00000, 1.23982, -3.40639
  1822, 5.00000, 1.77423, -4.87466
  1823, 5.00000, 2.30864, -6.34293
  1824, 5.00000, 2.84304, -7.81119
  1825, 5.00000, 3.37745, -9.27946
  1826, 5.00000, 3.91186, -10.74773
  1827, 5.00000, 4.44626, -12.21600
  1828, 5.00000, 0.25000, -0.43301
  1829, 5.00000, 1.03125, -1.78618
  1830, 5.00000, 1.81250, -3.13934
  1831, 5.00000, 2.59375, -4.49251
  1832, 5.00000, 3.37500, -5.84567
  1833, 5.00000, 4.15625, -7.19884
  1834, 5.00000, 4.93750, -8.55200
  1835, 5.00000, 5.71875, -9.90517
  1836, 5.00000, 6.50000, -11.25833
  1837, 5.00000, 0.32139, -0.38302
  1838, 5.00000, 1.32575, -1.57997
  1839, 5.00000, 2.33011, -2.77691
  1840, 5.00000, 3.33446, -3.97386
  1841, 5.00000, 4.33882, -5.17080
  1842, 5.00000, 5.34317, -6.36774
  1843, 5.00000, 6.34753, -7.56469
  1844, 5.00000, 7.35188, -8.76163
  1845, 5.00000, 8.35624, -9.95858
  1846, 5.00000, 0.38302, -0.32139
  1847, 5.00000, 1.57997, -1.32575
  1848, 5.00000, 2.77691, -2.33011
  1849, 5.00000, 3.97386, -3.33446
  1850, 5.00000, 5.17080, -4.33882
  1851, 5.00000, 6.36774, -5.34317
  1852, 5.00000, 7.56469, -6.34753
  1853, 5.00000, 8.76163, -7.35188
  1854, 5.00000, 9.95858, -8.35624
  1855, 5.00000, 0.43301, -0.25000
  1856, 5.00000, 1.78618, -1.03125
  1857, 5.00000, 3.13934, -1.81250
  1858, 5.00000, 4.49251, -2.59375
  1859, 5.00000, 5.84567, -3.37500
  1860, 5.00000, 7.19884, -4.15625
  1861, 5.00000, 8.55200, -4.93750
  1862, 5.00000, 9.90517, -5.71875
  1863, 5.00000, 11.25833, -6.50000
  1864, 5.00000, 0.46985, -0.17101
  1865, 5.00000, 1.93812, -0.70542
  1866, 5.00000, 3.40639, -1.23982
  1867, 5.00000, 4.87466, -1.77423
  1868, 5.00000, 6.34293, -2.30864
  1869, 5.00000, 7.81119, -2.84304
  1870, 5.00000, 9.27946, -3.37745
  1871, 5.00000, 10.74773, -3.91186
  1872, 5.00000, 12.21600, -4.44626
  1873, 5.00000, 0.49240, -0.08682
  1874, 5.00000, 2.03117, -0.35815
  1875, 5.00000, 3.56993, -0.62947
  1876, 5.00000, 5.10869, -0.90080
  1877, 5.00000, 6.64745, -1.17213
  1878, 5.00000, 8.18621, -1.44345
  1879, 5.00000, 9.72498, -1.71478
  1880, 5.00000, 11.26374, -1.98610
  1881, 5.00000, 12.80250, -2.25743
  1882, 5.00000, 0.50000, -0.00000
  1883, 5.00000, 2.06250, -0.00000
  1884, 5.00000, 3.62500, -0.00000
  1885, 5.00000, 5.18750, -0.00000
  1886, 5.00000, 6.75000, -0.00000
  1887, 5.00000, 8.31250, -0.00000
  1888, 5.00000, 9.87500, -0.00000
  1889, 5.00000, 11.43750, -0.00000
  1890, 5.00000, 13.00000, -0.00000
  1891, 10.00000, 0.50000, 0.00000
  1892, 10.00000, 2.06250, 0.00000
  1893, 10.00000, 3.62500, 0.00000
  1894, 10.00000, 5.18750, 0.00000
  1895, 10.00000, 6.75000, 0.00000
  1896, 10.00000, 8.31250, 0.00000
  1897, 10.00000, 9.87500, 0.00000
  1898, 10.00000, 11.43750, 0.00000
  1899, 10.00000, 13.00000, 0.00000
  1900, 10.00000, 0.49240, 0.08682
  1901, 10.00000, 2.03117, 0.35815
  1902, 10.00000, 3.56993, 0.62947
  1903, 10.00000, 5.10869, 0.90080
  1904, 10.00000, 6.64745, 1.17213
  1905, 10.00000, 8.18621, 1.44345
  1906, 10.00000, 9.72498, 1.71478
  1907, 10.00000, 11.26374, 1.98610
  1908, 10.00000, 12.80250, 2.25743
  1909, 10.00000, 0.46985, 0.17101
  1910, 10.00000, 1.93812, 0.70542
  1911, 10.00000, 3.40639, 1.23982
  1912, 10.00000, 4.87466, 1.77423
  1913, 10.00000, 6.34293, 2.30864
  1914, 10.00000, 7.81119, 2.84304
  1915, 10.00000, 9.27946, 3.37745
  1916, 10.00000, 10.74773, 3.91186
  1917, 10.00000, 12.21600, 4.44626
  1918, 10.00000, 0.43301, 0.25000
  1919, 10.00000, 1.78618, 1.03125
  1920, 10.00000, 3.13934, 1.81250
  1921, 10.00000, 4.49251, 2.59375
  1922, 10.00000, 5.84567, 3.37500
  1923, 10.00000, 7.19884, 4.15625
  1924, 10.00000, 8.55200, 4.93750
  1925, 10.00000, 9.90517, 5.71875
  1926, 10.00000, 11.25833, 6.50000
  1927, 10.00000, 0.38302, 0.32139
  1928, 10.00000, 1.57997, 1.32575
  1929, 10.00000, 2.77691, 2.33011
  1930, 10.00000, 3.97386, 3.33446
  1931, 10.00000, 5.17080, 4.33882
  1932, 10.00000, 6.36774, 5.34317
  1933, 10.00000, 7.56469, 6.34753
  1934, 10.00000, 8.76163, 7.35188
  1935, 10.00000, 9.95858, 8.35624
  1936, 10.00000, 0.32139, 0.38302
  1937, 10.00000, 1.32575, 1.57997
  1938, 10.00000, 2.33011, 2.77691
  1939, 10.00000, 3.33446, 3.97386
  1940, 10.00000, 4.33882, 5.17080
  1941, 10.00000, 5.34317, 6.36774
  1942, 10.00000, 6.34753, 7.56469
  1943, 10.00000, 7.35188, 8.76163
  1944, 10.00000, 8.35624, 9.95858
  1945, 10.00000, 0.25000, 0.43301
  1946, 10.00000, 1.03125, 1.78618
  1947, 10.00000, 1.81250, 3.13934
  1948, 10.00000, 2.59375, 4.49251
  1949, 10.00000, 3.37500, 5.84567
  1950, 10.00000, 4.15625, 7.19884
  1951, 10.00000, 4.93750, 8.55200
  1952, 10.00000, 5.71875, 9.90517
  1953, 10.00000, 6.50000, 11.25833
  1954, 10.00000, 0.17101, 0.46985
  1955, 10.00000, 0.70542, 1.93812
  1956, 10.00000, 1.23982, 3.40639
  1957, 10.00000, 1.77423, 4.87466
  1958, 10.00000, 2.30864, 6.34293
  1959, 10.00000, 2.84304, 7.81119
  1960, 10.00000, 3.37745, 9.27946
  1961, 10.00000, 3.91186, 10.74773
  1962, 10.00000, 4.44626, 12.21600
  1963, 10.00000, 0.08682, 0.49240
  1964, 10.00000, 0.35815, 2.03117
  1965, 10.00000, 0.62947, 3.56993
  1966, 10.00000, 0.90080, 5.10869
  1967, 10.00000, 1.17213, 6.64745
  1968, 10.00000, 1.44345, 8.18621
  1969, 10.00000, 1.71478, 9.72498
  1970, 10.00000, 1.98610, 11.26374
  1971, 10.00000, 2.25743, 12.80250
  1972, 10.00000, 0.00000, 0.50000
  1973, 10.00000, 0.00000, 2.06250
  1974, 10.00000, 0.00000, 3.62500
  1975, 10.00000, 0.00000, 5.18750
  1976, 10.00000, 0.00000, 6.75000
  1977, 10.00000, 0.00000, 8.31250
  1978, 10.00000, 0.00000, 9.87500
  1979, 10.00000, 0.00000, 11.43750
  1980, 10.00000, 0.00000, 13.00000
  1981, 10.00000, -0.08682, 0.49240
  1982, 10.00000, -0.35815, 2.03117
  1983, 10.00000, -0.62947, 3.56993
  1984, 10.00000, -0.90080, 5.10869
  1985, 10.00000, -1.17213, 6.64745
  1986, 10.00000, -1.44345, 8.18621
  1987, 10.00000, -1.71478, 9.72498
  1988, 10.00000, -1.98610, 11.26374
  1989, 10.00000, -2.25743, 12.80250
  1990, 10.00000, -0.17101, 0.46985
  1991, 10.00000, -0.70542, 1.93812
  1992, 10.00000, -1.23982, 3.40639
  1993, 10.00000, -1.77423, 4.87466
  1994, 10.00000, -2.30864, 6.34293
  1995, 10.00000, -2.84304, 7.81119
  1996, 10.00000, -3.37745, 9.27946
  1997, 10.00000, -3.91186, 10.74773
  1998, 10.00000, -4.44626, 12.21600
  1999, 10.00000, -0.25000, 0.43301
  2000, 10.00000, -1.03125, 1.78618
  2001, 10.00000, -1.81250, 3.13934
  2002, 10.00000, -2.59375, 4.49251
  2003, 10.00000, -3.37500, 5.84567
  2004, 10.00000, -4.15625, 7.19884
  2005, 10.00000, -4.93750, 8.55200
  2006, 10.00000, -5.71875, 9.90517
  2007, 10.00000, -6.50000, 11.25833
  2008, 10.00000, -0.32139, 0.38302
  2009, 10.00000, -1.32575, 1.57997
  2010, 10.00000, -2.33011, 2.77691
  2011, 10.00000, -3.33446, 3.97386
  2012, 10.00000, -4.33882, 5.17080
  2013, 10.00000, -5.34317, 6.36774
  2014, 10.00000, -6.34753, 7.56469
  2015, 10.00000, -7.35188, 8.76163
  2016, 10.00000, -8.35624, 9.95858
  2017, 10.00000, -0.38302, 0.32139
  2018, 10.00000, -1.57997, 1.32575
  2019, 10.00000, -2.77691, 2.33011
  2020, 10.00000, -3.97386, 3.33446
  2021, 10.00000, -5.17080, 4.33882
  2022, 10.00000, -6.36774, 5.34317
  2023, 10.00000, -7.56469, 6.34753
  2024, 10.00000, -8.76163, 7.35188
  2025, 10.00000, -9.95858, 8.35624
  2026, 10.00000, -0.43301, 0.25000
  2027, 10.00000, -1.78618, 1.03125
  2028, 10.00000, -3.13934, 1.81250
  2029, 10.00000, -4.49251, 2.59375
  2030, 10.00000, -5.84567, 3.37500
  2031, 10.00000, -7.19884, 4.15625
  2032, 10.00000, -8.55200, 4.93750
  2033, 10.00000, -9.90517, 5.71875
  2034, 10.00000, -11.25833, 6.50000
  2035, 10.00000, -0.46985, 0.17101
  2036, 10.00000, -1.93812, 0.70542
  2037, 10.00000, -3.40639, 1.23982
  2038, 10.00000, -4.87466, 1.77423
  2039, 10.00000, -6.34293, 2.30864
  2040, 10.00000, -7.81119, 2.84304
  2041, 10.00000, -9.27946, 3.37745
  2042, 10.00000, -10.74773, 3.91186
  2043, 10.00000, -12.21600, 4.44626
  2044, 10.00000, -0.49240, 0.08682
  2045, 10.00000, -2.03117, 0.35815
  2046, 10.00000, -3.56993, 0.62947
  2047, 10.00000, -5.10869, 0.90080
  2048, 10.00000, -6.64745, 1.17213
  2049, 10.00000, -8.18621, 1.44345
  2050, 10.00000, -9.72498, 1.71478
  2051, 10.00000, -11.26374, 1.98610
  2052, 10.00000, -12.80250, 2.25743
  2053, 10.00000, -0.50000, 0.00000
  2054, 10.00000, -2.06250, 0.00000
  2055, 10.00000, -3.62500, 0.00000
  2056, 10.00000, -5.18750, 0.00000
  2057, 10.00000, -6.75000, 0.00000
  2058, 10.00000, -8.31250, 0.00000
  2059, 10.00000, -9.87500, 0.00000
  2060, 10.00000, -11.43750, 0.00000
  2061, 10.00000, -13.00000, 0.00000
  2062, 10.00000, -0.49240, -0.08682
  2063, 10.00000, -2.03117, -0.35815
  2064, 10.00000, -3.56993, -0.62947
  2065, 10.00000, -5.10869, -0.90080
  2066, 10.00000, -6.64745, -1.17213
  2067, 10.00000, -8.18621, -1.44345
  2068, 10.00000, -9.72498, -1.71478
  2069, 10.00000, -11.26374, -1.98610
  2070, 10.00000, -12.80250, -2.25743
  2071, 10.00000, -0.46985, -0.17101
  2072, 10.00000, -1.93812, -0.70542
  2073, 10.00000, -3.40639, -1.23982
  2074, 10.00000, -4.87466, -1.77423
  2075, 10.00000, -6.34293, -2.30864
  2076, 10.00000, -7.81119, -2.84304
  2077, 10.00000, -9.27946, -3.37745
  2078, 10.00000, -10.74773, -3.91186
  2079, 10.00000, -12.21600, -4.44626
  2080, 10.00000, -0.43301, -0.25000
  2081, 10.00000, -1.78618, -1.03125
  2082, 10.00000, -3.13934, -1.81250
  2083, 10.00000, -4.49251, -2.59375
  2084, 10.00000, -5.84567, -3.37500
  2085, 10.00000, -7.19884, -4.15625
  2086, 10.00000, -8.55200, -4.93750
  2087, 10.00000, -9.90517, -5.71875
  2088, 10.00000, -11.25833, -6.50000
  2089, 10.00000, -0.38302, -0.32139
  2090, 10.00000, -1.57997, -1.32575
  2091, 10.00000, -2.77691, -2.33011
  2092, 10.00000, -3.97386, -3.33446
  2093, 10.00000, -5.17080, -4.33882
  2094, 10.00000, -6.36774, -5.34317
  2095, 10.00000, -7.56469, -6.34753
  2096, 10.00000, -8.76163, -7.35188
  2097, 10.00000, -9.95858, -8.35624
  2098, 10.00000, -0.32139, -0.38302
  2099, 10.00000, -1.32575, -1.57997
  2100, 10.00000, -2.33011, -2.77691
  2101, 10.00000, -3.33446, -3.97386
  2102, 10.00000, -4.33882, -5.17080
  2103, 10.00000, -5.34317, -6.36774
  2104, 10.00000, -6.34753, -7.56469
  2105, 10.00000, -7.35188, -8.76163
  2106, 10.00000, -8.35624, -9.95858
  2107, 10.00000, -0.25000, -0.43301
  2108, 10.00000, -1.03125, -1.78618
  2109, 10.00000, -1.81250, -3.13934
  2110, 10.00000, -2.59375, -4.49251
  2111, 10.00000, -3.37500, -5.84567
  2112, 10.00000, -4.15625, -7.19884
  2113, 10.00000, -4.93750, -8.55200
  2114, 10.00000, -5.71875, -9.90517
  2115, 10.00000, -6.50000, -11.25833
  2116, 10.00000, -0.17101, -0.46985
  2117, 10.00000, -0.70542, -1.93812
  2118, 10.00000, -1.23982, -3.40639
  2119, 10.00000, -1.77423, -4.87466
  2120, 10.00000, -2.30864, -6.34293
  2121, 10.00000, -2.84304, -7.81119
  2122, 10.00000, -3.37745, -9.27946
  2123, 10.00000, -3.91186, -10.74773
  2124, 10.00000, -4.44626, -12.21600
  2125, 10.00000, -0.08682, -0.49240
  2126, 10.00000, -0.35815, -2.03117
  2127, 10.00000, -0.62947, -3.56993
  2128, 10.00000, -0.90080, -5.10869
  2129, 10.00000, -1.17213, -6.64745
  2130, 10.00000, -1.44345, -8.18621
  2131, 10.00000, -1.71478, -9.72498
  2132, 10.00000, -1.98610, -11.26374
  2133, 10.00000, -2.25743, -12.80250
  2134, 10.00000, -0.00000, -0.50000
  2135, 10.00000, -0.00000, -2.06250
  2136, 10.00000, -0.00000, -3.62500
  2137, 10.00000, -0.00000, -5.18750
  2138, 10.00000, -0.00000, -6.75000
  2139, 10.00000, -0.00000, -8.31250
  2140, 10.00000, -0.00000, -9.87500
  2141, 10.00000, -0.00000, -11.43750
  2142, 10.00000, -0.00000, -13.00000
  2143, 10.00000, 0.08682, -0.49240
  2144, 10.00000, 0.35815, -2.03117
  2145, 10.00000, 0.62947, -3.56993
  2146, 10.00000, 0.90080, -5.10869
  2147, 10.00000, 1.17213, -6.64745
  2148, 10.00000, 1.44345, -8.18621
  2149, 10.00000, 1.71478, -9.72498
  2150, 10.00000, 1.98610, -11.26374
  2151, 10.00000, 2.25743, -12.80250
  2152, 10.00000, 0.17101, -0.46985
  2153, 10.00000, 0.70542, -1.93812
  2154, 10.00000, 1.23982, -3.40639
  2155, 10.00000, 1.77423, -4.87466
  2156, 10.00000, 2.30864, -6.34293
  2157, 10.00000, 2.84304, -7.81119
  2158, 10.00000, 3.37745, -9.27946
  2159, 10.00000, 3.91186, -10.74773
  2160, 10.00000, 4.44626, -12.21600
  2161, 10.00000, 0.25000, -0.43301
  2162, 10.00000, 1.03125, -1.78618
  2163, 10.00000, 1.81250, -3.13934
  2164, 10.00000, 2.59375, -4.49251
  2165, 10.00000, 3.37500, -5.84567
  2166, 10.00000, 4.15625, -7.19884
  2167, 10.00000, 4.93750, -8.55200
  2168, 10.00000, 5.71875, -9.90517
  2169, 10.00000, 6.50000, -11.25833
  2170, 10.00000, 0.32139, -0.38302
  2171, 10.00000, 1.32575, -1.57997
  2172, 10.00000, 2.33011, -2.77691
  2173, 10.00000, 3.33446, -3.97386
  2174, 10.00000, 4.33882, -5.17080
  2175, 10.00000, 5.34317, -6.36774
  2176, 10.00000, 6.34753, -7.56469
  2177, 10.00000, 7.35188, -8.76163
  2178, 10.00000, 8.35624, -9.95858
  2179, 10.00000, 0.38302, -0.32139
  2180, 10.00000, 1.57997, -1.32575
  2181, 10.00000, 2.77691, -2.33011
  2182, 10.00000, 3.97386, -3.33446
  2183, 10.00000, 5.17080, -4.33882
  2184, 10.00000, 6.36774, -5.34317
  2185, 10.00000, 7.56469, -6.34753
  2186, 10.00000, 8.76163, -7.35188
  2187, 10.00000, 9.95858, -8.35624
  2188, 10.00000, 0.43301, -0.25000
  2189, 10.00000, 1.78618, -1.03125
  2190, 10.00000, 3.13934, -1.81250
  2191, 10.00000, 4.49251, -2.59375
  2192, 10.00000, 5.84567, -3.37500
  2193, 10.00000, 7.19884, -4.15625
  2194, 10.00000, 8.55200, -4.93750
  2195, 10.00000, 9.90517, -5.71875
  2196, 10.00000, 11.25833, -6.50000
  2197, 10.00000, 0.46985, -0.17101
  2198, 10.00000, 1.93812, -0.70542
  2199, 10.00000, 3.40639, -1.23982
  2200, 10.00000, 4.87466, -1.77423
  2201, 10.00000, 6.34293, -2.30864
  2202, 10.00000, 7.81119, -2.84304
  2203, 10.00000, 9.27946, -3.37745
  2204, 10.00000, 10.74773, -3.91186
  2205, 10.00000, 12.21600, -4.44626
  2206, 10.00000, 0.49240, -0.08682
  2207, 10.00000, 2.03117, -0.35815
  2208, 10.00000, 3.56993, -0.62947
  2209, 10.00000, 5.10869, -0.90080
  2210, 10.00000, 6.64745, -1.17213
  2211, 10.00000, 8.18621, -1.44345
  2212, 10.00000, 9.72498, -1.71478
  2213, 10.00000, 11.26374, -1.98610
  2214, 10.00000, 12.80250, -2.25743
  2215, 10.00000, 0.50000, -0.00000
  2216, 10.00000, 2.06250, -0.00000
  2217, 10.00000, 3.62500, -0.00000
  2218, 10.00000, 5.18750, -0.00000
  2219, 10.00000, 6.75000, -0.00000
  2220, 10.00000, 8.31250, -0.00000
  2221, 10.00000, 9.87500, -0.00000
  2222, 10.00000, 11.43750, -0.00000
  2223, 10.00000, 13.00000, -0.00000
  2224, 15.00000, 0.50000, 0.00000
  2225, 15.00000, 2.06250, 0.00000
  2226, 15.00000, 3.62500, 0.00000
  2227, 15.00000, 5.18750, 0.00000
  2228, 15.00000, 6.75000, 0.00000
  2229, 15.00000, 8.31250, 0.00000
  2230, 15.00000, 9.87500, 0.00000
  2231, 15.00000, 11.43750, 0.00000
  2232, 15.00000, 13.00000, 0.00000
  2233, 15.00000, 0.49240, 0.08682
  2234, 15.00000, 2.03117, 0.35815
  2235, 15.00000, 3.56993, 0.62947
  2236, 15.00000, 5.10869, 0.90080
  2237, 15.00000, 6.64745, 1.17213
  2238, 15.00000, 8.18621, 1.44345
  2239, 15.00000, 9.72498, 1.71478
  2240, 15.00000, 11.26374, 1.98610
  2241, 15.00000, 12.80250, 2.25743
  2242, 15.00000, 0.46985, 0.17101
  2243, 15.00000, 1.93812, 0.70542
  2244, 15.00000, 3.40639, 1.23982
  2245, 15.00000, 4.87466, 1.77423
  2246, 15.00000, 6.34293, 2.30864
  2247, 15.00000, 7.81119, 2.84304
  2248, 15.00000, 9.27946, 3.37745
  2249, 15.00000, 10.74773, 3.91186
  2250, 15.00000, 12.21600, 4.44626
  2251, 15.00000, 0.43301, 0.25000
  2252, 15.00000, 1.78618, 1.03125
  2253, 15.00000, 3.13934, 1.81250
  2254, 15.00000, 4.49251, 2.59375
  2255, 15.00000, 5.84567, 3.37500
  2256, 15.00000, 7.19884, 4.15625
  2257, 15.00000, 8.55200, 4.93750
  2258, 15.00000, 9.90517, 5.71875
  2259, 15.00000, 11.25833, 6.50000
  2260, 15.00000, 0.38302, 0.32139
  2261, 15.00000, 1.57997, 1.32575
  2262, 15.00000, 2.77691, 2.33011
  2263, 15.00000, 3.97386, 3.33446
  2264, 15.00000, 5.17080, 4.33882
  2265, 15.00000, 6.36774, 5.34317
  2266, 15.00000, 7.56469, 6.34753
  2267, 15.00000, 8.76163, 7.35188
  2268, 15.00000, 9.95858, 8.35624
  2269, 15.00000, 0.32139, 0.38302
  2270, 15.00000, 1.32575, 1.57997
  2271, 15.00000, 2.33011, 2.77691
  2272, 15.00000, 3.33446, 3.97386
  2273, 15.00000, 4.33882, 5.17080
  2274, 15.00000, 5.34317, 6.36774
  2275, 15.00000, 6.34753, 7.56469
  2276, 15.00000, 7.35188, 8.76163
  2277, 15.00000, 8.35624, 9.95858
  2278, 15.00000, 0.25000, 0.43301
  2279, 15.00000, 1.03125, 1.78618
  2280, 15.00000, 1.81250, 3.13934
  2281, 15.00000, 2.59375, 4.49251
  2282, 15.00000, 3.37500, 5.84567
  2283, 15.00000, 4.15625, 7.19884
  2284, 15.00000, 4.93750, 8.55200
  2285, 15.00000, 5.71875, 9.90517
  2286, 15.00000, 6.50000, 11.25833
  2287, 15.00000, 0.17101, 0.46985
  2288, 15.00000, 0.70542, 1.93812
  2289, 15.00000, 1.23982, 3.40639
  2290, 15.00000, 1.77423, 4.87466
  2291, 15.00000, 2.30864, 6.34293
  2292, 15.00000, 2.84304, 7.81119
  2293, 15.00000, 3.37745, 9.27946
  2294, 15.00000, 3.91186, 10.74773
  2295, 15.00000, 4.44626, 12.21600
  2296, 15.00000, 0.08682, 0.49240
  2297, 15.00000, 0.35815, 2.03117
  2298, 15.00000, 0.62947, 3.56993
  2299, 15.00000, 0.90080, 5.10869
  2300, 15.00000, 1.17213, 6.64745
  2301, 15.00000, 1.44345, 8.18621
  2302, 15.00000, 1.71478, 9.72498
  2303, 15.00000, 1.98610, 11.26374
  2304, 15.00000, 2.25743, 12.80250
  2305, 15.00000, 0.00000, 0.50000
  2306, 15.00000, 0.00000, 2.06250
  2307, 15.00000, 0.00000, 3.62500
  2308, 15.00000, 0.00000, 5.18750
  2309, 15.00000, 0.00000, 6.75000
  2310, 15.00000, 0.00000, 8.31250
  2311, 15.00000, 0.00000, 9.87500
  2312, 15.00000, 0.00000, 11.43750
  2313, 15.00000, 0.00000, 13.00000
  2314, 15.00000, -0.08682, 0.49240
  2315, 15.00000, -0.35815, 2.03117
  2316, 15.00000, -0.62947, 3.56993
  2317, 15.00000, -0.90080, 5.10869
  2318, 15.00000, -1.17213, 6.64745
  2319, 15.00000, -1.44345, 8.18621
  2320, 15.00000, -1.71478, 9.72498
  2321, 15.00000, -1.98610, 11.26374
  2322, 15.00000, -2.25743, 12.80250
  2323, 15.00000, -0.17101, 0.46985
  2324, 15.00000, -0.70542, 1.93812
  2325, 15.00000, -1.23982, 3.40639
  2326, 15.00000, -1.77423, 4.87466
  2327, 15.00000, -2.30864, 6.34293
  2328, 15.00000, -2.84304, 7.81119
  2329, 15.00000, -3.37745, 9.27946
  2330, 15.00000, -3.91186, 10.74773
  2331, 15.00000, -4.44626, 12.21600
  2332, 15.00000, -0.25000, 0.43301
  2333, 15.00000, -1.03125, 1.78618
  2334, 15.00000, -1.81250, 3.13934
  2335, 15.00000, -2.59375, 4.49251
  2336, 15.00000, -3.37500, 5.84567
  2337, 15.00000, -4.15625, 7.19884
  2338, 15.00000, -4.93750, 8.55200
  2339, 15.00000, -5.71875, 9.90517
  2340, 15.00000, -6.50000, 11.25833
  2341, 15.00000, -0.32139, 0.38302
  2342, 15.00000, -1.32575, 1.57997
  2343, 15.00000, -2.33011, 2.77691
  2344, 15.00000, -3.33446, 3.97386
  2345, 15.00000, -4.33882, 5.17080
  2346, 15.00000, -5.34317, 6.36774
  2347, 15.00000, -6.34753, 7.56469
  2348, 15.00000, -7.35188, 8.76163
  2349, 15.00000, -8.35624, 9.95858
  2350, 15.00000, -0.38302, 0.32139
  2351, 15.00000, -1.57997, 1.32575
  2352, 15.00000, -2.77691, 2.33011
  2353, 15.00000, -3.97386, 3.33446
  2354, 15.00000, -5.17080, 4.33882
  2355, 15.00000, -6.36774, 5.34317
  2356, 15.00000, -7.56469, 6.34753
  2357, 15.00000, -8.76163, 7.35188
  2358, 15.00000, -9.95858, 8.35624
  2359, 15.00000, -0.43301, 0.25000
  2360, 15.00000, -1.78618, 1.03125
  2361, 15.00000, -3.13934, 1.81250
  2362, 15.00000, -4.49251, 2.59375
  2363, 15.00000, -5.84567, 3.37500
  2364, 15.00000, -7.19884, 4.15625
  2365, 15.00000, -8.55200, 4.93750
  2366, 15.00000, -9.90517, 5.71875
  2367, 15.00000, -11.25833, 6.50000
  2368, 15.00000, -0.46985, 0.17101
  2369, 15.00000, -1.93812, 0.70542
  2370, 15.00000, -3.40639, 1.23982
  2371, 15.00000, -4.87466, 1.77423
  2372, 15.00000, -6.34293, 2.30864
  2373, 15.00000, -7.81119, 2.84304
  2374, 15.00000, -9.27946, 3.37745
  2375, 15.00000, -10.74773, 3.91186
  2376, 15.00000, -12.21600, 4.44626
  2377, 15.00000, -0.49240, 0.08682
  2378, 15.00000, -2.03117, 0.35815
  2379, 15.00000, -3.56993, 0.62947
  2380, 15.00000, -5.10869, 0.90080
  2381, 15.00000, -6.64745, 1.17213
  2382, 15.00000, -8.18621, 1.44345
  2383, 15.00000, -9.72498, 1.71478
  2384, 15.00000, -11.26374, 1.98610
  2385, 15.00000, -12.80250, 2.25743
  2386, 15.00000, -0.50000, 0.00000
  2387, 15.00000, -2.06250, 0.00000
  2388, 15.00000, -3.62500, 0.00000
  2389, 15.00000, -5.18750, 0.00000
  2390, 15.00000, -6.75000, 0.00000
  2391, 15.00000, -8.31250, 0.00000
  2392, 15.00000, -9.87500, 0.00000
  2393, 15.00000, -11.43750, 0.00000
  2394, 15.00000, -13.00000, 0.00000
  2395, 15.00000, -0.49240, -0.08682
  2396, 15.00000, -2.03117, -0.35815
  2397, 15.00000, -3.56993, -0.62947
  2398, 15.00000, -5.10869, -0.90080
  2399, 15.00000, -6.64745, -1.17213
  2400, 15.00000, -8.18621, -1.44345
  2401, 15.00000, -9.72498, -1.71478
  2402, 15.00000, -11.26374, -1.98610
  2403, 15.00000, -12.80250, -2.25743
  2404, 15.00000, -0.46985, -0.17101
  2405, 15.00000, -1.93812, -0.70542
  2406, 15.00000, -3.40639, -1.23982
  2407, 15.00000, -4.87466, -1.77423
  2408, 15.00000, -6.34293, -2.30864
  2409, 15.00000, -7.81119, -2.84304
  2410, 15.00000, -9.27946, -3.37745
  2411, 15.00000, -10.74773, -3.91186
  2412, 15.00000, -12.21600, -4.44626
  2413, 15.00000, -0.43301, -0.25000
  2414, 15.00000, -1.78618, -1.03125
  2415, 15.00000, -3.13934, -1.81250
  2416, 15.00000, -4.49251, -2.59375
  2417, 15.00000, -5.84567, -3.37500
  2418, 15.00000, -7.19884, -4.15625
  2419, 15.00000, -8.55200, -4.93750
  2420, 15.00000, -9.90517, -5.71875
  2421, 15.00000, -11.25833, -6.50000
  2422, 15.00000, -0.38302, -0.32139
  2423, 15.00000, -1.57997, -1.32575
  2424, 15.00000, -2.77691, -2.33011
  2425, 15.00000, -3.97386, -3.33446
  2426, 15.00000, -5.17080, -4.33882
  2427, 15.00000, -6.36774, -5.34317
  2428, 15.00000, -7.56469, -6.34753
  2429, 15.00000, -8.76163, -7.35188
  2430, 15.00000, -9.95858, -8.35624
  2431, 15.00000, -0.32139, -0.38302
  2432, 15.00000, -1.32575, -1.57997
  2433, 15.00000, -2.33011, -2.77691
  2434, 15.00000, -3.33446, -3.97386
  2435, 15.00000, -4.33882, -5.17080
  2436, 15.00000, -5.34317, -6.36774
  2437, 15.00000, -6.34753, -7.56469
  2438, 15.00000, -7.35188, -8.76163
  2439, 15.00000, -8.35624, -9.95858
  2440, 15.00000, -0.25000, -0.43301
  2441, 15.00000, -1.03125, -1.78618
  2442, 15.00000, -1.81250, -3.13934
  2443, 15.00000, -2.59375, -4.49251
  2444, 15.00000, -3.37500, -5.84567
  2445, 15.00000, -4.15625, -7.19884
  2446, 15.00000, -4.93750, -8.55200
  2447, 15.00000, -5.71875, -9.90517
  2448, 15.00000, -6.50000, -11.25833
  2449, 15.00000, -0.17101, -0.46985
  2450, 15.00000, -0.70542, -1.93812
  2451, 15.00000, -1.23982, -3.40639
  2452, 15.00000, -1.77423, -4.87466
  2453, 15.00000, -2.30864, -6.34293
  2454, 15.00000, -2.84304, -7.81119
  2455, 15.00000, -3.37745, -9.27946
  2456, 15.00000, -3.91186, -10.74773
  2457, 15.00000, -4.44626, -12.21600
  2458, 15.00000, -0.08682, -0.49240
  2459, 15.00000, -0.35815, -2.03117
  2460, 15.00000, -0.62947, -3.56993
  2461, 15.00000, -0.90080, -5.10869
  2462, 15.00000, -1.17213, -6.64745
  2463, 15.00000, -1.44345, -8.18621
  2464, 15.00000, -1.71478, -9.72498
  2465, 15.00000, -1.98610, -11.26374
  2466, 15.00000, -2.25743, -12.80250
  2467, 15.00000, -0.00000, -0.50000
  2468, 15.00000, -0.00000, -2.06250
  2469, 15.00000, -0.00000, -3.62500
  2470, 15.00000, -0.00000, -5.18750
  2471, 15.00000, -0.00000, -6.75000
  2472, 15.00000, -0.00000, -8.31250
  2473, 15.00000, -0.00000, -9.87500
  2474, 15.00000, -0.00000, -11.43750
  2475, 15.00000, -0.00000, -13.00000
  2476, 15.00000, 0.08682, -0.49240
  2477, 15.00000, 0.35815, -2.03117
  2478, 15.00000, 0.62947, -3.56993
  2479, 15.00000, 0.90080, -5.10869
  2480, 15.00000, 1.17213, -6.64745
  2481, 15.00000, 1.44345, -8.18621
  2482, 15.00000, 1.71478, -9.72498
  2483, 15.00000, 1.98610, -11.26374
  2484, 15.00000, 2.25743, -12.80250
  2485, 15.00000, 0.17101, -0.46985
  2486, 15.00000, 0.70542, -1.93812
  2487, 15.00000, 1.23982, -3.40639
  2488, 15.00000, 1.77423, -4.87466
  2489, 15.00000, 2.30864, -6.34293
  2490, 15.00000, 2.84304, -7.81119
  2491, 15.00000, 3.37745, -9.27946
  2492, 15.00000, 3.91186, -10.74773
  2493, 15.00000, 4.44626, -12.21600
  2494, 15.00000, 0.25000, -0.43301
  2495, 15.00000, 1.03125, -1.78618
  2496, 15.00000, 1.81250, -3.13934
  2497, 15.00000, 2.59375, -4.49251
  2498, 15.00000, 3.37500, -5.84567
  2499, 15.00000, 4.15625, -7.19884
  2500, 15.00000, 4.93750, -8.55200
  2501, 15.00000, 5.71875, -9.90517
  2502, 15.00000, 6.50000, -11.25833
  2503, 15.00000, 0.32139, -0.38302
  2504, 15.00000, 1.32575, -1.57997
  2505, 15.00000, 2.33011, -2.77691
  2506, 15.00000, 3.33446, -3.97386
  2507, 15.00000, 4.33882, -5.17080
  2508, 15.00000, 5.34317, -6.36774
  2509, 15.00000, 6.34753, -7.56469
  2510, 15.00000, 7.35188, -8.76163
  2511, 15.00000, 8.35624, -9.95858
  2512, 15.00000, 0.38302, -0.32139
  2513, 15.00000, 1.57997, -1.32575
  2514, 15.00000, 2.77691, -2.33011
  2515, 15.00000, 3.97386, -3.33446
  2516, 15.00000, 5.17080, -4.33882
  2517, 15.00000, 6.36774, -5.34317
  2518, 15.00000, 7.56469, -6.34753
  2519, 15.00000, 8.76163, -7.35188
  2520, 15.00000, 9.95858, -8.35624
  2521, 15.00000, 0.43301, -0.25000
  2522, 15.00000, 1.78618, -1.03125
  2523, 15.00000, 3.13934, -1.81250
  2524, 15.00000, 4.49251, -2.59375
  2525, 15.00000, 5.84567, -3.37500
  2526, 15.00000, 7.19884, -4.15625
  2527, 15.00000, 8.55200, -4.93750
  2528, 15.00000, 9.90517, -5.71875
  2529, 15.00000, 11.25833, -6.50000
  2530, 15.00000, 0.46985, -0.17101
  2531, 15.00000, 1.93812, -0.70542
  2532, 15.00000, 3.40639, -1.23982
  2533, 15.00000, 4.87466, -1.77423
  2534, 15.00000, 6.34293, -2.30864
  2535, 15.00000, 7.81119, -2.84304
  2536, 15.00000, 9.27946, -3.37745
  2537, 15.00000, 10.74773, -3.91186
  2538, 15.00000, 12.21600, -4.44626
  2539, 15.00000, 0.49240, -0.08682
  2540, 15.00000, 2.03117, -0.35815
  2541, 15.00000, 3.56993, -0.62947
  2542, 15.00000, 5.10869, -0.90080
  2543, 15.00000, 6.64745, -1.17213
  2544, 15.00000, 8.18621, -1.44345
  2545, 15.00000, 9.72498, -1.71478
  2546, 15.00000, 11.26374, -1.98610
  2547, 15.00000, 12.80250, -2.25743
  2548, 15.00000, 0.50000, -0.00000
  2549, 15.00000, 2.06250, -0.00000
  2550, 15.00000, 3.62500, -0.00000
  2551, 15.00000, 5.18750, -0.00000
  2552, 15.00000, 6.75000, -0.00000
  2553, 15.00000, 8.31250, -0.00000
  2554, 15.00000, 9.87500, -0.00000
  2555, 15.00000, 11.43750, -0.00000
  2556, 15.00000, 13.00000, -0.00000
  2557, 20.00000, 0.50000, 0.00000
  2558, 20.00000, 2.06250, 0.00000
  2559, 20.00000, 3.62500, 0.00000
  2560, 20.00000, 5.18750, 0.00000
  2561, 20.00000, 6.75000, 0.00000
  2562, 20.00000, 8.31250, 0.00000
  2563, 20.00000, 9.87500, 0.00000
  2564, 20.00000, 11.43750, 0.00000
  2565, 20.00000, 13.00000, 0.00000
  2566, 20.00000, 0.49240, 0.08682
  2567, 20.00000, 2.03117, 0.35815
  2568, 20.00000, 3.56993, 0.62947
  2569, 20.00000, 5.10869, 0.90080
  2570, 20.00000, 6.64745, 1.17213
  2571, 20.00000, 8.18621, 1.44345
  2572, 20.00000, 9.72498, 1.71478
  2573, 20.00000, 11.26374, 1.98610
  2574, 20.00000, 12.80250, 2.25743
  2575, 20.00000, 0.46985, 0.17101
  2576, 20.00000, 1.93812, 0.70542
  2577, 20.00000, 3.40639, 1.23982
  2578, 20.00000, 4.87466, 1.77423
  2579, 20.00000, 6.34293, 2.30864
  2580, 20.00000, 7.81119, 2.84304
  2581, 20.00000, 9.27946, 3.37745
  2582, 20.00000, 10.74773, 3.91186
  2583, 20.00000, 12.21600, 4.44626
  2584, 20.00000, 0.43301, 0.25000
  2585, 20.00000, 1.78618, 1.03125
  2586, 20.00000, 3.13934, 1.81250
  2587, 20.00000, 4.49251, 2.59375
  2588, 20.00000, 5.84567, 3.37500
  2589, 20.00000, 7.19884, 4.15625
  2590, 20.00000, 8.55200, 4.93750
  2591, 20.00000, 9.90517, 5.71875
  2592, 20.00000, 11.25833, 6.50000
  2593, 20.00000, 0.38302, 0.32139
  2594, 20.00000, 1.57997, 1.32575
  2595, 20.00000, 2.77691, 2.33011
  2596, 20.00000, 3.97386, 3.33446
  2597, 20.00000, 5.17080, 4.33882
  2598, 20.00000, 6.36774, 5.34317
  2599, 20.00000, 7.56469, 6.34753
  2600, 20.00000, 8.76163, 7.35188
  2601, 20.00000, 9.95858, 8.35624
  2602, 20.00000, 0.32139, 0.38302
  2603, 20.00000, 1.32575, 1.57997
  2604, 20.00000, 2.33011, 2.77691
  2605, 20.00000, 3.33446, 3.97386
  2606, 20.00000, 4.33882, 5.17080
  2607, 20.00000, 5.34317, 6.36774
  2608, 20.00000, 6.34753, 7.56469
  2609, 20.00000, 7.35188, 8.76163
  2610, 20.00000, 8.35624, 9.95858
  2611, 20.00000, 0.25000, 0.43301
  2612, 20.00000, 1.03125, 1.78618
  2613, 20.00000, 1.81250, 3.13934
  2614, 20.00000, 2.59375, 4.49251
  2615, 20.00000, 3.37500, 5.84567
  2616, 20.00000, 4.15625, 7.19884
  2617, 20.00000, 4.93750, 8.55200
  2618, 20.00000, 5.71875, 9.90517
  2619, 20.00000, 6.50000, 11.25833
  2620, 20.00000, 0.17101, 0.46985
  2621, 20.00000, 0.70542, 1.93812
  2622, 20.00000, 1.23982, 3.40639
  2623, 20.00000, 1.77423, 4.87466
  2624, 20.00000, 2.30864, 6.34293
  2625, 20.00000, 2.84304, 7.81119
  2626, 20.00000, 3.37745, 9.27946
  2627, 20.00000, 3.91186, 10.74773
  2628, 20.00000, 4.44626, 12.21600
  2629, 20.00000, 0.08682, 0.49240
  2630, 20.00000, 0.35815, 2.03117
  2631, 20.00000, 0.62947, 3.56993
  2632, 20.00000, 0.90080, 5.10869
  2633, 20.00000, 1.17213, 6.64745
  2634, 20.00000, 1.44345, 8.18621
  2635, 20.00000, 1.71478, 9.72498
  2636, 20.00000, 1.98610, 11.26374
  2637, 20.00000, 2.25743, 12.80250
  2638, 20.00000, 0.00000, 0.50000
  2639, 20.00000, 0.00000, 2.06250
  2640, 20.00000, 0.00000, 3.62500
  2641, 20.00000, 0.00000, 5.18750
  2642, 20.00000, 0.00000, 6.75000
  2643, 20.00000, 0.00000, 8.31250
  2644, 20.00000, 0.00000, 9.87500
  2645, 20.00000, 0.00000, 11.43750
  2646, 20.00000, 0.00000, 13.00000
  2647, 20.00000, -0.08682, 0.49240
  2648, 20.00000, -0.35815, 2.03117
  2649, 20.00000, -0.62947, 3.56993
  2650, 20.00000, -0.90080, 5.10869
  2651, 20.00000, -1.17213, 6.64745
  2652, 20.00000, -1.44345, 8.18621
  2653, 20.00000, -1.71478, 9.72498
  2654, 20.00000, -1.98610, 11.26374
  2655, 20.00000, -2.25743, 12.80250
  2656, 20.00000, -0.17101, 0.46985
  2657, 20.00000, -0.70542, 1.93812
  2658, 20.00000, -1.23982, 3.40639
  2659, 20.00000, -1.77423, 4.87466
  2660, 20.00000, -2.30864, 6.34293
  2661, 20.00000, -2.84304, 7.81119
  2662, 20.00000, -3.37745, 9.27946
  2663, 20.00000, -3.91186, 10.74773
  2664, 20.00000, -4.44626, 12.21600
  2665, 20.00000, -0.25000, 0.43301
  2666, 20.00000, -1.03125, 1.78618
  2667, 20.00000, -1.81250, 3.13934
  2668, 20.00000, -2.59375, 4.49251
  2669, 20.00000, -3.37500, 5.84567
  2670, 20.00000, -4.15625, 7.19884
  2671, 20.00000, -4.93750, 8.55200
  2672, 20.00000, -5.71875, 9.90517
  2673, 20.00000, -6.50000, 11.25833
  2674, 20.00000, -0.32139, 0.38302
  2675, 20.00000, -1.32575, 1.57997
  2676, 20.00000, -2.33011, 2.77691
  2677, 20.00000, -3.33446, 3.97386
  2678, 20.00000, -4.33882, 5.17080
  2679, 20.00000, -5.34317, 6.36774
  2680, 20.00000, -6.34753, 7.56469
  2681, 20.00000, -7.35188, 8.76163
  2682, 20.00000, -8.35624, 9.95858
  2683, 20.00000, -0.38302, 0.32139
  2684, 20.00000, -1.57997, 1.32575
  2685, 20.00000, -2.77691, 2.33011
  2686, 20.00000, -3.97386, 3.33446
  2687, 20.00000, -5.17080, 4.33882
  2688, 20.00000, -6.36774, 5.34317
  2689, 20.00000, -7.56469, 6.34753
  2690, 20.00000, -8.76163, 7.35188
  2691, 20.00000, -9.95858, 8.35624
  2692, 20.00000, -0.43301, 0.25000
  2693, 20.00000, -1.78618, 1.03125
  2694, 20.00000, -3.13934, 1.81250
  2695, 20.00000, -4.49251, 2.59375
  2696, 20.00000, -5.84567, 3.37500
  2697, 20.00000, -7.19884, 4.15625
  2698, 20.00000, -8.55200, 4.93750
  2699, 20.00000, -9.90517, 5.71875
  2700, 20.00000, -11.25833, 6.50000
  2701, 20.00000, -0.46985, 0.17101
  2702, 20.00000, -1.93812, 0.70542
  2703, 20.00000, -3.40639, 1.23982
  2704, 20.00000, -4.87466, 1.77423
  2705, 20.00000, -6.34293, 2.30864
  2706, 20.00000, -7.81119, 2.84304
  2707, 20.00000, -9.27946, 3.37745
  2708, 20.00000, -10.74773, 3.91186
  2709, 20.00000, -12.21600, 4.44626
  2710, 20.00000, -0.49240, 0.08682
  2711, 20.00000, -2.03117, 0.35815
  2712, 20.00000, -3.56993, 0.62947
  2713, 20.00000, -5.10869, 0.90080
  2714, 20.00000, -6.64745, 1.17213
  2715, 20.00000, -8.18621, 1.44345
  2716, 20.00000, -9.72498, 1.71478
  2717, 20.00000, -11.26374, 1.98610
  2718, 20.00000, -12.80250, 2.25743
  2719, 20.00000, -0.50000, 0.00000
  2720, 20.00000, -2.06250, 0.00000
  2721, 20.00000, -3.62500, 0.00000
  2722, 20.00000, -5.18750, 0.00000
  2723, 20.00000, -6.75000, 0.00000
  2724, 20.00000, -8.31250, 0.00000
  2725, 20.00000, -9.87500, 0.00000
  2726, 20.00000, -11.43750, 0.00000
  2727, 20.00000, -13.00000, 0.00000
  2728, 20.00000, -0.49240, -0.08682
  2729, 20.00000, -2.03117, -0.35815
  2730, 20.00000, -3.56993, -0.62947
  2731, 20.00000, -5.10869, -0.90080
  2732, 20.00000, -6.64745, -1.17213
  2733, 20.00000, -8.18621, -1.44345
  2734, 20.00000, -9.72498, -1.71478
  2735, 20.00000, -11.26374, -1.98610
  2736, 20.00000, -12.80250, -2.25743
  2737, 20.00000, -0.46985, -0.17101
  2738, 20.00000, -1.93812, -0.70542
  2739, 20.00000, -3.40639, -1.23982
  2740, 20.00000, -4.87466, -1.77423
  2741, 20.00000, -6.34293, -2.30864
  2742, 20.00000, -7.81119, -2.84304
  2743, 20.00000, -9.27946, -3.37745
  2744, 20.00000, -10.74773, -3.91186
  2745, 20.00000, -12.21600, -4.44626
  2746, 20.00000, -0.43301, -0.25000
  2747, 20.00000, -1.78618, -1.03125
  2748, 20.00000, -3.13934, -1.81250
  2749, 20.00000, -4.49251, -2.59375
  2750, 20.00000, -5.84567, -3.37500
  2751, 20.00000, -7.19884, -4.15625
  2752, 20.00000, -8.55200, -4.93750
  2753, 20.00000, -9.90517, -5.71875
  2754, 20.00000, -11.25833, -6.50000
  2755, 20.00000, -0.38302, -0.32139
  2756, 20.00000, -1.57997, -1.32575
  2757, 20.00000, -2.77691, -2.33011
  2758, 20.00000, -3.97386, -3.33446
  2759, 20.00000, -5.17080, -4.33882
  2760, 20.00000, -6.36774, -5.34317
  2761, 20.00000, -7.56469, -6.34753
  2762, 20.00000, -8.76163, -7.35188
  2763, 20.00000, -9.95858, -8.35624
  2764, 20.00000, -0.32139, -0.38302
  2765, 20.00000, -1.32575, -1.57997
  2766, 20.00000, -2.33011, -2.77691
  2767, 20.00000, -3.33446, -3.97386
  2768, 20.00000, -4.33882, -5.17080
  2769, 20.00000, -5.34317, -6.36774
  2770, 20.00000, -6.34753, -7.56469
  2771, 20.00000, -7.35188, -8.76163
  2772, 20.00000, -8.35624, -9.95858
  2773, 20.00000, -0.25000, -0.43301
  2774, 20.00000, -1.03125, -1.78618
  2775, 20.00000, -1.81250, -3.13934
  2776, 20.00000, -2.59375, -4.49251
  2777, 20.00000, -3.37500, -5.84567
  2778, 20.00000, -4.15625, -7.19884
  2779, 20.00000, -4.93750, -8.55200
  2780, 20.00000, -5.71875, -9.90517
  2781, 20.00000, -6.50000, -11.25833
  2782, 20.00000, -0.17101, -0.46985
  2783, 20.00000, -0.70542, -1.93812
  2784, 20.00000, -1.23982, -3.40639
  2785, 20.00000, -1.77423, -4.87466
  2786, 20.00000, -2.30864, -6.34293
  2787, 20.00000, -2.84304, -7.81119
  2788, 20.00000, -3.37745, -9.27946
  2789, 20.00000, -3.91186, -10.74773
  2790, 20.00000, -4.44626, -12.21600
  2791, 20.00000, -0.08682, -0.49240
  2792, 20.00000, -0.35815, -2.03117
  2793, 20.00000, -0.62947, -3.56993
  2794, 20.00000, -0.90080, -5.10869
  2795, 20.00000, -1.17213, -6.64745
  2796, 20.00000, -1.44345, -8.18621
  2797, 20.00000, -1.71478, -9.72498
  2798, 20.00000, -1.98610, -11.26374
  2799, 20.00000, -2.25743, -12.80250
  2800, 20.00000, -0.00000, -0.50000
  2801, 20.00000, -0.00000, -2.06250
  2802, 20.00000, -0.00000, -3.62500
  2803, 20.00000, -0.00000, -5.18750
  2804, 20.00000, -0.00000, -6.75000
  2805, 20.00000, -0.00000, -8.31250
  2806, 20.00000, -0.00000, -9.87500
  2807, 20.00000, -0.00000, -11.43750
  2808, 20.00000, -0.00000, -13.00000
  2809, 20.00000, 0.08682, -0.49240
  2810, 20.00000, 0.35815, -2.03117
  2811, 20.00000, 0.62947, -3.56993
  2812, 20.00000, 0.90080, -5.10869
  2813, 20.00000, 1.17213, -6.64745
  2814, 20.00000, 1.44345, -8.18621
  2815, 20.00000, 1.71478, -9.72498
  2816, 20.00000, 1.98610, -11.26374
  2817, 20.00000, 2.25743, -12.80250
  2818, 20.00000, 0.17101, -0.46985
  2819, 20.00000, 0.70542, -1.93812
  2820, 20.00000, 1.23982, -3.40639
  2821, 20.00000, 1.77423, -4.87466
  2822, 20.00000, 2.30864, -6.34293
  2823, 20.00000, 2.84304, -7.81119
  2824, 20.00000, 3.37745, -9.27946
  2825, 20.00000, 3.91186, -10.74773
  2826, 20.00000, 4.44626, -12.21600
  2827, 20.00000, 0.25000, -0.43301
  2828, 20.00000, 1.03125, -1.78618
  2829, 20.00000, 1.81250, -3.13934
  2830, 20.00000, 2.59375, -4.49251
  2831, 20.00000, 3.37500, -5.84567
  2832, 20.00000, 4.15625, -7.19884
  2833, 20.00000, 4.93750, -8.55200
  2834, 20.00000, 5.71875, -9.90517
  2835, 20.00000, 6.50000, -11.25833
  2836, 20.00000, 0.32139, -0.38302
  2837, 20.00000, 1.32575, -1.57997
  2838, 20.00000, 2.33011, -2.77691
  2839, 20.00000, 3.33446, -3.97386
  2840, 20.00000, 4.33882, -5.17080
  2841, 20.00000, 5.34317, -6.36774
  2842, 20.00000, 6.34753, -7.56469
  2843, 20.00000, 7.35188, -8.76163
  2844, 20.00000, 8.35624, -9.95858
  2845, 20.00000, 0.38302, -0.32139
  2846, 20.00000, 1.57997, -1.32575
  2847, 20.00000, 2.77691, -2.33011
  2848, 20.00000, 3.97386, -3.33446
  2849, 20.00000, 5.17080, -4.33882
  2850, 20.00000, 6.36774, -5.34317
  2851, 20.00000, 7.56469, -6.34753
  2852, 20.00000, 8.76163, -7.35188
  2853, 20.00000, 9.95858, -8.35624
  2854, 20.00000, 0.43301, -0.25000
  2855, 20.00000, 1.78618, -1.03125
  2856, 20.00000, 3.13934, -1.81250
  2857, 20.00000, 4.49251, -2.59375
  2858, 20.00000, 5.84567, -3.37500
  2859, 20.00000, 7.19884, -4.15625
  2860, 20.00000, 8.55200, -4.93750
  2861, 20.00000, 9.90517, -5.71875
  2862, 20.00000, 11.25833, -6.50000
  2863, 20.00000, 0.46985, -0.17101
  2864, 20.00000, 1.93812, -0.70542
  2865, 20.00000, 3.40639, -1.23982
  2866, 20.00000, 4.87466, -1.77423
  2867, 20.00000, 6.34293, -2.30864
  2868, 20.00000, 7.81119, -2.84304
  2869, 20.00000, 9.27946, -3.37745
  2870, 20.00000, 10.74773, -3.91186
  2871, 20.00000, 12.21600, -4.44626
  2872, 20.00000, 0.49240, -0.08682
  2873, 20.00000, 2.03117, -0.35815
  2874, 20.00000, 3.56993, -0.62947
  2875, 20.00000, 5.10869, -0.90080
  2876, 20.00000, 6.64745, -1.17213
  2877, 20.00000, 8.18621, -1.44345
  2878, 20.00000, 9.72498, -1.71478
  2879, 20.00000, 11.26374, -1.98610
  2880, 20.00000, 12.80250, -2.25743
  2881, 20.00000, 0.50000, -0.00000
  2882, 20.00000, 2.06250, -0.00000
  2883, 20.00000, 3.62500, -0.00000
  2884, 20.00000, 5.18750, -0.00000
  2885, 20.00000, 6.75000, -0.00000
  2886, 20.00000, 8.31250, -0.00000
  2887, 20.00000, 9.87500, -0.00000
  2888, 20.00000, 11.43750, -0.00000
  2889, 20.00000, 13.00000, -0.00000
  2890, 25.00000, 0.50000, 0.00000
  2891, 25.00000, 2.06250, 0.00000
  2892, 25.00000, 3.62500, 0.00000
  2893, 25.00000, 5.18750, 0.00000
  2894, 25.00000, 6.75000, 0.00000
  2895, 25.00000, 8.31250, 0.00000
  2896, 25.00000, 9.87500, 0.00000
  2897, 25.00000, 11.43750, 0.00000
  2898, 25.00000, 13.00000, 0.00000
  2899, 25.00000, 0.49240, 0.08682
  2900, 25.00000, 2.03117, 0.35815
  2901, 25.00000, 3.56993, 0.62947
  2902, 25.00000, 5.10869, 0.90080
  2903, 25.00000, 6.64745, 1.17213
  2904, 25.00000, 8.18621, 1.44345
  2905, 25.00000, 9.72498, 1.71478
  2906, 25.00000, 11.26374, 1.98610
  2907, 25.00000, 12.80250, 2.25743
  2908, 25.00000, 0.46985, 0.17101
  2909, 25.00000, 1.93812, 0.70542
  2910, 25.00000, 3.40639, 1.23982
  2911, 25.00000, 4.87466, 1.77423
  2912, 25.00000, 6.34293, 2.30864
  2913, 25.00000, 7.81119, 2.84304
  2914, 25.00000, 9.27946, 3.37745
  2915, 25.00000, 10.74773, 3.91186
  2916, 25.00000, 12.21600, 4.44626
  2917, 25.00000, 0.43301, 0.25000
  2918, 25.00000, 1.78618, 1.03125
  2919, 25.00000, 3.13934, 1.81250
  2920, 25.00000, 4.49251, 2.59375
  2921, 25.00000, 5.84567, 3.37500
  2922, 25.00000, 7.19884, 4.15625
  2923, 25.00000, 8.55200, 4.93750
  2924, 25.00000, 9.90517, 5.71875
  2925, 25.00000, 11.25833, 6.50000
  2926, 25.00000, 0.38302, 0.32139
  2927, 25.00000, 1.57997, 1.32575
  2928, 25.00000, 2.77691, 2.33011
  2929, 25.00000, 3.97386, 3.33446
  2930, 25.00000, 5.17080, 4.33882
  2931, 25.00000, 6.36774, 5.34317
  2932, 25.00000, 7.56469, 6.34753
  2933, 25.00000, 8.76163, 7.35188
  2934, 25.00000, 9.95858, 8.35624
  2935, 25.00000, 0.32139, 0.38302
  2936, 25.00000, 1.32575, 1.57997
  2937, 25.00000, 2.33011, 2.77691
  2938, 25.00000, 3.33446, 3.97386
  2939, 25.00000, 4.33882, 5.17080
  2940, 25.00000, 5.34317, 6.36774
  2941, 25.00000, 6.34753, 7.56469
  2942, 25.00000, 7.35188, 8.76163
  2943, 25.00000, 8.35624, 9.95858
  2944, 25.00000, 0.25000, 0.43301
  2945, 25.00000, 1.03125, 1.78618
  2946, 25.00000, 1.81250, 3.13934
  2947, 25.00000, 2.59375, 4.49251
  2948, 25.00000, 3.37500, 5.84567
  2949, 25.00000, 4.15625, 7.19884
  2950, 25.00000, 4.93750, 8.55200
  2951, 25.00000, 5.71875, 9.90517
  2952, 25.00000, 6.50000, 11.25833
  2953, 25.00000, 0.17101, 0.46985
  2954, 25.00000, 0.70542, 1.93812
  2955, 25.00000, 1.23982, 3.40639
  2956, 25.00000, 1.77423, 4.87466
  2957, 25.00000, 2.30864, 6.34293
  2958, 25.00000, 2.84304, 7.81119
  2959, 25.00000, 3.37745, 9.27946
  2960, 25.00000, 3.91186, 10.74773
  2961, 25.00000, 4.44626, 12.21600
  2962, 25.00000, 0.08682, 0.49240
  2963, 25.00000, 0.35815, 2.03117
  2964, 25.00000, 0.62947, 3.56993
  2965, 25.00000, 0.90080, 5.10869
  2966, 25.00000, 1.17213, 6.64745
  2967, 25.00000, 1.44345, 8.18621
  2968, 25.00000, 1.71478, 9.72498
  2969, 25.00000, 1.98610, 11.26374
  2970, 25.00000, 2.25743, 12.80250
  2971, 25.00000, 0.00000, 0.50000
  2972, 25.00000, 0.00000, 2.06250
  2973, 25.00000, 0.00000, 3.62500
  2974, 25.00000, 0.00000, 5.18750
  2975, 25.00000, 0.00000, 6.75000
  2976, 25.00000, 0.00000, 8.31250
  2977, 25.00000, 0.00000, 9.87500
  2978, 25.00000, 0.00000, 11.43750
  2979, 25.00000, 0.00000, 13.00000
  2980, 25.00000, -0.08682, 0.49240
  2981, 25.00000, -0.35815, 2.03117
  2982, 25.00000, -0.62947, 3.56993
  2983, 25.00000, -0.90080, 5.10869
  2984, 25.00000, -1.17213, 6.64745
  2985, 25.00000, -1.44345, 8.18621
  2986, 25.00000, -1.71478, 9.72498
  2987, 25.00000, -1.98610, 11.26374
  2988, 25.00000, -2.25743, 12.80250
  2989, 25.00000, -0.17101, 0.46985
  2990, 25.00000, -0.70542, 1.93812
  2991, 25.00000, -1.23982, 3.40639
  2992, 25.00000, -1.77423, 4.87466
  2993, 25.00000, -2.30864, 6.34293
  2994, 25.00000, -2.84304, 7.81119
  2995, 25.00000, -3.37745, 9.27946
  2996, 25.00000, -3.91186, 10.74773
  2997, 25.00000, -4.44626, 12.21600
  2998, 25.00000, -0.25000, 0.43301
  2999, 25.00000, -1.03125, 1.78618
  3000, 25.00000, -1.81250, 3.13934
  3001, 25.00000, -2.59375, 4.49251
  3002, 25.00000, -3.37500, 5.84567
  3003, 25.00000, -4.15625, 7.19884
  3004, 25.00000, -4.93750, 8.55200
  3005, 25.00000, -5.71875, 9.90517
  3006, 25.00000, -6.50000, 11.25833
  3007, 25.00000, -0.32139, 0.38302
  3008, 25.00000, -1.32575, 1.57997
  3009, 25.00000, -2.33011, 2.77691
  3010, 25.00000, -3.33446, 3.97386
  3011, 25.00000, -4.33882, 5.17080
  3012, 25.00000, -5.34317, 6.36774
  3013, 25.00000, -6.34753, 7.56469
  3014, 25.00000, -7.35188, 8.76163
  3015, 25.00000, -8.35624, 9.95858
  3016, 25.00000, -0.38302, 0.32139
  3017, 25.00000, -1.57997, 1.32575
  3018, 25.00000, -2.77691, 2.33011
  3019, 25.00000, -3.97386, 3.33446
  3020, 25.00000, -5.17080, 4.33882
  3021, 25.00000, -6.36774, 5.34317
  3022, 25.00000, -7.56469, 6.34753
  3023, 25.00000, -8.76163, 7.35188
  3024, 25.00000, -9.95858, 8.35624
  3025, 25.00000, -0.43301, 0.25000
  3026, 25.00000, -1.78618, 1.03125
  3027, 25.00000, -3.13934, 1.81250
  3028, 25.00000, -4.49251, 2.59375
  3029, 25.00000, -5.84567, 3.37500
  3030, 25.00000, -7.19884, 4.15625
  3031, 25.00000, -8.55200, 4.93750
  3032, 25.00000, -9.90517, 5.71875
  3033, 25.00000, -11.25833, 6.50000
  3034, 25.00000, -0.46985, 0.17101
  3035, 25.00000, -1.93812, 0.70542
  3036, 25.00000, -3.40639, 1.23982
  3037, 25.00000, -4.87466, 1.77423
  3038, 25.00000, -6.34293, 2.30864
  3039, 25.00000, -7.81119, 2.84304
  3040, 25.00000, -9.27946, 3.37745
  3041, 25.00000, -10.74773, 3.91186
  3042, 25.00000, -12.21600, 4.44626
  3043, 25.00000, -0.49240, 0.08682
  3044, 25.00000, -2.03117, 0.35815
  3045, 25.00000, -3.56993, 0.62947
  3046, 25.00000, -5.10869, 0.90080
  3047, 25.00000, -6.64745, 1.17213
  3048, 25.00000, -8.18621, 1.44345
  3049, 25.00000, -9.72498, 1.71478
  3050, 25.00000, -11.26374, 1.98610
  3051, 25.00000, -12.80250, 2.25743
  3052, 25.00000, -0.50000, 0.00000
  3053, 25.00000, -2.06250, 0.00000
  3054, 25.00000, -3.62500, 0.00000
  3055, 25.00000, -5.18750, 0.00000
  3056, 25.00000, -6.75000, 0.00000
  3057, 25.00000, -8.31250, 0.00000
  3058, 25.00000, -9.87500, 0.00000
  3059, 25.00000, -11.43750, 0.00000
  3060, 25.00000, -13.00000, 0.00000
  3061, 25.00000, -0.49240, -0.08682
  3062, 25.00000, -2.03117, -0.35815
  3063, 25.00000, -3.56993, -0.62947
  3064, 25.00000, -5.10869, -0.90080
  3065, 25.00000, -6.64745, -1.17213
  3066, 25.00000, -8.18621, -1.44345
  3067, 25.00000, -9.72498, -1.71478
  3068, 25.00000, -11.26374, -1.98610
  3069, 25.00000, -12.80250, -2.25743
  3070, 25.00000, -0.46985, -0.17101
  3071, 25.00000, -1.93812, -0.70542
  3072, 25.00000, -3.40639, -1.23982
  3073, 25.00000, -4.87466, -1.77423
  3074, 25.00000, -6.34293, -2.30864
  3075, 25.00000, -7.81119, -2.84304
  3076, 25.00000, -9.27946, -3.37745
  3077, 25.00000, -10.74773, -3.91186
  3078, 25.00000, -12.21600, -4.44626
  3079, 25.00000, -0.43301, -0.25000
  3080, 25.00000, -1.78618, -1.03125
  3081, 25.00000, -3.13934, -1.81250
  3082, 25.00000, -4.49251, -2.59375
  3083, 25.00000, -5.84567, -3.37500
  3084, 25.00000, -7.19884, -4.15625
  3085, 25.00000, -8.55200, -4.93750
  3086, 25.00000, -9.90517, -5.71875
  3087, 25.00000, -11.25833, -6.50000
  3088, 25.00000, -0.38302, -0.32139
  3089, 25.00000, -1.57997, -1.32575
  3090, 25.00000, -2.77691, -2.33011
  3091, 25.00000, -3.97386, -3.33446
  3092, 25.00000, -5.17080, -4.33882
  3093, 25.00000, -6.36774, -5.34317
  3094, 25.00000, -7.56469, -6.34753
  3095, 25.00000, -8.76163, -7.35188
  3096, 25.00000, -9.95858, -8.35624
  3097, 25.00000, -0.32139, -0.38302
  3098, 25.00000, -1.32575, -1.57997
  3099, 25.00000, -2.33011, -2.77691
  3100, 25.00000, -3.33446, -3.97386
  3101, 25.00000, -4.33882, -5.17080
  3102, 25.00000, -5.34317, -6.36774
  3103, 25.00000, -6.34753, -7.56469
  3104, 25.00000, -7.35188, -8.76163
  3105, 25.00000, -8.35624, -9.95858
  3106, 25.00000, -0.25000, -0.43301
  3107, 25.00000, -1.03125, -1.78618
  3108, 25.00000, -1.81250, -3.13934
  3109, 25.00000, -2.59375, -4.49251
  3110, 25.00000, -3.37500, -5.84567
  3111, 25.00000, -4.15625, -7.19884
  3112, 25.00000, -4.93750, -8.55200
  3113, 25.00000, -5.71875, -9.90517
  3114, 25.00000, -6.50000, -11.25833
  3115, 25.00000, -0.17101, -0.46985
  3116, 25.00000, -0.70542, -1.93812
  3117, 25.00000, -1.23982, -3.40639
  3118, 25.00000, -1.77423, -4.87466
  3119, 25.00000, -2.30864, -6.34293
  3120, 25.00000, -2.84304, -7.81119
  3121, 25.00000, -3.37745, -9.27946
  3122, 25.00000, -3.91186, -10.74773
  3123, 25.00000, -4.44626, -12.21600
  3124, 25.00000, -0.08682, -0.49240
  3125, 25.00000, -0.35815, -2.03117
  3126, 25.00000, -0.62947, -3.56993
  3127, 25.00000, -0.90080, -5.10869
  3128, 25.00000, -1.17213, -6.64745
  3129, 25.00000, -1.44345, -8.18621
  3130, 25.00000, -1.71478, -9.72498
  3131, 25.00000, -1.98610, -11.26374
  3132, 25.00000, -2.25743, -12.80250
  3133, 25.00000, -0.00000, -0.50000
  3134, 25.00000, -0.00000, -2.06250
  3135, 25.00000, -0.00000, -3.62500
  3136, 25.00000, -0.00000, -5.18750
  3137, 25.00000, -0.00000, -6.75000
  3138, 25.00000, -0.00000, -8.31250
  3139, 25.00000, -0.00000, -9.87500
  3140, 25.00000, -0.00000, -11.43750
  3141, 25.00000, -0.00000, -13.00000
  3142, 25.00000, 0.08682, -0.49240
  3143, 25.00000, 0.35815, -2.03117
  3144, 25.00000, 0.62947, -3.56993
  3145, 25.00000, 0.90080, -5.10869
  3146, 25.00000, 1.17213, -6.64745
  3147, 25.00000, 1.44345, -8.18621
  3148, 25.00000, 1.71478, -9.72498
  3149, 25.00000, 1.98610, -11.26374
  3150, 25.00000, 2.25743, -12.80250
  3151, 25.00000, 0.17101, -0.46985
  3152, 25.00000, 0.70542, -1.93812
  3153, 25.00000, 1.23982, -3.40639
  3154, 25.00000, 1.77423, -4.87466
  3155, 25.00000, 2.30864, -6.34293
  3156, 25.00000, 2.84304, -7.81119
  3157, 25.00000, 3.37745, -9.27946
  3158, 25.00000, 3.91186, -10.74773
  3159, 25.00000, 4.44626, -12.21600
  3160, 25.00000, 0.25000, -0.43301
  3161, 25.00000, 1.03125, -1.78618
  3162, 25.00000, 1.81250, -3.13934
  3163, 25.00000, 2.59375, -4.49251
  3164, 25.00000, 3.37500, -5.84567
  3165, 25.00000, 4.15625, -7.19884
  3166, 25.00000, 4.93750, -8.55200
  3167, 25.00000, 5.71875, -9.90517
  3168, 25.00000, 6.50000, -11.25833
  3169, 25.00000, 0.32139, -0.38302
  3170, 25.00000, 1.32575, -1.57997
  3171, 25.00000, 2.33011, -2.77691
  3172, 25.00000, 3.33446, -3.97386
  3173, 25.00000, 4.33882, -5.17080
  3174, 25.00000, 5.34317, -6.36774
  3175, 25.00000, 6.34753, -7.56469
  3176, 25.00000, 7.35188, -8.76163
  3177, 25.00000, 8.35624, -9.95858
  3178, 25.00000, 0.38302, -0.32139
  3179, 25.00000, 1.57997, -1.32575
  3180, 25.00000, 2.77691, -2.33011
  3181, 25.00000, 3.97386, -3.33446
  3182, 25.00000, 5.17080, -4.33882
  3183, 25.00000, 6.36774, -5.34317
  3184, 25.00000, 7.56469, -6.34753
  3185, 25.00000, 8.76163, -7.35188
  3186, 25.00000, 9.95858, -8.35624
  3187, 25.00000, 0.43301, -0.25000
  3188, 25.00000, 1.78618, -1.03125
  3189, 25.00000, 3.13934, -1.81250
  3190, 25.00000, 4.49251, -2.59375
  3191, 25.00000, 5.84567, -3.37500
  3192, 25.00000, 7.19884, -4.15625
  3193, 25.00000, 8.55200, -4.93750
  3194, 25.00000, 9.90517, -5.71875
  3195, 25.00000, 11.25833, -6.50000
  3196, 25.00000, 0.46985, -0.17101
  3197, 25.00000, 1.93812, -0.70542
  3198, 25.00000, 3.40639, -1.23982
  3199, 25.00000, 4.87466, -1.77423
  3200, 25.00000, 6.34293, -2.30864
  3201, 25.00000, 7.81119, -2.84304
  3202, 25.00000, 9.27946, -3.37745
  3203, 25.00000, 10.74773, -3.91186
  3204, 25.00000, 12.21600, -4.44626
  3205, 25.00000, 0.49240, -0.08682
  3206, 25.00000, 2.03117, -0.35815
  3207, 25.00000, 3.56993, -0.62947
  3208, 25.00000, 5.10869, -0.90080
  3209, 25.00000, 6.64745, -1.17213
  3210, 25.00000, 8.18621, -1.44345
  3211, 25.00000, 9.72498, -1.71478
  3212, 25.00000, 11.26374, -1.98610
  3213, 25.00000, 12.80250, -2.25743
  3214, 25.00000, 0.50000, -0.00000
  3215, 25.00000, 2.06250, -0.00000
  3216, 25.00000, 3.62500, -0.00000
  3217, 25.00000, 5.18750, -0.00000
  3218, 25.00000, 6.75000, -0.00000
  3219, 25.00000, 8.31250, -0.00000
  3220, 25.00000, 9.87500, -0.00000
  3221, 25.00000, 11.43750, -0.00000
  3222, 25.00000, 13.00000, -0.00000
  3223, 30.00000, 0.50000, 0.00000
  3224, 30.00000, 2.06250, 0.00000
  3225, 30.00000, 3.62500, 0.00000
  3226, 30.00000, 5.18750, 0.00000
  3227, 30.00000, 6.75000, 0.00000
  3228, 30.00000, 8.31250, 0.00000
  3229, 30.00000, 9.87500, 0.00000
  3230, 30.00000, 11.43750, 0.00000
  3231, 30.00000, 13.00000, 0.00000
  3232, 30.00000, 0.49240, 0.08682
  3233, 30.00000, 2.03117, 0.35815
  3234, 30.00000, 3.56993, 0.62947
  3235, 30.00000, 5.10869, 0.90080
  3236, 30.00000, 6.64745, 1.17213
  3237, 30.00000, 8.18621, 1.44345
  3238, 30.00000, 9.72498, 1.71478
  3239, 30.00000, 11.26374, 1.98610
  3240, 30.00000, 12.80250, 2.25743
  3241, 30.00000, 0.46985, 0.17101
  3242, 30.00000, 1.93812, 0.70542
  3243, 30.00000, 3.40639, 1.23982
  3244, 30.00000, 4.87466, 1.77423
  3245, 30.00000, 6.34293, 2.30864
  3246, 30.00000, 7.81119, 2.84304
  3247, 30.00000, 9.27946, 3.37745
  3248, 30.00000, 10.74773, 3.91186
  3249, 30.00000, 12.21600, 4.44626
  3250, 30.00000, 0.43301, 0.25000
  3251, 30.00000, 1.78618, 1.03125
  3252, 30.00000, 3.13934, 1.81250
  3253, 30.00000, 4.49251, 2.59375
  3254, 30.00000, 5.84567, 3.37500
  3255, 30.00000, 7.19884, 4.15625
  3256, 30.00000, 8.55200, 4.93750
  3257, 30.00000, 9.90517, 5.71875
  3258, 30.00000, 11.25833, 6.50000
  3259, 30.00000, 0.38302, 0.32139
  3260, 30.00000, 1.57997, 1.32575
  3261, 30.00000, 2.77691, 2.33011
  3262, 30.00000, 3.97386, 3.33446
  3263, 30.00000, 5.17080, 4.33882
  3264, 30.00000, 6.36774, 5.34317
  3265, 30.00000, 7.56469, 6.34753
  3266, 30.00000, 8.76163, 7.35188
  3267, 30.00000, 9.95858, 8.35624
  3268, 30.00000, 0.32139, 0.38302
  3269, 30.00000, 1.32575, 1.57997
  3270, 30.00000, 2.33011, 2.77691
  3271, 30.00000, 3.33446, 3.97386
  3272, 30.00000, 4.33882, 5.17080
  3273, 30.00000, 5.34317, 6.36774
  3274, 30.00000, 6.34753, 7.56469
  3275, 30.00000, 7.35188, 8.76163
  3276, 30.00000, 8.35624, 9.95858
  3277, 30.00000, 0.25000, 0.43301
  3278, 30.00000, 1.03125, 1.78618
  3279, 30.00000, 1.81250, 3.13934
  3280, 30.00000, 2.59375, 4.49251
  3281, 30.00000, 3.37500, 5.84567
  3282, 30.00000, 4.15625, 7.19884
  3283, 30.00000, 4.93750, 8.55200
  3284, 30.00000, 5.71875, 9.90517
  3285, 30.00000, 6.50000, 11.25833
  3286, 30.00000, 0.17101, 0.46985
  3287, 30.00000, 0.70542, 1.93812
  3288, 30.00000, 1.23982, 3.40639
  3289, 30.00000, 1.77423, 4.87466
  3290, 30.00000, 2.30864, 6.34293
  3291, 30.00000, 2.84304, 7.81119
  3292, 30.00000, 3.37745, 9.27946
  3293, 30.00000, 3.91186, 10.74773
  3294, 30.00000, 4.44626, 12.21600
  3295, 30.00000, 0.08682, 0.49240
  3296, 30.00000, 0.35815, 2.03117
  3297, 30.00000, 0.62947, 3.56993
  3298, 30.00000, 0.90080, 5.10869
  3299, 30.00000, 1.17213, 6.64745
  3300, 30.00000, 1.44345, 8.18621
  3301, 30.00000, 1.71478, 9.72498
  3302, 30.00000, 1.98610, 11.26374
  3303, 30.00000, 2.25743, 12.80250
  3304, 30.00000, 0.00000, 0.50000
  3305, 30.00000, 0.00000, 2.06250
  3306, 30.00000, 0.00000, 3.62500
  3307, 30.00000, 0.00000, 5.18750
  3308, 30.00000, 0.00000, 6.75000
  3309, 30.00000, 0.00000, 8.31250
  3310, 30.00000, 0.00000, 9.87500
  3311, 30.00000, 0.00000, 11.43750
  3312, 30.00000, 0.00000, 13.00000
  3313, 30.00000, -0.08682, 0.49240
  3314, 30.00000, -0.35815, 2.03117
  3315, 30.00000, -0.62947, 3.56993
  3316, 30.00000, -0.90080, 5.10869
  3317, 30.00000, -1.17213, 6.64745
  3318, 30.00000, -1.44345, 8.18621
  3319, 30.00000, -1.71478, 9.72498
  3320, 30.00000, -1.98610, 11.26374
  3321, 30.00000, -2.25743, 12.80250
  3322, 30.00000, -0.17101, 0.46985
  3323, 30.00000, -0.70542, 1.93812
  3324, 30.00000, -1.23982, 3.40639
  3325, 30.00000, -1.77423, 4.87466
  3326, 30.00000, -2.30864, 6.34293
  3327, 30.00000, -2.84304, 7.81119
  3328, 30.00000, -3.37745, 9.27946
  3329, 30.00000, -3.91186, 10.74773
  3330, 30.00000, -4.44626, 12.21600
  3331, 30.00000, -0.25000, 0.43301
  3332, 30.00000, -1.03125, 1.78618
  3333, 30.00000, -1.81250, 3.13934
  3334, 30.00000, -2.59375, 4.49251
  3335, 30.00000, -3.37500, 5.84567
  3336, 30.00000, -4.15625, 7.19884
  3337, 30.00000, -4.93750, 8.55200
  3338, 30.00000, -5.71875, 9.90517
  3339, 30.00000, -6.50000, 11.25833
  3340, 30.00000, -0.32139, 0.38302
  3341, 30.00000, -1.32575, 1.57997
  3342, 30.00000, -2.33011, 2.77691
  3343, 30.00000, -3.33446, 3.97386
  3344, 30.00000, -4.33882, 5.17080
  3345, 30.00000, -5.34317, 6.36774
  3346, 30.00000, -6.34753, 7.56469
  3347, 30.00000, -7.35188, 8.76163
  3348, 30.00000, -8.35624, 9.95858
  3349, 30.00000, -0.38302, 0.32139
  3350, 30.00000, -1.57997, 1.32575
  3351, 30.00000, -2.77691, 2.33011
  3352, 30.00000, -3.97386, 3.33446
  3353, 30.00000, -5.17080, 4.33882
  3354, 30.00000, -6.36774, 5.34317
  3355, 30.00000, -7.56469, 6.34753
  3356, 30.00000, -8.76163, 7.35188
  3357, 30.00000, -9.95858, 8.35624
  3358, 30.00000, -0.43301, 0.25000
  3359, 30.00000, -1.78618, 1.03125
  3360, 30.00000, -3.13934, 1.81250
  3361, 30.00000, -4.49251, 2.59375
  3362, 30.00000, -5.84567, 3.37500
  3363, 30.00000, -7.19884, 4.15625
  3364, 30.00000, -8.55200, 4.93750
  3365, 30.00000, -9.90517, 5.71875
  3366, 30.00000, -11.25833, 6.50000
  3367, 30.00000, -0.46985, 0.17101
  3368, 30.00000, -1.93812, 0.70542
  3369, 30.00000, -3.40639, 1.23982
  3370, 30.00000, -4.87466, 1.77423
  3371, 30.00000, -6.34293, 2.30864
  3372, 30.00000, -7.81119, 2.84304
  3373, 30.00000, -9.27946, 3.37745
  3374, 30.00000, -10.74773, 3.91186
  3375, 30.00000, -12.21600, 4.44626
  3376, 30.00000, -0.49240, 0.08682
  3377, 30.00000, -2.03117, 0.35815
  3378, 30.00000, -3.56993, 0.62947
  3379, 30.00000, -5.10869, 0.90080
  3380, 30.00000, -6.64745, 1.17213
  3381, 30.00000, -8.18621, 1.44345
  3382, 30.00000, -9.72498, 1.71478
  3383, 30.00000, -11.26374, 1.98610
  3384, 30.00000, -12.80250, 2.25743
  3385, 30.00000, -0.50000, 0.00000
  3386, 30.00000, -2.06250, 0.00000
  3387, 30.00000, -3.62500, 0.00000
  3388, 30.00000, -5.18750, 0.00000
  3389, 30.00000, -6.75000, 0.00000
  3390, 30.00000, -8.31250, 0.00000
  3391, 30.00000, -9.87500, 0.00000
  3392, 30.00000, -11.43750, 0.00000
  3393, 30.00000, -13.00000, 0.00000
  3394, 30.00000, -0.49240, -0.08682
  3395, 30.00000, -2.03117, -0.35815
  3396, 30.00000, -3.56993, -0.62947
  3397, 30.00000, -5.10869, -0.90080
  3398, 30.00000, -6.64745, -1.17213
  3399, 30.00000, -8.18621, -1.44345
  3400, 30.00000, -9.72498, -1.71478
  3401, 30.00000, -11.26374, -1.98610
  3402, 30.00000, -12.80250, -2.25743
  3403, 30.00000, -0.46985, -0.17101
  3404, 30.00000, -1.93812, -0.70542
  3405, 30.00000, -3.40639, -1.23982
  3406, 30.00000, -4.87466, -1.77423
  3407, 30.00000, -6.34293, -2.30864
  3408, 30.00000, -7.81119, -2.84304
  3409, 30.00000, -9.27946, -3.37745
  3410, 30.00000, -10.74773, -3.91186
  3411, 30.00000, -12.21600, -4.44626
  3412, 30.00000, -0.43301, -0.25000
  3413, 30.00000, -1.78618, -1.03125
  3414, 30.00000, -3.13934, -1.81250
  3415, 30.00000, -4.49251, -2.59375
  3416, 30.00000, -5.84567, -3.37500
  3417, 30.00000, -7.19884, -4.15625
  3418, 30.00000, -8.55200, -4.93750
  3419, 30.00000, -9.90517, -5.71875
  3420, 30.00000, -11.25833, -6.50000
  3421, 30.00000, -0.38302, -0.32139
  3422, 30.00000, -1.57997, -1.32575
  3423, 30.00000, -2.77691, -2.33011
  3424, 30.00000, -3.97386, -3.33446
  3425, 30.00000, -5.17080, -4.33882
  3426, 30.00000, -6.36774, -5.34317
  3427, 30.00000, -7.56469, -6.34753
  3428, 30.00000, -8.76163, -7.35188
  3429, 30.00000, -9.95858, -8.35624
  3430, 30.00000, -0.32139, -0.38302
  3431, 30.00000, -1.32575, -1.57997
  3432, 30.00000, -2.33011, -2.77691
  3433, 30.00000, -3.33446, -3.97386
  3434, 30.00000, -4.33882, -5.17080
  3435, 30.00000, -5.34317, -6.36774
  3436, 30.00000, -6.34753, -7.56469
  3437, 30.00000, -7.35188, -8.76163
  3438, 30.00000, -8.35624, -9.95858
  3439, 30.00000, -0.25000, -0.43301
  3440, 30.00000, -1.03125, -1.78618
  3441, 30.00000, -1.81250, -3.13934
  3442, 30.00000, -2.59375, -4.49251
  3443, 30.00000, -3.37500, -5.84567
  3444, 30.00000, -4.15625, -7.19884
  3445, 30.00000, -4.93750, -8.55200
  3446, 30.00000, -5.71875, -9.90517
  3447, 30.00000, -6.50000, -11.25833
  3448, 30.00000, -0.17101, -0.46985
  3449, 30.00000, -0.70542, -1.93812
  3450, 30.00000, -1.23982, -3.40639
  3451, 30.00000, -1.77423, -4.87466
  3452, 30.00000, -2.30864, -6.34293
  3453, 30.00000, -2.84304, -7.81119
  3454, 30.00000, -3.37745, -9.27946
  3455, 30.00000, -3.91186, -10.74773
  3456, 30.00000, -4.44626, -12.21600
  3457, 30.00000, -0.08682, -0.49240
  3458, 30.00000, -0.35815, -2.03117
  3459, 30.00000, -0.62947, -3.56993
  3460, 30.00000, -0.90080, -5.10869
  3461, 30.00000, -1.17213, -6.64745
  3462, 30.00000, -1.44345, -8.18621
  3463, 30.00000, -1.71478, -9.72498
  3464, 30.00000, -1.98610, -11.26374
  3465, 30.00000, -2.25743, -12.80250
  3466, 30.00000, -0.00000, -0.50000
  3467, 30.00000, -0.00000, -2.06250
  3468, 30.00000, -0.00000, -3.62500
  3469, 30.00000, -0.00000, -5.18750
  3470, 30.00000, -0.00000, -6.75000
  3471, 30.00000, -0.00000, -8.31250
  3472, 30.00000, -0.00000, -9.87500
  3473, 30.00000, -0.00000, -11.43750
  3474, 30.00000, -0.00000, -13.00000
  3475, 30.00000, 0.08682, -0.49240
  3476, 30.00000, 0.35815, -2.03117
  3477, 30.00000, 0.62947, -3.56993
  3478, 30.00000, 0.90080, -5.10869
  3479, 30.00000, 1.17213, -6.64745
  3480, 30.00000, 1.44345, -8.18621
  3481, 30.00000, 1.71478, -9.72498
  3482, 30.00000, 1.98610, -11.26374
  3483, 30.00000, 2.25743, -12.80250
  3484, 30.00000, 0.17101, -0.46985
  3485, 30.00000, 0.70542, -1.93812
  3486, 30.00000, 1.23982, -3.40639
  3487, 30.00000, 1.77423, -4.87466
  3488, 30.00000, 2.30864, -6.34293
  3489, 30.00000, 2.84304, -7.81119
  3490, 30.00000, 3.37745, -9.27946
  3491, 30.00000, 3.91186, -10.74773
  3492, 30.00000, 4.44626, -12.21600
  3493, 30.00000, 0.25000, -0.43301
  3494, 30.00000, 1.03125, -1.78618
  3495, 30.00000, 1.81250, -3.13934
  3496, 30.00000, 2.59375, -4.49251
  3497, 30.00000, 3.37500, -5.84567
  3498, 30.00000, 4.15625, -7.19884
  3499, 30.00000, 4.93750, -8.55200
  3500, 30.00000, 5.71875, -9.90517
  3501, 30.00000, 6.50000, -11.25833
  3502, 30.00000, 0.32139, -0.38302
  3503, 30.00000, 1.32575, -1.57997
  3504, 30.00000, 2.33011, -2.77691
  3505, 30.00000, 3.33446, -3.97386
  3506, 30.00000, 4.33882, -5.17080
  3507, 30.00000, 5.34317, -6.36774
  3508, 30.00000, 6.34753, -7.56469
  3509, 30.00000, 7.35188, -8.76163
  3510, 30.00000, 8.35624, -9.95858
  3511, 30.00000, 0.38302, -0.32139
  3512, 30.00000, 1.57997, -1.32575
  3513, 30.00000, 2.77691, -2.33011
  3514, 30.00000, 3.97386, -3.33446
  3515, 30.00000, 5.17080, -4.33882
  3516, 30.00000, 6.36774, -5.34317
  3517, 30.00000, 7.56469, -6.34753
  3518, 30.00000, 8.76163, -7.35188
  3519, 30.00000, 9.95858, -8.35624
  3520, 30.00000, 0.43301, -0.25000
  3521, 30.00000, 1.78618, -1.03125
  3522, 30.00000, 3.13934, -1.81250
  3523, 30.00000, 4.49251, -2.59375
  3524, 30.00000, 5.84567, -3.37500
  3525, 30.00000, 7.19884, -4.15625
  3526, 30.00000, 8.55200, -4.93750
  3527, 30.00000, 9.90517, -5.71875
  3528, 30.00000, 11.25833, -6.50000
  3529, 30.00000, 0.46985, -0.17101
  3530, 30.00000, 1.93812, -0.70542
  3531, 30.00000, 3.40639, -1.23982
  3532, 30.00000, 4.87466, -1.77423
  3533, 30.00000, 6.34293, -2.30864
  3534, 30.00000, 7.81119, -2.84304
  3535, 30.00000, 9.27946, -3.37745
  3536, 30.00000, 10.74773, -3.91186
  3537, 30.00000, 12.21600, -4.44626
  3538, 30.00000, 0.49240, -0.08682
  3539, 30.00000, 2.03117, -0.35815
  3540, 30.00000, 3.56993, -0.62947
  3541, 30.00000, 5.10869, -0.90080
  3542, 30.00000, 6.64745, -1.17213
  3543, 30.00000, 8.18621, -1.44345
  3544, 30.00000, 9.72498, -1.71478
  3545, 30.00000, 11.26374, -1.98610
  3546, 30.00000, 12.80250, -2.25743
  3547, 30.00000, 0.50000, -0.00000
  3548, 30.00000, 2.06250, -0.00000
  3549, 30.00000, 3.62500, -0.00000
  3550, 30.00000, 5.18750, -0.00000
  3551, 30.00000, 6.75000, -0.00000
  3552, 30.00000, 8.31250, -0.00000
  3553, 30.00000, 9.87500, -0.00000
  3554, 30.00000, 11.43750, -0.00000
  3555, 30.00000, 13.00000, -0.00000
  3556, 35.00000, 0.50000, 0.00000
  3557, 35.00000, 2.06250, 0.00000
  3558, 35.00000, 3.62500, 0.00000
  3559, 35.00000, 5.18750, 0.00000
  3560, 35.00000, 6.75000, 0.00000
  3561, 35.00000, 8.31250, 0.00000
  3562, 35.00000, 9.87500, 0.00000
  3563, 35.00000, 11.43750, 0.00000
  3564, 35.00000, 13.00000, 0.00000
  3565, 35.00000, 0.49240, 0.08682
  3566, 35.00000, 2.03117, 0.35815
  3567, 35.00000, 3.56993, 0.62947
  3568, 35.00000, 5.10869, 0.90080
  3569, 35.00000, 6.64745, 1.17213
  3570, 35.00000, 8.18621, 1.44345
  3571, 35.00000, 9.72498, 1.71478
  3572, 35.00000, 11.26374, 1.98610
  3573, 35.00000, 12.80250, 2.25743
  3574, 35.00000, 0.46985, 0.17101
  3575, 35.00000, 1.93812, 0.70542
  3576, 35.00000, 3.40639, 1.23982
  3577, 35.00000, 4.87466, 1.77423
  3578, 35.00000, 6.34293, 2.30864
  3579, 35.00000, 7.81119, 2.84304
  3580, 35.00000, 9.27946, 3.37745
  3581, 35.00000, 10.74773, 3.91186
  3582, 35.00000, 12.21600, 4.44626
  3583, 35.00000, 0.43301, 0.25000
  3584, 35.00000, 1.78618, 1.03125
  3585, 35.00000, 3.13934, 1.81250
  3586, 35.00000, 4.49251, 2.59375
  3587, 35.00000, 5.84567, 3.37500
  3588, 35.00000, 7.19884, 4.15625
  3589, 35.00000, 8.55200, 4.93750
  3590, 35.00000, 9.90517, 5.71875
  3591, 35.00000, 11.25833, 6.50000
  3592, 35.00000, 0.38302, 0.32139
  3593, 35.00000, 1.57997, 1.32575
  3594, 35.00000, 2.77691, 2.33011
  3595, 35.00000, 3.97386, 3.33446
  3596, 35.00000, 5.17080, 4.33882
  3597, 35.00000, 6.36774, 5.34317
  3598, 35.00000, 7.56469, 6.34753
  3599, 35.00000, 8.76163, 7.35188
  3600, 35.00000, 9.95858, 8.35624
  3601, 35.00000, 0.32139, 0.38302
  3602, 35.00000, 1.32575, 1.57997
  3603, 35.00000, 2.33011, 2.77691
  3604, 35.00000, 3.33446, 3.97386
  3605, 35.00000, 4.33882, 5.17080
  3606, 35.00000, 5.34317, 6.36774
  3607, 35.00000, 6.34753, 7.56469
  3608, 35.00000, 7.35188, 8.76163
  3609, 35.00000, 8.35624, 9.95858
  3610, 35.00000, 0.25000, 0.43301
  3611, 35.00000, 1.03125, 1.78618
  3612, 35.00000, 1.81250, 3.13934
  3613, 35.00000, 2.59375, 4.49251
  3614, 35.00000, 3.37500, 5.84567
  3615, 35.00000, 4.15625, 7.19884
  3616, 35.00000, 4.93750, 8.55200
  3617, 35.00000, 5.71875, 9.90517
  3618, 35.00000, 6.50000, 11.25833
  3619, 35.00000, 0.17101, 0.46985
  3620, 35.00000, 0.70542, 1.93812
  3621, 35.00000, 1.23982, 3.40639
  3622, 35.00000, 1.77423, 4.87466
  3623, 35.00000, 2.30864, 6.34293
  3624, 35.00000, 2.84304, 7.81119
  3625, 35.00000, 3.37745, 9.27946
  3626, 35.00000, 3.91186, 10.74773
  3627, 35.00000, 4.44626, 12.21600
  3628, 35.00000, 0.08682, 0.49240
  3629, 35.00000, 0.35815, 2.03117
  3630, 35.00000, 0.62947, 3.56993
  3631, 35.00000, 0.90080, 5.10869
  3632, 35.00000, 1.17213, 6.64745
  3633, 35.00000, 1.44345, 8.18621
  3634, 35.00000, 1.71478, 9.72498
  3635, 35.00000, 1.98610, 11.26374
  3636, 35.00000, 2.25743, 12.80250
  3637, 35.00000, 0.00000, 0.50000
  3638, 35.00000, 0.00000, 2.06250
  3639, 35.00000, 0.00000, 3.62500
  3640, 35.00000, 0.00000, 5.18750
  3641, 35.00000, 0.00000, 6.75000
  3642, 35.00000, 0.00000, 8.31250
  3643, 35.00000, 0.00000, 9.87500
  3644, 35.00000, 0.00000, 11.43750
  3645, 35.00000, 0.00000, 13.00000
  3646, 35.00000, -0.08682, 0.49240
  3647, 35.00000, -0.35815, 2.03117
  3648, 35.00000, -0.62947, 3.56993
  3649, 35.00000, -0.90080, 5.10869
  3650, 35.00000, -1.17213, 6.64745
  3651, 35.00000, -1.44345, 8.18621
  3652, 35.00000, -1.71478, 9.72498
  3653, 35.00000, -1.98610, 11.26374
  3654, 35.00000, -2.25743, 12.80250
  3655, 35.00000, -0.17101, 0.46985
  3656, 35.00000, -0.70542, 1.93812
  3657, 35.00000, -1.23982, 3.40639
  3658, 35.00000, -1.77423, 4.87466
  3659, 35.00000, -2.30864, 6.34293
  3660, 35.00000, -2.84304, 7.81119
  3661, 35.00000, -3.37745, 9.27946
  3662, 35.00000, -3.91186, 10.74773
  3663, 35.00000, -4.44626, 12.21600
  3664, 35.00000, -0.25000, 0.43301
  3665, 35.00000, -1.03125, 1.78618
  3666, 35.00000, -1.81250, 3.13934
  3667, 35.00000, -2.59375, 4.49251
  3668, 35.00000, -3.37500, 5.84567
  3669, 35.00000, -4.15625, 7.19884
  3670, 35.00000, -4.93750, 8.55200
  3671, 35.00000, -5.71875, 9.90517
  3672, 35.00000, -6.50000, 11.25833
  3673, 35.00000, -0.32139, 0.38302
  3674, 35.00000, -1.32575, 1.57997
  3675, 35.00000, -2.33011, 2.77691
  3676, 35.00000, -3.33446, 3.97386
  3677, 35.00000, -4.33882, 5.17080
  3678, 35.00000, -5.34317, 6.36774
  3679, 35.00000, -6.34753, 7.56469
  3680, 35.00000, -7.35188, 8.76163
  3681, 35.00000, -8.35624, 9.95858
  3682, 35.00000, -0.38302, 0.32139
  3683, 35.00000, -1.57997, 1.32575
  3684, 35.00000, -2.77691, 2.33011
  3685, 35.00000, -3.97386, 3.33446
  3686, 35.00000, -5.17080, 4.33882
  3687, 35.00000, -6.36774, 5.34317
  3688, 35.00000, -7.56469, 6.34753
  3689, 35.00000, -8.76163, 7.35188
  3690, 35.00000, -9.95858, 8.35624
  3691, 35.00000, -0.43301, 0.25000
  3692, 35.00000, -1.78618, 1.03125
  3693, 35.00000, -3.13934, 1.81250
  3694, 35.00000, -4.49251, 2.59375
  3695, 35.00000, -5.84567, 3.37500
  3696, 35.00000, -7.19884, 4.15625
  3697, 35.00000, -8.55200, 4.93750
  3698, 35.00000, -9.90517, 5.71875
  3699, 35.00000, -11.25833, 6.50000
  3700, 35.00000, -0.46985, 0.17101
  3701, 35.00000, -1.93812, 0.70542
  3702, 35.00000, -3.40639, 1.23982
  3703, 35.00000, -4.87466, 1.77423
  3704, 35.00000, -6.34293, 2.30864
  3705, 35.00000, -7.81119, 2.84304
  3706, 35.00000, -9.27946, 3.37745
  3707, 35.00000, -10.74773, 3.91186
  3708, 35.00000, -12.21600, 4.44626
  3709, 35.00000, -0.49240, 0.08682
  3710, 35.00000, -2.03117, 0.35815
  3711, 35.00000, -3.56993, 0.62947
  3712, 35.00000, -5.10869, 0.90080
  3713, 35.00000, -6.64745, 1.17213
  3714, 35.00000, -8.18621, 1.44345
  3715, 35.00000, -9.72498, 1.71478
  3716, 35.00000, -11.26374, 1.98610
  3717, 35.00000, -12.80250, 2.25743
  3718, 35.00000, -0.50000, 0.00000
  3719, 35.00000, -2.06250, 0.00000
  3720, 35.00000, -3.62500, 0.00000
  3721, 35.00000, -5.18750, 0.00000
  3722, 35.00000, -6.75000, 0.00000
  3723, 35.00000, -8.31250, 0.00000
  3724, 35.00000, -9.87500, 0.00000
  3725, 35.00000, -11.43750, 0.00000
  3726, 35.00000, -13.00000, 0.00000
  3727, 35.00000, -0.49240, -0.08682
  3728, 35.00000, -2.03117, -0.35815
  3729, 35.00000, -3.56993, -0.62947
  3730, 35.00000, -5.10869, -0.90080
  3731, 35.00000, -6.64745, -1.17213
  3732, 35.00000, -8.18621, -1.44345
  3733, 35.00000, -9.72498, -1.71478
  3734, 35.00000, -11.26374, -1.98610
  3735, 35.00000, -12.80250, -2.25743
  3736, 35.00000, -0.46985, -0.17101
  3737, 35.00000, -1.93812, -0.70542
  3738, 35.00000, -3.40639, -1.23982
  3739, 35.00000, -4.87466, -1.77423
  3740, 35.00000, -6.34293, -2.30864
  3741, 35.00000, -7.81119, -2.84304
  3742, 35.00000, -9.27946, -3.37745
  3743, 35.00000, -10.74773, -3.91186
  3744, 35.00000, -12.21600, -4.44626
  3745, 35.00000, -0.43301, -0.25000
  3746, 35.00000, -1.78618, -1.03125
  3747, 35.00000, -3.13934, -1.81250
  3748, 35.00000, -4.49251, -2.59375
  3749, 35.00000, -5.84567, -3.37500
  3750, 35.00000, -7.19884, -4.15625
  3751, 35.00000, -8.55200, -4.93750
  3752, 35.00000, -9.90517, -5.71875
  3753, 35.00000, -11.25833, -6.50000
  3754, 35.00000, -0.38302, -0.32139
  3755, 35.00000, -1.57997, -1.32575
  3756, 35.00000, -2.77691, -2.33011
  3757, 35.00000, -3.97386, -3.33446
  3758, 35.00000, -5.17080, -4.33882
  3759, 35.00000, -6.36774, -5.34317
  3760, 35.00000, -7.56469, -6.34753
  3761, 35.00000, -8.76163, -7.35188
  3762, 35.00000, -9.95858, -8.35624
  3763, 35.00000, -0.32139, -0.38302
  3764, 35.00000, -1.32575, -1.57997
  3765, 35.00000, -2.33011, -2.77691
  3766, 35.00000, -3.33446, -3.97386
  3767, 35.00000, -4.33882, -5.17080
  3768, 35.00000, -5.34317, -6.36774
  3769, 35.00000, -6.34753, -7.56469
  3770, 35.00000, -7.35188, -8.76163
  3771, 35.00000, -8.35624, -9.95858
  3772, 35.00000, -0.25000, -0.43301
  3773, 35.00000, -1.03125, -1.78618
  3774, 35.00000, -1.81250, -3.13934
  3775, 35.00000, -2.59375, -4.49251
  3776, 35.00000, -3.37500, -5.84567
  3777, 35.00000, -4.15625, -7.19884
  3778, 35.00000, -4.93750, -8.55200
  3779, 35.00000, -5.71875, -9.90517
  3780, 35.00000, -6.50000, -11.25833
  3781, 35.00000, -0.17101, -0.46985
  3782, 35.00000, -0.70542, -1.93812
  3783, 35.00000, -1.23982, -3.40639
  3784, 35.00000, -1.77423, -4.87466
  3785, 35.00000, -2.30864, -6.34293
  3786, 35.00000, -2.84304, -7.81119
  3787, 35.00000, -3.37745, -9.27946
  3788, 35.00000, -3.91186, -10.74773
  3789, 35.00000, -4.44626, -12.21600
  3790, 35.00000, -0.08682, -0.49240
  3791, 35.00000, -0.35815, -2.03117
  3792, 35.00000, -0.62947, -3.56993
  3793, 35.00000, -0.90080, -5.10869
  3794, 35.00000, -1.17213, -6.64745
  3795, 35.00000, -1.44345, -8.18621
  3796, 35.00000, -1.71478, -9.72498
  3797, 35.00000, -1.98610, -11.26374
  3798, 35.00000, -2.25743, -12.80250
  3799, 35.00000, -0.00000, -0.50000
  3800, 35.00000, -0.00000, -2.06250
  3801, 35.00000, -0.00000, -3.62500
  3802, 35.00000, -0.00000, -5.18750
  3803, 35.00000, -0.00000, -6.75000
  3804, 35.00000, -0.00000, -8.31250
  3805, 35.00000, -0.00000, -9.87500
  3806, 35.00000, -0.00000, -11.43750
  3807, 35.00000, -0.00000, -13.00000
  3808, 35.00000, 0.08682, -0.49240
  3809, 35.00000, 0.35815, -2.03117
  3810, 35.00000, 0.62947, -3.56993
  3811, 35.00000, 0.90080, -5.10869
  3812, 35.00000, 1.17213, -6.64745
  3813, 35.00000, 1.44345, -8.18621
  3814, 35.00000, 1.71478, -9.72498
  3815, 35.00000, 1.98610, -11.26374
  3816, 35.00000, 2.25743, -12.80250
  3817, 35.00000, 0.17101, -0.46985
  3818, 35.00000, 0.70542, -1.93812
  3819, 35.00000, 1.23982, -3.40639
  3820, 35.00000, 1.77423, -4.87466
  3821, 35.00000, 2.30864, -6.34293
  3822, 35.00000, 2.84304, -7.81119
  3823, 35.00000, 3.37745, -9.27946
  3824, 35.00000, 3.91186, -10.74773
  3825, 35.00000, 4.44626, -12.21600
  3826, 35.00000, 0.25000, -0.43301
  3827, 35.00000, 1.03125, -1.78618
  3828, 35.00000, 1.81250, -3.13934
  3829, 35.00000, 2.59375, -4.49251
  3830, 35.00000, 3.37500, -5.84567
  3831, 35.00000, 4.15625, -7.19884
  3832, 35.00000, 4.93750, -8.55200
  3833, 35.00000, 5.71875, -9.90517
  3834, 35.00000, 6.50000, -11.25833
  3835, 35.00000, 0.32139, -0.38302
  3836, 35.00000, 1.32575, -1.57997
  3837, 35.00000, 2.33011, -2.77691
  3838, 35.00000, 3.33446, -3.97386
  3839, 35.00000, 4.33882, -5.17080
  3840, 35.00000, 5.34317, -6.36774
  3841, 35.00000, 6.34753, -7.56469
  3842, 35.00000, 7.35188, -8.76163
  3843, 35.00000, 8.35624, -9.95858
  3844, 35.00000, 0.38302, -0.32139
  3845, 35.00000, 1.57997, -1.32575
  3846, 35.00000, 2.77691, -2.33011
  3847, 35.00000, 3.97386, -3.33446
  3848, 35.00000, 5.17080, -4.33882
  3849, 35.00000, 6.36774, -5.34317
  3850, 35.00000, 7.56469, -6.34753
  3851, 35.00000, 8.76163, -7.35188
  3852, 35.00000, 9.95858, -8.35624
  3853, 35.00000, 0.43301, -0.25000
  3854, 35.00000, 1.78618, -1.03125
  3855, 35.00000, 3.13934, -1.81250
  3856, 35.00000, 4.49251, -2.59375
  3857, 35.00000, 5.84567, -3.37500
  3858, 35.00000, 7.19884, -4.15625
  3859, 35.00000, 8.55200, -4.93750
  3860, 35.00000, 9.90517, -5.71875
  3861, 35.00000, 11.25833, -6.50000
  3862, 35.00000, 0.46985, -0.17101
  3863, 35.00000, 1.93812, -0.70542
  3864, 35.00000, 3.40639, -1.23982
  3865, 35.00000, 4.87466, -1.77423
  3866, 35.00000, 6.34293, -2.30864
  3867, 35.00000, 7.81119, -2.84304
  3868, 35.00000, 9.27946, -3.37745
  3869, 35.00000, 10.74773, -3.91186
  3870, 35.00000, 12.21600, -4.44626
  3871, 35.00000, 0.49240, -0.08682
  3872, 35.00000, 2.03117, -0.35815
  3873, 35.00000, 3.56993, -0.62947
  3874, 35.00000, 5.10869, -0.90080
  3875, 35.00000, 6.64745, -1.17213
  3876, 35.00000, 8.18621, -1.44345
  3877, 35.00000, 9.72498, -1.71478
  3878, 35.00000, 11.26374, -1.98610
  3879, 35.00000, 12.80250, -2.25743
  3880, 35.00000, 0.50000, -0.00000
  3881, 35.00000, 2.06250, -0.00000
  3882, 35.00000, 3.62500, -0.00000
  3883, 35.00000, 5.18750, -0.00000
  3884, 35.00000, 6.75000, -0.00000
  3885, 35.00000, 8.31250, -0.00000
  3886, 35.00000, 9.87500, -0.00000
  3887, 35.00000, 11.43750, -0.00000
  3888, 35.00000, 13.00000, -0.00000
  3889, 40.00000, 0.50000, 0.00000
  3890, 40.00000, 2.06250, 0.00000
  3891, 40.00000, 3.62500, 0.00000
  3892, 40.00000, 5.18750, 0.00000
  3893, 40.00000, 6.75000, 0.00000
  3894, 40.00000, 8.31250, 0.00000
  3895, 40.00000, 9.87500, 0.00000
  3896, 40.00000, 11.43750, 0.00000
  3897, 40.00000, 13.00000, 0.00000
  3898, 40.00000, 0.49240, 0.08682
  3899, 40.00000, 2.03117, 0.35815
  3900, 40.00000, 3.56993, 0.62947
  3901, 40.00000, 5.10869, 0.90080
  3902, 40.00000, 6.64745, 1.17213
  3903, 40.00000, 8.18621, 1.44345
  3904, 40.00000, 9.72498, 1.71478
  3905, 40.00000, 11.26374, 1.98610
  3906, 40.00000, 12.80250, 2.25743
  3907, 40.00000, 0.46985, 0.17101
  3908, 40.00000, 1.93812, 0.70542
  3909, 40.00000, 3.40639, 1.23982
  3910, 40.00000, 4.87466, 1.77423
  3911, 40.00000, 6.34293, 2.30864
  3912, 40.00000, 7.81119, 2.84304
  3913, 40.00000, 9.27946, 3.37745
  3914, 40.00000, 10.74773, 3.91186
  3915, 40.00000, 12.21600, 4.44626
  3916, 40.00000, 0.43301, 0.25000
  3917, 40.00000, 1.78618, 1.03125
  3918, 40.00000, 3.13934, 1.81250
  3919, 40.00000, 4.49251, 2.59375
  3920, 40.00000, 5.84567, 3.37500
  3921, 40.00000, 7.19884, 4.15625
  3922, 40.00000, 8.55200, 4.93750
  3923, 40.00000, 9.90517, 5.71875
  3924, 40.00000, 11.25833, 6.50000
  3925, 40.00000, 0.38302, 0.32139
  3926, 40.00000, 1.57997, 1.32575
  3927, 40.00000, 2.77691, 2.33011
  3928, 40.00000, 3.97386, 3.33446
  3929, 40.00000, 5.17080, 4.33882
  3930, 40.00000, 6.36774, 5.34317
  3931, 40.00000, 7.56469, 6.34753
  3932, 40.00000, 8.76163, 7.35188
  3933, 40.00000, 9.95858, 8.35624
  3934, 40.00000, 0.32139, 0.38302
  3935, 40.00000, 1.32575, 1.57997
  3936, 40.00000, 2.33011, 2.77691
  3937, 40.00000, 3.33446, 3.97386
  3938, 40.00000, 4.33882, 5.17080
  3939, 40.00000, 5.34317, 6.36774
  3940, 40.00000, 6.34753, 7.56469
  3941, 40.00000, 7.35188, 8.76163
  3942, 40.00000, 8.35624, 9.95858
  3943, 40.00000, 0.25000, 0.43301
  3944, 40.00000, 1.03125, 1.78618
  3945, 40.00000, 1.81250, 3.13934
  3946, 40.00000, 2.59375, 4.49251
  3947, 40.00000, 3.37500, 5.84567
  3948, 40.00000, 4.15625, 7.19884
  3949, 40.00000, 4.93750, 8.55200
  3950, 40.00000, 5.71875, 9.90517
  3951, 40.00000, 6.50000, 11.25833
  3952, 40.00000, 0.17101, 0.46985
  3953, 40.00000, 0.70542, 1.93812
  3954, 40.00000, 1.23982, 3.40639
  3955, 40.00000, 1.77423, 4.87466
  3956, 40.00000, 2.30864, 6.34293
  3957, 40.00000, 2.84304, 7.81119
  3958, 40.00000, 3.37745, 9.27946
  3959, 40.00000, 3.91186, 10.74773
  3960, 40.00000, 4.44626, 12.21600
  3961, 40.00000, 0.08682, 0.49240
  3962, 40.00000, 0.35815, 2.03117
  3963, 40.00000, 0.62947, 3.56993
  3964, 40.00000, 0.90080, 5.10869
  3965, 40.00000, 1.17213, 6.64745
  3966, 40.00000, 1.44345, 8.18621
  3967, 40.00000, 1.71478, 9.72498
  3968, 40.00000, 1.98610, 11.26374
  3969, 40.00000, 2.25743, 12.80250
  3970, 40.00000, 0.00000, 0.50000
  3971, 40.00000, 0.00000, 2.06250
  3972, 40.00000, 0.00000, 3.62500
  3973, 40.00000, 0.00000, 5.18750
  3974, 40.00000, 0.00000, 6.75000
  3975, 40.00000, 0.00000, 8.31250
  3976, 40.00000, 0.00000, 9.87500
  3977, 40.00000, 0.00000, 11.43750
  3978, 40.00000, 0.00000, 13.00000
  3979, 40.00000, -0.08682, 0.49240
  3980, 40.00000, -0.35815, 2.03117
  3981, 40.00000, -0.62947, 3.56993
  3982, 40.00000, -0.90080, 5.10869
  3983, 40.00000, -1.17213, 6.64745
  3984, 40.00000, -1.44345, 8.18621
  3985, 40.00000, -1.71478, 9.72498
  3986, 40.00000, -1.98610, 11.26374
  3987, 40.00000, -2.25743, 12.80250
  3988, 40.00000, -0.17101, 0.46985
  3989, 40.00000, -0.70542, 1.93812
  3990, 40.00000, -1.23982, 3.40639
  3991, 40.00000, -1.77423, 4.87466
  3992, 40.00000, -2.30864, 6.34293
  3993, 40.00000, -2.84304, 7.81119
  3994, 40.00000, -3.37745, 9.27946
  3995, 40.00000, -3.91186, 10.74773
  3996, 40.00000, -4.44626, 12.21600
  3997, 40.00000, -0.25000, 0.43301
  3998, 40.00000, -1.03125, 1.78618
  3999, 40.00000, -1.81250, 3.13934
  4000, 40.00000, -2.59375, 4.49251
  4001, 40.00000, -3.37500, 5.84567
  4002, 40.00000, -4.15625, 7.19884
  4003, 40.00000, -4.93750, 8.55200
  4004, 40.00000, -5.71875, 9.90517
  4005, 40.00000, -6.50000, 11.25833
  4006, 40.00000, -0.32139, 0.38302
  4007, 40.00000, -1.32575, 1.57997
  4008, 40.00000, -2.33011, 2.77691
  4009, 40.00000, -3.33446, 3.97386
  4010, 40.00000, -4.33882, 5.17080
  4011, 40.00000, -5.34317, 6.36774
  4012, 40.00000, -6.34753, 7.56469
  4013, 40.00000, -7.35188, 8.76163
  4014, 40.00000, -8.35624, 9.95858
  4015, 40.00000, -0.38302, 0.32139
  4016, 40.00000, -1.57997, 1.32575
  4017, 40.00000, -2.77691, 2.33011
  4018, 40.00000, -3.97386, 3.33446
  4019, 40.00000, -5.17080, 4.33882
  4020, 40.00000, -6.36774, 5.34317
  4021, 40.00000, -7.56469, 6.34753
  4022, 40.00000, -8.76163, 7.35188
  4023, 40.00000, -9.95858, 8.35624
  4024, 40.00000, -0.43301, 0.25000
  4025, 40.00000, -1.78618, 1.03125
  4026, 40.00000, -3.13934, 1.81250
  4027, 40.00000, -4.49251, 2.59375
  4028, 40.00000, -5.84567, 3.37500
  4029, 40.00000, -7.19884, 4.15625
  4030, 40.00000, -8.55200, 4.93750
  4031, 40.00000, -9.90517, 5.71875
  4032, 40.00000, -11.25833, 6.50000
  4033, 40.00000, -0.46985, 0.17101
  4034, 40.00000, -1.93812, 0.70542
  4035, 40.00000, -3.40639, 1.23982
  4036, 40.00000, -4.87466, 1.77423
  4037, 40.00000, -6.34293, 2.30864
  4038, 40.00000, -7.81119, 2.84304
  4039, 40.00000, -9.27946, 3.37745
  4040, 40.00000, -10.74773, 3.91186
  4041, 40.00000, -12.21600, 4.44626
  4042, 40.00000, -0.49240, 0.08682
  4043, 40.00000, -2.03117, 0.35815
  4044, 40.00000, -3.56993, 0.62947
  4045, 40.00000, -5.10869, 0.90080
  4046, 40.00000, -6.64745, 1.17213
  4047, 40.00000, -8.18621, 1.44345
  4048, 40.00000, -9.72498, 1.71478
  4049, 40.00000, -11.26374, 1.98610
  4050, 40.00000, -12.80250, 2.25743
  4051, 40.00000, -0.50000, 0.00000
  4052, 40.00000, -2.06250, 0.00000
  4053, 40.00000, -3.62500, 0.00000
  4054, 40.00000, -5.18750, 0.00000
  4055, 40.00000, -6.75000, 0.00000
  4056, 40.00000, -8.31250, 0.00000
  4057, 40.00000, -9.87500, 0.00000
  4058, 40.00000, -11.43750, 0.00000
  4059, 40.00000, -13.00000, 0.00000
  4060, 40.00000, -0.49240, -0.08682
  4061, 40.00000, -2.03117, -0.35815
  4062, 40.00000, -3.56993, -0.62947
  4063, 40.00000, -5.10869, -0.90080
  4064, 40.00000, -6.64745, -1.17213
  4065, 40.00000, -8.18621, -1.44345
  4066, 40.00000, -9.72498, -1.71478
  4067, 40.00000, -11.26374, -1.98610
  4068, 40.00000, -12.80250, -2.25743
  4069, 40.00000, -0.46985, -0.17101
  4070, 40.00000, -1.93812, -0.70542
  4071, 40.00000, -3.40639, -1.23982
  4072, 40.00000, -4.87466, -1.77423
  4073, 40.00000, -6.34293, -2.30864
  4074, 40.00000, -7.81119, -2.84304
  4075, 40.00000, -9.27946, -3.37745
  4076, 40.00000, -10.74773, -3.91186
  4077, 40.00000, -12.21600, -4.44626
  4078, 40.00000, -0.43301, -0.25000
  4079, 40.00000, -1.78618, -1.03125
  4080, 40.00000, -3.13934, -1.81250
  4081, 40.00000, -4.49251, -2.59375
  4082, 40.00000, -5.84567, -3.37500
  4083, 40.00000, -7.19884, -4.15625
  4084, 40.00000, -8.55200, -4.93750
  4085, 40.00000, -9.90517, -5.71875
  4086, 40.00000, -11.25833, -6.50000
  4087, 40.00000, -0.38302, -0.32139
  4088, 40.00000, -1.57997, -1.32575
  4089, 40.00000, -2.77691, -2.33011
  4090, 40.00000, -3.97386, -3.33446
  4091, 40.00000, -5.17080, -4.33882
  4092, 40.00000, -6.36774, -5.34317
  4093, 40.00000, -7.56469, -6.34753
  4094, 40.00000, -8.76163, -7.35188
  4095, 40.00000, -9.95858, -8.35624
  4096, 40.00000, -0.32139, -0.38302
  4097, 40.00000, -1.32575, -1.57997
  4098, 40.00000, -2.33011, -2.77691
  4099, 40.00000, -3.33446, -3.97386
  4100, 40.00000, -4.33882, -5.17080
  4101, 40.00000, -5.34317, -6.36774
  4102, 40.00000, -6.34753, -7.56469
  4103, 40.00000, -7.35188, -8.76163
  4104, 40.00000, -8.35624, -9.95858
  4105, 40.00000, -0.25000, -0.43301
  4106, 40.00000, -1.03125, -1.78618
  4107, 40.00000, -1.81250, -3.13934
  4108, 40.00000, -2.59375, -4.49251
  4109, 40.00000, -3.37500, -5.84567
  4110, 40.00000, -4.15625, -7.19884
  4111, 40.00000, -4.93750, -8.55200
  4112, 40.00000, -5.71875, -9.90517
  4113, 40.00000, -6.50000, -11.25833
  4114, 40.00000, -0.17101, -0.46985
  4115, 40.00000, -0.70542, -1.93812
  4116, 40.00000, -1.23982, -3.40639
  4117, 40.00000, -1.77423, -4.87466
  4118, 40.00000, -2.30864, -6.34293
  4119, 40.00000, -2.84304, -7.81119
  4120, 40.00000, -3.37745, -9.27946
  4121, 40.00000, -3.91186, -10.74773
  4122, 40.00000, -4.44626, -12.21600
  4123, 40.00000, -0.08682, -0.49240
  4124, 40.00000, -0.35815, -2.03117
  4125, 40.00000, -0.62947, -3.56993
  4126, 40.00000, -0.90080, -5.10869
  4127, 40.00000, -1.17213, -6.64745
  4128, 40.00000, -1.44345, -8.18621
  4129, 40.00000, -1.71478, -9.72498
  4130, 40.00000, -1.98610, -11.26374
  4131, 40.00000, -2.25743, -12.80250
  4132, 40.00000, -0.00000, -0.50000
  4133, 40.00000, -0.00000, -2.06250
  4134, 40.00000, -0.00000, -3.62500
  4135, 40.00000, -0.00000, -5.18750
  4136, 40.00000, -0.00000, -6.75000
  4137, 40.00000, -0.00000, -8.31250
  4138, 40.00000, -0.00000, -9.87500
  4139, 40.00000, -0.00000, -11.43750
  4140, 40.00000, -0.00000, -13.00000
  4141, 40.00000, 0.08682, -0.49240
  4142, 40.00000, 0.35815, -2.03117
  4143, 40.00000, 0.62947, -3.56993
  4144, 40.00000, 0.90080, -5.10869
  4145, 40.00000, 1.17213, -6.64745
  4146, 40.00000, 1.44345, -8.18621
  4147, 40.00000, 1.71478, -9.72498
  4148, 40.00000, 1.98610, -11.26374
  4149, 40.00000, 2.25743, -12.80250
  4150, 40.00000, 0.17101, -0.46985
  4151, 40.00000, 0.70542, -1.93812
  4152, 40.00000, 1.23982, -3.40639
  4153, 40.00000, 1.77423, -4.87466
  4154, 40.00000, 2.30864, -6.34293
  4155, 40.00000, 2.84304, -7.81119
  4156, 40.00000, 3.37745, -9.27946
  4157, 40.00000, 3.91186, -10.74773
  4158, 40.00000, 4.44626, -12.21600
  4159, 40.00000, 0.25000, -0.43301
  4160, 40.00000, 1.03125, -1.78618
  4161, 40.00000, 1.81250, -3.13934
  4162, 40.00000, 2.59375, -4.49251
  4163, 40.00000, 3.37500, -5.84567
  4164, 40.00000, 4.15625, -7.19884
  4165, 40.00000, 4.93750, -8.55200
  4166, 40.00000, 5.71875, -9.90517
  4167, 40.00000, 6.50000, -11.25833
  4168, 40.00000, 0.32139, -0.38302
  4169, 40.00000, 1.32575, -1.57997
  4170, 40.00000, 2.33011, -2.77691
  4171, 40.00000, 3.33446, -3.97386
  4172, 40.00000, 4.33882, -5.17080
  4173, 40.00000, 5.34317, -6.36774
  4174, 40.00000, 6.34753, -7.56469
  4175, 40.00000, 7.35188, -8.76163
  4176, 40.00000, 8.35624, -9.95858
  4177, 40.00000, 0.38302, -0.32139
  4178, 40.00000, 1.57997, -1.32575
  4179, 40.00000, 2.77691, -2.33011
  4180, 40.00000, 3.97386, -3.33446
  4181, 40.00000, 5.17080, -4.33882
  4182, 40.00000, 6.36774, -5.34317
  4183, 40.00000, 7.56469, -6.34753
  4184, 40.00000, 8.76163, -7.35188
  4185, 40.00000, 9.95858, -8.35624
  4186, 40.00000, 0.43301, -0.25000
  4187, 40.00000, 1.78618, -1.03125
  4188, 40.00000, 3.13934, -1.81250
  4189, 40.00000, 4.49251, -2.59375
  4190, 40.00000, 5.84567, -3.37500
  4191, 40.00000, 7.19884, -4.15625
  4192, 40.00000, 8.55200, -4.93750
  4193, 40.00000, 9.90517, -5.71875
  4194, 40.00000, 11.25833, -6.50000
  4195, 40.00000, 0.46985, -0.17101
  4196, 40.00000, 1.93812, -0.70542
  4197, 40.00000, 3.40639, -1.23982
  4198, 40.00000, 4.87466, -1.77423
  4199, 40.00000, 6.34293, -2.30864
  4200, 40.00000, 7.81119, -2.84304
  4201, 40.00000, 9.27946, -3.37745
  4202, 40.00000, 10.74773, -3.91186
  4203, 40.00000, 12.21600, -4.44626
  4204, 40.00000, 0.49240, -0.08682
  4205, 40.00000, 2.03117, -0.35815
  4206, 40.00000, 3.56993, -0.62947
  4207, 40.00000, 5.10869, -0.90080
  4208, 40.00000, 6.64745, -1.17213
  4209, 40.00000, 8.18621, -1.44345
  4210, 40.00000, 9.72498, -1.71478
  4211, 40.00000, 11.26374, -1.98610
  4212, 40.00000, 12.80250, -2.25743
  4213, 40.00000, 0.50000, -0.00000
  4214, 40.00000, 2.06250, -0.00000
  4215, 40.00000, 3.62500, -0.00000
  4216, 40.00000, 5.18750, -0.00000
  4217, 40.00000, 6.75000, -0.00000
  4218, 40.00000, 8.31250, -0.00000
  4219, 40.00000, 9.87500, -0.00000
  4220, 40.00000, 11.43750, -0.00000
  4221, 40.00000, 13.00000, -0.00000
  4222, 45.00000, 0.50000, 0.00000
  4223, 45.00000, 2.06250, 0.00000
  4224, 45.00000, 3.62500, 0.00000
  4225, 45.00000, 5.18750, 0.00000
  4226, 45.00000, 6.75000, 0.00000
  4227, 45.00000, 8.31250, 0.00000
  4228, 45.00000, 9.87500, 0.00000
  4229, 45.00000, 11.43750, 0.00000
  4230, 45.00000, 13.00000, 0.00000
  4231, 45.00000, 0.49240, 0.08682
  4232, 45.00000, 2.03117, 0.35815
  4233, 45.00000, 3.56993, 0.62947
  4234, 45.00000, 5.10869, 0.90080
  4235, 45.00000, 6.64745, 1.17213
  4236, 45.00000, 8.18621, 1.44345
  4237, 45.00000, 9.72498, 1.71478
  4238, 45.00000, 11.26374, 1.98610
  4239, 45.00000, 12.80250, 2.25743
  4240, 45.00000, 0.46985, 0.17101
  4241, 45.00000, 1.93812, 0.70542
  4242, 45.00000, 3.40639, 1.23982
  4243, 45.00000, 4.87466, 1.77423
  4244, 45.00000, 6.34293, 2.30864
  4245, 45.00000, 7.81119, 2.84304
  4246, 45.00000, 9.27946, 3.37745
  4247, 45.00000, 10.74773, 3.91186
  4248, 45.00000, 12.21600, 4.44626
  4249, 45.00000, 0.43301, 0.25000
  4250, 45.00000, 1.78618, 1.03125
  4251, 45.00000, 3.13934, 1.81250
  4252, 45.00000, 4.49251, 2.59375
  4253, 45.00000, 5.84567, 3.37500
  4254, 45.00000, 7.19884, 4.15625
  4255, 45.00000, 8.55200, 4.93750
  4256, 45.00000, 9.90517, 5.71875
  4257, 45.00000, 11.25833, 6.50000
  4258, 45.00000, 0.38302, 0.32139
  4259, 45.00000, 1.57997, 1.32575
  4260, 45.00000, 2.77691, 2.33011
  4261, 45.00000, 3.97386, 3.33446
  4262, 45.00000, 5.17080, 4.33882
  4263, 45.00000, 6.36774, 5.34317
  4264, 45.00000, 7.56469, 6.34753
  4265, 45.00000, 8.76163, 7.35188
  4266, 45.00000, 9.95858, 8.35624
  4267, 45.00000, 0.32139, 0.38302
  4268, 45.00000, 1.32575, 1.57997
  4269, 45.00000, 2.33011, 2.77691
  4270, 45.00000, 3.33446, 3.97386
  4271, 45.00000, 4.33882, 5.17080
  4272, 45.00000, 5.34317, 6.36774
  4273, 45.00000, 6.34753, 7.56469
  4274, 45.00000, 7.35188, 8.76163
  4275, 45.00000, 8.35624, 9.95858
  4276, 45.00000, 0.25000, 0.43301
  4277, 45.00000, 1.03125, 1.78618
  4278, 45.00000, 1.81250, 3.13934
  4279, 45.00000, 2.59375, 4.49251
  4280, 45.00000, 3.37500, 5.84567
  4281, 45.00000, 4.15625, 7.19884
  4282, 45.00000, 4.93750, 8.55200
  4283, 45.00000, 5.71875, 9.90517
  4284, 45.00000, 6.50000, 11.25833
  4285, 45.00000, 0.17101, 0.46985
  4286, 45.00000, 0.70542, 1.93812
  4287, 45.00000, 1.23982, 3.40639
  4288, 45.00000, 1.77423, 4.87466
  4289, 45.00000, 2.30864, 6.34293
  4290, 45.00000, 2.84304, 7.81119
  4291, 45.00000, 3.37745, 9.27946
  4292, 45.00000, 3.91186, 10.74773
  4293, 45.00000, 4.44626, 12.21600
  4294, 45.00000, 0.08682, 0.49240
  4295, 45.00000, 0.35815, 2.03117
  4296, 45.00000, 0.62947, 3.56993
  4297, 45.00000, 0.90080, 5.10869
  4298, 45.00000, 1.17213, 6.64745
  4299, 45.00000, 1.44345, 8.18621
  4300, 45.00000, 1.71478, 9.72498
  4301, 45.00000, 1.98610, 11.26374
  4302, 45.00000, 2.25743, 12.80250
  4303, 45.00000, 0.00000, 0.50000
  4304, 45.00000, 0.00000, 2.06250
  4305, 45.00000, 0.00000, 3.62500
  4306, 45.00000, 0.00000, 5.18750
  4307, 45.00000, 0.00000, 6.75000
  4308, 45.00000, 0.00000, 8.31250
  4309, 45.00000, 0.00000, 9.87500
  4310, 45.00000, 0.00000, 11.43750
  4311, 45.00000, 0.00000, 13.00000
  4312, 45.00000, -0.08682, 0.49240
  4313, 45.00000, -0.35815, 2.03117
  4314, 45.00000, -0.62947, 3.56993
  4315, 45.00000, -0.90080, 5.10869
  4316, 45.00000, -1.17213, 6.64745
  4317, 45.00000, -1.44345, 8.18621
  4318, 45.00000, -1.71478, 9.72498
  4319, 45.00000, -1.98610, 11.26374
  4320, 45.00000, -2.25743, 12.80250
  4321, 45.00000, -0.17101, 0.46985
  4322, 45.00000, -0.70542, 1.93812
  4323, 45.00000, -1.23982, 3.40639
  4324, 45.00000, -1.77423, 4.87466
  4325, 45.00000, -2.30864, 6.34293
  4326, 45.00000, -2.84304, 7.81119
  4327, 45.00000, -3.37745, 9.27946
  4328, 45.00000, -3.91186, 10.74773
  4329, 45.00000, -4.44626, 12.21600
  4330, 45.00000, -0.25000, 0.43301
  4331, 45.00000, -1.03125, 1.78618
  4332, 45.00000, -1.81250, 3.13934
  4333, 45.00000, -2.59375, 4.49251
  4334, 45.00000, -3.37500, 5.84567
  4335, 45.00000, -4.15625, 7.19884
  4336, 45.00000, -4.93750, 8.55200
  4337, 45.00000, -5.71875, 9.90517
  4338, 45.00000, -6.50000, 11.25833
  4339, 45.00000, -0.32139, 0.38302
  4340, 45.00000, -1.32575, 1.57997
  4341, 45.00000, -2.33011, 2.77691
  4342, 45.00000, -3.33446, 3.97386
  4343, 45.00000, -4.33882, 5.17080
  4344, 45.00000, -5.34317, 6.36774
  4345, 45.00000, -6.34753, 7.56469
  4346, 45.00000, -7.35188, 8.76163
  4347, 45.00000, -8.35624, 9.95858
  4348, 45.00000, -0.38302, 0.32139
  4349, 45.00000, -1.57997, 1.32575
  4350, 45.00000, -2.77691, 2.33011
  4351, 45.00000, -3.97386, 3.33446
  4352, 45.00000, -5.17080, 4.33882
  4353, 45.00000, -6.36774, 5.34317
  4354, 45.00000, -7.56469, 6.34753
  4355, 45.00000, -8.76163, 7.35188
  4356, 45.00000, -9.95858, 8.35624
  4357, 45.00000, -0.43301, 0.25000
  4358, 45.00000, -1.78618, 1.03125
  4359, 45.00000, -3.13934, 1.81250
  4360, 45.00000, -4.49251, 2.59375
  4361, 45.00000, -5.84567, 3.37500
  4362, 45.00000, -7.19884, 4.15625
  4363, 45.00000, -8.55200, 4.93750
  4364, 45.00000, -9.90517, 5.71875
  4365, 45.00000, -11.25833, 6.50000
  4366, 45.00000, -0.46985, 0.17101
  4367, 45.00000, -1.93812, 0.70542
  4368, 45.00000, -3.40639, 1.23982
  4369, 45.00000, -4.87466, 1.77423
  4370, 45.00000, -6.34293, 2.30864
  4371, 45.00000, -7.81119, 2.84304
  4372, 45.00000, -9.27946, 3.37745
  4373, 45.00000, -10.74773, 3.91186
  4374, 45.00000, -12.21600, 4.44626
  4375, 45.00000, -0.49240, 0.08682
  4376, 45.00000, -2.03117, 0.35815
  4377, 45.00000, -3.56993, 0.62947
  4378, 45.00000, -5.10869, 0.90080
  4379, 45.00000, -6.64745, 1.17213
  4380, 45.00000, -8.18621, 1.44345
  4381, 45.00000, -9.72498, 1.71478
  4382, 45.00000, -11.26374, 1.98610
  4383, 45.00000, -12.80250, 2.25743
  4384, 45.00000, -0.50000, 0.00000
  4385, 45.00000, -2.06250, 0.00000
  4386, 45.00000, -3.62500, 0.00000
  4387, 45.00000, -5.18750, 0.00000
  4388, 45.00000, -6.75000, 0.00000
  4389, 45.00000, -8.31250, 0.00000
  4390, 45.00000, -9.87500, 0.00000
  4391, 45.00000, -11.43750, 0.00000
  4392, 45.00000, -13.00000, 0.00000
  4393, 45.00000, -0.49240, -0.08682
  4394, 45.00000, -2.03117, -0.35815
  4395, 45.00000, -3.56993, -0.62947
  4396, 45.00000, -5.10869, -0.90080
  4397, 45.00000, -6.64745, -1.17213
  4398, 45.00000, -8.18621, -1.44345
  4399, 45.00000, -9.72498, -1.71478
  4400, 45.00000, -11.26374, -1.98610
  4401, 45.00000, -12.80250, -2.25743
  4402, 45.00000, -0.46985, -0.17101
  4403, 45.00000, -1.93812, -0.70542
  4404, 45.00000, -3.40639, -1.23982
  4405, 45.00000, -4.87466, -1.77423
  4406, 45.00000, -6.34293, -2.30864
  4407, 45.00000, -7.81119, -2.84304
  4408, 45.00000, -9.27946, -3.37745
  4409, 45.00000, -10.74773, -3.91186
  4410, 45.00000, -12.21600, -4.44626
  4411, 45.00000, -0.43301, -0.25000
  4412, 45.00000, -1.78618, -1.03125
  4413, 45.00000, -3.13934, -1.81250
  4414, 45.00000, -4.49251, -2.59375
  4415, 45.00000, -5.84567, -3.37500
  4416, 45.00000, -7.19884, -4.15625
  4417, 45.00000, -8.55200, -4.93750
  4418, 45.00000, -9.90517, -5.71875
  4419, 45.00000, -11.25833, -6.50000
  4420, 45.00000, -0.38302, -0.32139
  4421, 45.00000, -1.57997, -1.32575
  4422, 45.00000, -2.77691, -2.33011
  4423, 45.00000, -3.97386, -3.33446
  4424, 45.00000, -5.17080, -4.33882
  4425, 45.00000, -6.36774, -5.34317
  4426, 45.00000, -7.56469, -6.34753
  4427, 45.00000, -8.76163, -7.35188
  4428, 45.00000, -9.95858, -8.35624
  4429, 45.00000, -0.32139, -0.38302
  4430, 45.00000, -1.32575, -1.57997
  4431, 45.00000, -2.33011, -2.77691
  4432, 45.00000, -3.33446, -3.97386
  4433, 45.00000, -4.33882, -5.17080
  4434, 45.00000, -5.34317, -6.36774
  4435, 45.00000, -6.34753, -7.56469
  4436, 45.00000, -7.35188, -8.76163
  4437, 45.00000, -8.35624, -9.95858
  4438, 45.00000, -0.25000, -0.43301
  4439, 45.00000, -1.03125, -1.78618
  4440, 45.00000, -1.81250, -3.13934
  4441, 45.00000, -2.59375, -4.49251
  4442, 45.00000, -3.37500, -5.84567
  4443, 45.00000, -4.15625, -7.19884
  4444, 45.00000, -4.93750, -8.55200
  4445, 45.00000, -5.71875, -9.90517
  4446, 45.00000, -6.50000, -11.25833
  4447, 45.00000, -0.17101, -0.46985
  4448, 45.00000, -0.70542, -1.93812
  4449, 45.00000, -1.23982, -3.40639
  4450, 45.00000, -1.77423, -4.87466
  4451, 45.00000, -2.30864, -6.34293
  4452, 45.00000, -2.84304, -7.81119
  4453, 45.00000, -3.37745, -9.27946
  4454, 45.00000, -3.91186, -10.74773
  4455, 45.00000, -4.44626, -12.21600
  4456, 45.00000, -0.08682, -0.49240
  4457, 45.00000, -0.35815, -2.03117
  4458, 45.00000, -0.62947, -3.56993
  4459, 45.00000, -0.90080, -5.10869
  4460, 45.00000, -1.17213, -6.64745
  4461, 45.00000, -1.44345, -8.18621
  4462, 45.00000, -1.71478, -9.72498
  4463, 45.00000, -1.98610, -11.26374
  4464, 45.00000, -2.25743, -12.80250
  4465, 45.00000, -0.00000, -0.50000
  4466, 45.00000, -0.00000, -2.06250
  4467, 45.00000, -0.00000, -3.62500
  4468, 45.00000, -0.00000, -5.18750
  4469, 45.00000, -0.00000, -6.75000
  4470, 45.00000, -0.00000, -8.31250
  4471, 45.00000, -0.00000, -9.87500
  4472, 45.00000, -0.00000, -11.43750
  4473, 45.00000, -0.00000, -13.00000
  4474, 45.00000, 0.08682, -0.49240
  4475, 45.00000, 0.35815, -2.03117
  4476, 45.00000, 0.62947, -3.56993
  4477, 45.00000, 0.90080, -5.10869
  4478, 45.00000, 1.17213, -6.64745
  4479, 45.00000, 1.44345, -8.18621
  4480, 45.00000, 1.71478, -9.72498
  4481, 45.00000, 1.98610, -11.26374
  4482, 45.00000, 2.25743, -12.80250
  4483, 45.00000, 0.17101, -0.46985
  4484, 45.00000, 0.70542, -1.93812
  4485, 45.00000, 1.23982, -3.40639
  4486, 45.00000, 1.77423, -4.87466
  4487, 45.00000, 2.30864, -6.34293
  4488, 45.00000, 2.84304, -7.81119
  4489, 45.00000, 3.37745, -9.27946
  4490, 45.00000, 3.91186, -10.74773
  4491, 45.00000, 4.44626, -12.21600
  4492, 45.00000, 0.25000, -0.43301
  4493, 45.00000, 1.03125, -1.78618
  4494, 45.00000, 1.81250, -3.13934
  4495, 45.00000, 2.59375, -4.49251
  4496, 45.00000, 3.37500, -5.84567
  4497, 45.00000, 4.15625, -7.19884
  4498, 45.00000, 4.93750, -8.55200
  4499, 45.00000, 5.71875, -9.90517
  4500, 45.00000, 6.50000, -11.25833
  4501, 45.00000, 0.32139, -0.38302
  4502, 45.00000, 1.32575, -1.57997
  4503, 45.00000, 2.33011, -2.77691
  4504, 45.00000, 3.33446, -3.97386
  4505, 45.00000, 4.33882, -5.17080
  4506, 45.00000, 5.34317, -6.36774
  4507, 45.00000, 6.34753, -7.56469
  4508, 45.00000, 7.35188, -8.76163
  4509, 45.00000, 8.35624, -9.95858
  4510, 45.00000, 0.38302, -0.32139
  4511, 45.00000, 1.57997, -1.32575
  4512, 45.00000, 2.77691, -2.33011
  4513, 45.00000, 3.97386, -3.33446
  4514, 45.00000, 5.17080, -4.33882
  4515, 45.00000, 6.36774, -5.34317
  4516, 45.00000, 7.56469, -6.34753
  4517, 45.00000, 8.76163, -7.35188
  4518, 45.00000, 9.95858, -8.35624
  4519, 45.00000, 0.43301, -0.25000
  4520, 45.00000, 1.78618, -1.03125
  4521, 45.00000, 3.13934, -1.81250
  4522, 45.00000, 4.49251, -2.59375
  4523, 45.00000, 5.84567, -3.37500
  4524, 45.00000, 7.19884, -4.15625
  4525, 45.00000, 8.55200, -4.93750
  4526, 45.00000, 9.90517, -5.71875
  4527, 45.00000, 11.25833, -6.50000
  4528, 45.00000, 0.46985, -0.17101
  4529, 45.00000, 1.93812, -0.70542
  4530, 45.00000, 3.40639, -1.23982
  4531, 45.00000, 4.87466, -1.77423
  4532, 45.00000, 6.34293, -2.30864
  4533, 45.00000, 7.81119, -2.84304
  4534, 45.00000, 9.27946, -3.37745
  4535, 45.00000, 10.74773, -3.91186
  4536, 45.00000, 12.21600, -4.44626
  4537, 45.00000, 0.49240, -0.08682
  4538, 45.00000, 2.03117, -0.35815
  4539, 45.00000, 3.56993, -0.62947
  4540, 45.00000, 5.10869, -0.90080
  4541, 45.00000, 6.64745, -1.17213
  4542, 45.00000, 8.18621, -1.44345
  4543, 45.00000, 9.72498, -1.71478
  4544, 45.00000, 11.26374, -1.98610
  4545, 45.00000, 12.80250, -2.25743
  4546, 45.00000, 0.50000, -0.00000
  4547, 45.00000, 2.06250, -0.00000
  4548, 45.00000, 3.62500, -0.00000
  4549, 45.00000, 5.18750, -0.00000
  4550, 45.00000, 6.75000, -0.00000
  4551, 45.00000, 8.31250, -0.00000
  4552, 45.00000, 9.87500, -0.00000
  4553, 45.00000, 11.43750, -0.00000
  4554, 45.00000, 13.00000, -0.00000
  4555, 50.00000, 0.50000, 0.00000
  4556, 50.00000, 2.06250, 0.00000
  4557, 50.00000, 3.62500, 0.00000
  4558, 50.00000, 5.18750, 0.00000
  4559, 50.00000, 6.75000, 0.00000
  4560, 50.00000, 8.31250, 0.00000
  4561, 50.00000, 9.87500, 0.00000
  4562, 50.00000, 11.43750, 0.00000
  4563, 50.00000, 13.00000, 0.00000
  4564, 50.00000, 0.49240, 0.08682
  4565, 50.00000, 2.03117, 0.35815
  4566, 50.00000, 3.56993, 0.62947
  4567, 50.00000, 5.10869, 0.90080
  4568, 50.00000, 6.64745, 1.17213
  4569, 50.00000, 8.18621, 1.44345
  4570, 50.00000, 9.72498, 1.71478
  4571, 50.00000, 11.26374, 1.98610
  4572, 50.00000, 12.80250, 2.25743
  4573, 50.00000, 0.46985, 0.17101
  4574, 50.00000, 1.93812, 0.70542
  4575, 50.00000, 3.40639, 1.23982
  4576, 50.00000, 4.87466, 1.77423
  4577, 50.00000, 6.34293, 2.30864
  4578, 50.00000, 7.81119, 2.84304
  4579, 50.00000, 9.27946, 3.37745
  4580, 50.00000, 10.74773, 3.91186
  4581, 50.00000, 12.21600, 4.44626
  4582, 50.00000, 0.43301, 0.25000
  4583, 50.00000, 1.78618, 1.03125
  4584, 50.00000, 3.13934, 1.81250
  4585, 50.00000, 4.49251, 2.59375
  4586, 50.00000, 5.84567, 3.37500
  4587, 50.00000, 7.19884, 4.15625
  4588, 50.00000, 8.55200, 4.93750
  4589, 50.00000, 9.90517, 5.71875
  4590, 50.00000, 11.25833, 6.50000
  4591, 50.00000, 0.38302, 0.32139
  4592, 50.00000, 1.57997, 1.32575
  4593, 50.00000, 2.77691, 2.33011
  4594, 50.00000, 3.97386, 3.33446
  4595, 50.00000, 5.17080, 4.33882
  4596, 50.00000, 6.36774, 5.34317
  4597, 50.00000, 7.56469, 6.34753
  4598, 50.00000, 8.76163, 7.35188
  4599, 50.00000, 9.95858, 8.35624
  4600, 50.00000, 0.32139, 0.38302
  4601, 50.00000, 1.32575, 1.57997
  4602, 50.00000, 2.33011, 2.77691
  4603, 50.00000, 3.33446, 3.97386
  4604, 50.00000, 4.33882, 5.17080
  4605, 50.00000, 5.34317, 6.36774
  4606, 50.00000, 6.34753, 7.56469
  4607, 50.00000, 7.35188, 8.76163
  4608, 50.00000, 8.35624, 9.95858
  4609, 50.00000, 0.25000, 0.43301
  4610, 50.00000, 1.03125, 1.78618
  4611, 50.00000, 1.81250, 3.13934
  4612, 50.00000, 2.59375, 4.49251
  4613, 50.00000, 3.37500, 5.84567
  4614, 50.00000, 4.15625, 7.19884
  4615, 50.00000, 4.93750, 8.55200
  4616, 50.00000, 5.71875, 9.90517
  4617, 50.00000, 6.50000, 11.25833
  4618, 50.00000, 0.17101, 0.46985
  4619, 50.00000, 0.70542, 1.93812
  4620, 50.00000, 1.23982, 3.40639
  4621, 50.00000, 1.77423, 4.87466
  4622, 50.00000, 2.30864, 6.34293
  4623, 50.00000, 2.84304, 7.81119
  4624, 50.00000, 3.37745, 9.27946
  4625, 50.00000, 3.91186, 10.74773
  4626, 50.00000, 4.44626, 12.21600
  4627, 50.00000, 0.08682, 0.49240
  4628, 50.00000, 0.35815, 2.03117
  4629, 50.00000, 0.62947, 3.56993
  4630, 50.00000, 0.90080, 5.10869
  4631, 50.00000, 1.17213, 6.64745
  4632, 50.00000, 1.44345, 8.18621
  4633, 50.00000, 1.71478, 9.72498
  4634, 50.00000, 1.98610, 11.26374
  4635, 50.00000, 2.25743, 12.80250
  4636, 50.00000, 0.00000, 0.50000
  4637, 50.00000, 0.00000, 2.06250
  4638, 50.00000, 0.00000, 3.62500
  4639, 50.00000, 0.00000, 5.18750
  4640, 50.00000, 0.00000, 6.75000
  4641, 50.00000, 0.00000, 8.31250
  4642, 50.00000, 0.00000, 9.87500
  4643, 50.00000, 0.00000, 11.43750
  4644, 50.00000, 0.00000, 13.00000
  4645, 50.00000, -0.08682, 0.49240
  4646, 50.00000, -0.35815, 2.03117
  4647, 50.00000, -0.62947, 3.56993
  4648, 50.00000, -0.90080, 5.10869
  4649, 50.00000, -1.17213, 6.64745
  4650, 50.00000, -1.44345, 8.18621
  4651, 50.00000, -1.71478, 9.72498
  4652, 50.00000, -1.98610, 11.26374
  4653, 50.00000, -2.25743, 12.80250
  4654, 50.00000, -0.17101, 0.46985
  4655, 50.00000, -0.70542, 1.93812
  4656, 50.00000, -1.23982, 3.40639
  4657, 50.00000, -1.77423, 4.87466
  4658, 50.00000, -2.30864, 6.34293
  4659, 50.00000, -2.84304, 7.81119
  4660, 50.00000, -3.37745, 9.27946
  4661, 50.00000, -3.91186, 10.74773
  4662, 50.00000, -4.44626, 12.21600
  4663, 50.00000, -0.25000, 0.43301
  4664, 50.00000, -1.03125, 1.78618
  4665, 50.00000, -1.81250, 3.13934
  4666, 50.00000, -2.59375, 4.49251
  4667, 50.00000, -3.37500, 5.84567
  4668, 50.00000, -4.15625, 7.19884
  4669, 50.00000, -4.93750, 8.55200
  4670, 50.00000, -5.71875, 9.90517
  4671, 50.00000, -6.50000, 11.25833
  4672, 50.00000, -0.32139, 0.38302
  4673, 50.00000, -1.32575, 1.57997
  4674, 50.00000, -2.33011, 2.77691
  4675, 50.00000, -3.33446, 3.97386
  4676, 50.00000, -4.33882, 5.17080
  4677, 50.00000, -5.34317, 6.36774
  4678, 50.00000, -6.34753, 7.56469
  4679, 50.00000, -7.35188, 8.76163
  4680, 50.00000, -8.35624, 9.95858
  4681, 50.00000, -0.38302, 0.32139
  4682, 50.00000, -1.57997, 1.32575
  4683, 50.00000, -2.77691, 2.33011
  4684, 50.00000, -3.97386, 3.33446
  4685, 50.00000, -5.17080, 4.33882
  4686, 50.00000, -6.36774, 5.34317
  4687, 50.00000, -7.56469, 6.34753
  4688, 50.00000, -8.76163, 7.35188
  4689, 50.00000, -9.95858, 8.35624
  4690, 50.00000, -0.43301, 0.25000
  4691, 50.00000, -1.78618, 1.03125
  4692, 50.00000, -3.13934, 1.81250
  4693, 50.00000, -4.49251, 2.59375
  4694, 50.00000, -5.84567, 3.37500
  4695, 50.00000, -7.19884, 4.15625
  4696, 50.00000, -8.55200, 4.93750
  4697, 50.00000, -9.90517, 5.71875
  4698, 50.00000, -11.25833, 6.50000
  4699, 50.00000, -0.46985, 0.17101
  4700, 50.00000, -1.93812, 0.70542
  4701, 50.00000, -3.40639, 1.23982
  4702, 50.00000, -4.87466, 1.77423
  4703, 50.00000, -6.34293, 2.30864
  4704, 50.00000, -7.81119, 2.84304
  4705, 50.00000, -9.27946, 3.37745
  4706, 50.00000, -10.74773, 3.91186
  4707, 50.00000, -12.21600, 4.44626
  4708, 50.00000, -0.49240, 0.08682
  4709, 50.00000, -2.03117, 0.35815
  4710, 50.00000, -3.56993, 0.62947
  4711, 50.00000, -5.10869, 0.90080
  4712, 50.00000, -6.64745, 1.17213
  4713, 50.00000, -8.18621, 1.44345
  4714, 50.00000, -9.72498, 1.71478
  4715, 50.00000, -11.26374, 1.98610
  4716, 50.00000, -12.80250, 2.25743
  4717, 50.00000, -0.50000, 0.00000
  4718, 50.00000, -2.06250, 0.00000
  4719, 50.00000, -3.62500, 0.00000
  4720, 50.00000, -5.18750, 0.00000
  4721, 50.00000, -6.75000, 0.00000
  4722, 50.00000, -8.31250, 0.00000
  4723, 50.00000, -9.87500, 0.00000
  4724, 50.00000, -11.43750, 0.00000
  4725, 50.00000, -13.00000, 0.00000
  4726, 50.00000, -0.49240, -0.08682
  4727, 50.00000, -2.03117, -0.35815
  4728, 50.00000, -3.56993, -0.62947
  4729, 50.00000, -5.10869, -0.90080
  4730, 50.00000, -6.64745, -1.17213
  4731, 50.00000, -8.18621, -1.44345
  4732, 50.00000, -9.72498, -1.71478
  4733, 50.00000, -11.26374, -1.98610
  4734, 50.00000, -12.80250, -2.25743
  4735, 50.00000, -0.46985, -0.17101
  4736, 50.00000, -1.93812, -0.70542
  4737, 50.00000, -3.40639, -1.23982
  4738, 50.00000, -4.87466, -1.77423
  4739, 50.00000, -6.34293, -2.30864
  4740, 50.00000, -7.81119, -2.84304
  4741, 50.00000, -9.27946, -3.37745
  4742, 50.00000, -10.74773, -3.91186
  4743, 50.00000, -12.21600, -4.44626
  4744, 50.00000, -0.43301, -0.25000
  4745, 50.00000, -1.78618, -1.03125
  4746, 50.00000, -3.13934, -1.81250
  4747, 50.00000, -4.49251, -2.59375
  4748, 50.00000, -5.84567, -3.37500
  4749, 50.00000, -7.19884, -4.15625
  4750, 50.00000, -8.55200, -4.93750
  4751, 50.00000, -9.90517, -5.71875
  4752, 50.00000, -11.25833, -6.50000
  4753, 50.00000, -0.38302, -0.32139
  4754, 50.00000, -1.57997, -1.32575
  4755, 50.00000, -2.77691, -2.33011
  4756, 50.00000, -3.97386, -3.33446
  4757, 50.00000, -5.17080, -4.33882
  4758, 50.00000, -6.36774, -5.34317
  4759, 50.00000, -7.56469, -6.34753
  4760, 50.00000, -8.76163, -7.35188
  4761, 50.00000, -9.95858, -8.35624
  4762, 50.00000, -0.32139, -0.38302
  4763, 50.00000, -1.32575, -1.57997
  4764, 50.00000, -2.33011, -2.77691
  4765, 50.00000, -3.33446, -3.97386
  4766, 50.00000, -4.33882, -5.17080
  4767, 50.00000, -5.34317, -6.36774
  4768, 50.00000, -6.34753, -7.56469
  4769, 50.00000, -7.35188, -8.76163
  4770, 50.00000, -8.35624, -9.95858
  4771, 50.00000, -0.25000, -0.43301
  4772, 50.00000, -1.03125, -1.78618
  4773, 50.00000, -1.81250, -3.13934
  4774, 50.00000, -2.59375, -4.49251
  4775, 50.00000, -3.37500, -5.84567
  4776, 50.00000, -4.15625, -7.19884
  4777, 50.00000, -4.93750, -8.55200
  4778, 50.00000, -5.71875, -9.90517
  4779, 50.00000, -6.50000, -11.25833
  4780, 50.00000, -0.17101, -0.46985
  4781, 50.00000, -0.70542, -1.93812
  4782, 50.00000, -1.23982, -3.40639
  4783, 50.00000, -1.77423, -4.87466
  4784, 50.00000, -2.30864, -6.34293
  4785, 50.00000, -2.84304, -7.81119
  4786, 50.00000, -3.37745, -9.27946
  4787, 50.00000, -3.91186, -10.74773
  4788, 50.00000, -4.44626, -12.21600
  4789, 50.00000, -0.08682, -0.49240
  4790, 50.00000, -0.35815, -2.03117
  4791, 50.00000, -0.62947, -3.56993
  4792, 50.00000, -0.90080, -5.10869
  4793, 50.00000, -1.17213, -6.64745
  4794, 50.00000, -1.44345, -8.18621
  4795, 50.00000, -1.71478, -9.72498
  4796, 50.00000, -1.98610, -11.26374
  4797, 50.00000, -2.25743, -12.80250
  4798, 50.00000, -0.00000, -0.50000
  4799, 50.00000, -0.00000, -2.06250
  4800, 50.00000, -0.00000, -3.62500
  4801, 50.00000, -0.00000, -5.18750
  4802, 50.00000, -0.00000, -6.75000
  4803, 50.00000, -0.00000, -8.31250
  4804, 50.00000, -0.00000, -9.87500
  4805, 50.00000, -0.00000, -11.43750
  4806, 50.00000, -0.00000, -13.00000
  4807, 50.00000, 0.08682, -0.49240
  4808, 50.00000, 0.35815, -2.03117
  4809, 50.00000, 0.62947, -3.56993
  4810, 50.00000, 0.90080, -5.10869
  4811, 50.00000, 1.17213, -6.64745
  4812, 50.00000, 1.44345, -8.18621
  4813, 50.00000, 1.71478, -9.72498
  4814, 50.00000, 1.98610, -11.26374
  4815, 50.00000, 2.25743, -12.80250
  4816, 50.00000, 0.17101, -0.46985
  4817, 50.00000, 0.70542, -1.93812
  4818, 50.00000, 1.23982, -3.40639
  4819, 50.00000, 1.77423, -4.87466
  4820, 50.00000, 2.30864, -6.34293
  4821, 50.00000, 2.84304, -7.81119
  4822, 50.00000, 3.37745, -9.27946
  4823, 50.00000, 3.91186, -10.74773
  4824, 50.00000, 4.44626, -12.21600
  4825, 50.00000, 0.25000, -0.43301
  4826, 50.00000, 1.03125, -1.78618
  4827, 50.00000, 1.81250, -3.13934
  4828, 50.00000, 2.59375, -4.49251
  4829, 50.00000, 3.37500, -5.84567
  4830, 50.00000, 4.15625, -7.19884
  4831, 50.00000, 4.93750, -8.55200
  4832, 50.00000, 5.71875, -9.90517
  4833, 50.00000, 6.50000, -11.25833
  4834, 50.00000, 0.32139, -0.38302
  4835, 50.00000, 1.32575, -1.57997
  4836, 50.00000, 2.33011, -2.77691
  4837, 50.00000, 3.33446, -3.97386
  4838, 50.00000, 4.33882, -5.17080
  4839, 50.00000, 5.34317, -6.36774
  4840, 50.00000, 6.34753, -7.56469
  4841, 50.00000, 7.35188, -8.76163
  4842, 50.00000, 8.35624, -9.95858
  4843, 50.00000, 0.38302, -0.32139
  4844, 50.00000, 1.57997, -1.32575
  4845, 50.00000, 2.77691, -2.33011
  4846, 50.00000, 3.97386, -3.33446
  4847, 50.00000, 5.17080, -4.33882
  4848, 50.00000, 6.36774, -5.34317
  4849, 50.00000, 7.56469, -6.34753
  4850, 50.00000, 8.76163, -7.35188
  4851, 50.00000, 9.95858, -8.35624
  4852, 50.00000, 0.43301, -0.25000
  4853, 50.00000, 1.78618, -1.03125
  4854, 50.00000, 3.13934, -1.81250
  4855, 50.00000, 4.49251, -2.59375
  4856, 50.00000, 5.84567, -3.37500
  4857, 50.00000, 7.19884, -4.15625
  4858, 50.00000, 8.55200, -4.93750
  4859, 50.00000, 9.90517, -5.71875
  4860, 50.00000, 11.25833, -6.50000
  4861, 50.00000, 0.46985, -0.17101
  4862, 50.00000, 1.93812, -0.70542
  4863, 50.00000, 3.40639, -1.23982
  4864, 50.00000, 4.87466, -1.77423
  4865, 50.00000, 6.34293, -2.30864
  4866, 50.00000, 7.81119, -2.84304
  4867, 50.00000, 9.27946, -3.37745
  4868, 50.00000, 10.74773, -3.91186
  4869, 50.00000, 12.21600, -4.44626
  4870, 50.00000, 0.49240, -0.08682
  4871, 50.00000, 2.03117, -0.35815
  4872, 50.00000, 3.56993, -0.62947
  4873, 50.00000, 5.10869, -0.90080
  4874, 50.00000, 6.64745, -1.17213
  4875, 50.00000, 8.18621, -1.44345
  4876, 50.00000, 9.72498, -1.71478
  4877, 50.00000, 11.26374, -1.98610
  4878, 50.00000, 12.80250, -2.25743
  4879, 50.00000, 0.50000, -0.00000
  4880, 50.00000, 2.06250, -0.00000
  4881, 50.00000, 3.62500, -0.00000
  4882, 50.00000, 5.18750, -0.00000
  4883, 50.00000, 6.75000, -0.00000
  4884, 50.00000, 8.31250, -0.00000
  4885, 50.00000, 9.87500, -0.00000
  4886, 50.00000, 11.43750, -0.00000
  4887, 50.00000, 13.00000, -0.00000
  4888, 55.00000, 0.50000, 0.00000
  4889, 55.00000, 2.06250, 0.00000
  4890, 55.00000, 3.62500, 0.00000
  4891, 55.00000, 5.18750, 0.00000
  4892, 55.00000, 6.75000, 0.00000
  4893, 55.00000, 8.31250, 0.00000
  4894, 55.00000, 9.87500, 0.00000
  4895, 55.00000, 11.43750, 0.00000
  4896, 55.00000, 13.00000, 0.00000
  4897, 55.00000, 0.49240, 0.08682
  4898, 55.00000, 2.03117, 0.35815
  4899, 55.00000, 3.56993, 0.62947
  4900, 55.00000, 5.10869, 0.90080
  4901, 55.00000, 6.64745, 1.17213
  4902, 55.00000, 8.18621, 1.44345
  4903, 55.00000, 9.72498, 1.71478
  4904, 55.00000, 11.26374, 1.98610
  4905, 55.00000, 12.80250, 2.25743
  4906, 55.00000, 0.46985, 0.17101
  4907, 55.00000, 1.93812, 0.70542
  4908, 55.00000, 3.40639, 1.23982
  4909, 55.00000, 4.87466, 1.77423
  4910, 55.00000, 6.34293, 2.30864
  4911, 55.00000, 7.81119, 2.84304
  4912, 55.00000, 9.27946, 3.37745
  4913, 55.00000, 10.74773, 3.91186
  4914, 55.00000, 12.21600, 4.44626
  4915, 55.00000, 0.43301, 0.25000
  4916, 55.00000, 1.78618, 1.03125
  4917, 55.00000, 3.13934, 1.81250
  4918, 55.00000, 4.49251, 2.59375
  4919, 55.00000, 5.84567, 3.37500
  4920, 55.00000, 7.19884, 4.15625
  4921, 55.00000, 8.55200, 4.93750
  4922, 55.00000, 9.90517, 5.71875
  4923, 55.00000, 11.25833, 6.50000
  4924, 55.00000, 0.38302, 0.32139
  4925, 55.00000, 1.57997, 1.32575
  4926, 55.00000, 2.77691, 2.33011
  4927, 55.00000, 3.97386, 3.33446
  4928, 55.00000, 5.17080, 4.33882
  4929, 55.00000, 6.36774, 5.34317
  4930, 55.00000, 7.56469, 6.34753
  4931, 55.00000, 8.76163, 7.35188
  4932, 55.00000, 9.95858, 8.35624
  4933, 55.00000, 0.32139, 0.38302
  4934, 55.00000, 1.32575, 1.57997
  4935, 55.00000, 2.33011, 2.77691
  4936, 55.00000, 3.33446, 3.97386
  4937, 55.00000, 4.33882, 5.17080
  4938, 55.00000, 5.34317, 6.36774
  4939, 55.00000, 6.34753, 7.56469
  4940, 55.00000, 7.35188, 8.76163
  4941, 55.00000, 8.35624, 9.95858
  4942, 55.00000, 0.25000, 0.43301
  4943, 55.00000, 1.03125, 1.78618
  4944, 55.00000, 1.81250, 3.13934
  4945, 55.00000, 2.59375, 4.49251
  4946, 55.00000, 3.37500, 5.84567
  4947, 55.00000, 4.15625, 7.19884
  4948, 55.00000, 4.93750, 8.55200
  4949, 55.00000, 5.71875, 9.90517
  4950, 55.00000, 6.50000, 11.25833
  4951, 55.00000, 0.17101, 0.46985
  4952, 55.00000, 0.70542, 1.93812
  4953, 55.00000, 1.23982, 3.40639
  4954, 55.00000, 1.77423, 4.87466
  4955, 55.00000, 2.30864, 6.34293
  4956, 55.00000, 2.84304, 7.81119
  4957, 55.00000, 3.37745, 9.27946
  4958, 55.00000, 3.91186, 10.74773
  4959, 55.00000, 4.44626, 12.21600
  4960, 55.00000, 0.08682, 0.49240
  4961, 55.00000, 0.35815, 2.03117
  4962, 55.00000, 0.62947, 3.56993
  4963, 55.00000, 0.90080, 5.10869
  4964, 55.00000, 1.17213, 6.64745
  4965, 55.00000, 1.44345, 8.18621
  4966, 55.00000, 1.71478, 9.72498
  4967, 55.00000, 1.98610, 11.26374
  4968, 55.00000, 2.25743, 12.80250
  4969, 55.00000, 0.00000, 0.50000
  4970, 55.00000, 0.00000, 2.06250
  4971, 55.00000, 0.00000, 3.62500
  4972, 55.00000, 0.00000, 5.18750
  4973, 55.00000, 0.00000, 6.75000
  4974, 55.00000, 0.00000, 8.31250
  4975, 55.00000, 0.00000, 9.87500
  4976, 55.00000, 0.00000, 11.43750
  4977, 55.00000, 0.00000, 13.00000
  4978, 55.00000, -0.08682, 0.49240
  4979, 55.00000, -0.35815, 2.03117
  4980, 55.00000, -0.62947, 3.56993
  4981, 55.00000, -0.90080, 5.10869
  4982, 55.00000, -1.17213, 6.64745
  4983, 55.00000, -1.44345, 8.18621
  4984, 55.00000, -1.71478, 9.72498
  4985, 55.00000, -1.98610, 11.26374
  4986, 55.00000, -2.25743, 12.80250
  4987, 55.00000, -0.17101, 0.46985
  4988, 55.00000, -0.70542, 1.93812
  4989, 55.00000, -1.23982, 3.40639
  4990, 55.00000, -1.77423, 4.87466
  4991, 55.00000, -2.30864, 6.34293
  4992, 55.00000, -2.84304, 7.81119
  4993, 55.00000, -3.37745, 9.27946
  4994, 55.00000, -3.91186, 10.74773
  4995, 55.00000, -4.44626, 12.21600
  4996, 55.00000, -0.25000, 0.43301
  4997, 55.00000, -1.03125, 1.78618
  4998, 55.00000, -1.81250, 3.13934
  4999, 55.00000, -2.59375, 4.49251
  5000, 55.00000, -3.37500, 5.84567
  5001, 55.00000, -4.15625, 7.19884
  5002, 55.00000, -4.93750, 8.55200
  5003, 55.00000, -5.71875, 9.90517
  5004, 55.00000, -6.50000, 11.25833
  5005, 55.00000, -0.32139, 0.38302
  5006, 55.00000, -1.32575, 1.57997
  5007, 55.00000, -2.33011, 2.77691
  5008, 55.00000, -3.33446, 3.97386
  5009, 55.00000, -4.33882, 5.17080
  5010, 55.00000, -5.34317, 6.36774
  5011, 55.00000, -6.34753, 7.56469
  5012, 55.00000, -7.35188, 8.76163
  5013, 55.00000, -8.35624, 9.95858
  5014, 55.00000, -0.38302, 0.32139
  5015, 55.00000, -1.57997, 1.32575
  5016, 55.00000, -2.77691, 2.33011
  5017, 55.00000, -3.97386, 3.33446
  5018, 55.00000, -5.17080, 4.33882
  5019, 55.00000, -6.36774, 5.34317
  5020, 55.00000, -7.56469, 6.34753
  5021, 55.00000, -8.76163, 7.35188
  5022, 55.00000, -9.95858, 8.35624
  5023, 55.00000, -0.43301, 0.25000
  5024, 55.00000, -1.78618, 1.03125
  5025, 55.00000, -3.13934, 1.81250
  5026, 55.00000, -4.49251, 2.59375
  5027, 55.00000, -5.84567, 3.37500
  5028, 55.00000, -7.19884, 4.15625
  5029, 55.00000, -8.55200, 4.93750
  5030, 55.00000, -9.90517, 5.71875
  5031, 55.00000, -11.25833, 6.50000
  5032, 55.00000, -0.46985, 0.17101
  5033, 55.00000, -1.93812, 0.70542
  5034, 55.00000, -3.40639, 1.23982
  5035, 55.00000, -4.87466, 1.77423
  5036, 55.00000, -6.34293, 2.30864
  5037, 55.00000, -7.81119, 2.84304
  5038, 55.00000, -9.27946, 3.37745
  5039, 55.00000, -10.74773, 3.91186
  5040, 55.00000, -12.21600, 4.44626
  5041, 55.00000, -0.49240, 0.08682
  5042, 55.00000, -2.03117, 0.35815
  5043, 55.00000, -3.56993, 0.62947
  5044, 55.00000, -5.10869, 0.90080
  5045, 55.00000, -6.64745, 1.17213
  5046, 55.00000, -8.18621, 1.44345
  5047, 55.00000, -9.72498, 1.71478
  5048, 55.00000, -11.26374, 1.98610
  5049, 55.00000, -12.80250, 2.25743
  5050, 55.00000, -0.50000, 0.00000
  5051, 55.00000, -2.06250, 0.00000
  5052, 55.00000, -3.62500, 0.00000
  5053, 55.00000, -5.18750, 0.00000
  5054, 55.00000, -6.75000, 0.00000
  5055, 55.00000, -8.31250, 0.00000
  5056, 55.00000, -9.87500, 0.00000
  5057, 55.00000, -11.43750, 0.00000
  5058, 55.00000, -13.00000, 0.00000
  5059, 55.00000, -0.49240, -0.08682
  5060, 55.00000, -2.03117, -0.35815
  5061, 55.00000, -3.56993, -0.62947
  5062, 55.00000, -5.10869, -0.90080
  5063, 55.00000, -6.64745, -1.17213
  5064, 55.00000, -8.18621, -1.44345
  5065, 55.00000, -9.72498, -1.71478
  5066, 55.00000, -11.26374, -1.98610
  5067, 55.00000, -12.80250, -2.25743
  5068, 55.00000, -0.46985, -0.17101
  5069, 55.00000, -1.93812, -0.70542
  5070, 55.00000, -3.40639, -1.23982
  5071, 55.00000, -4.87466, -1.77423
  5072, 55.00000, -6.34293, -2.30864
  5073, 55.00000, -7.81119, -2.84304
  5074, 55.00000, -9.27946, -3.37745
  5075, 55.00000, -10.74773, -3.91186
  5076, 55.00000, -12.21600, -4.44626
  5077, 55.00000, -0.43301, -0.25000
  5078, 55.00000, -1.78618, -1.03125
  5079, 55.00000, -3.13934, -1.81250
  5080, 55.00000, -4.49251, -2.59375
  5081, 55.00000, -5.84567, -3.37500
  5082, 55.00000, -7.19884, -4.15625
  5083, 55.00000, -8.55200, -4.93750
  5084, 55.00000, -9.90517, -5.71875
  5085, 55.00000, -11.25833, -6.50000
  5086, 55.00000, -0.38302, -0.32139
  5087, 55.00000, -1.57997, -1.32575
  5088, 55.00000, -2.77691, -2.33011
  5089, 55.00000, -3.97386, -3.33446
  5090, 55.00000, -5.17080, -4.33882
  5091, 55.00000, -6.36774, -5.34317
  5092, 55.00000, -7.56469, -6.34753
  5093, 55.00000, -8.76163, -7.35188
  5094, 55.00000, -9.95858, -8.35624
  5095, 55.00000, -0.32139, -0.38302
  5096, 55.00000, -1.32575, -1.57997
  5097, 55.00000, -2.33011, -2.77691
  5098, 55.00000, -3.33446, -3.97386
  5099, 55.00000, -4.33882, -5.17080
  5100, 55.00000, -5.34317, -6.36774
  5101, 55.00000, -6.34753, -7.56469
  5102, 55.00000, -7.35188, -8.76163
  5103, 55.00000, -8.35624, -9.95858
  5104, 55.00000, -0.25000, -0.43301
  5105, 55.00000, -1.03125, -1.78618
  5106, 55.00000, -1.81250, -3.13934
  5107, 55.00000, -2.59375, -4.49251
  5108, 55.00000, -3.37500, -5.84567
  5109, 55.00000, -4.15625, -7.19884
  5110, 55.00000, -4.93750, -8.55200
  5111, 55.00000, -5.71875, -9.90517
  5112, 55.00000, -6.50000, -11.25833
  5113, 55.00000, -0.17101, -0.46985
  5114, 55.00000, -0.70542, -1.93812
  5115, 55.00000, -1.23982, -3.40639
  5116, 55.00000, -1.77423, -4.87466
  5117, 55.00000, -2.30864, -6.34293
  5118, 55.00000, -2.84304, -7.81119
  5119, 55.00000, -3.37745, -9.27946
  5120, 55.00000, -3.91186, -10.74773
  5121, 55.00000, -4.44626, -12.21600
  5122, 55.00000, -0.08682, -0.49240
  5123, 55.00000, -0.35815, -2.03117
  5124, 55.00000, -0.62947, -3.56993
  5125, 55.00000, -0.90080, -5.10869
  5126, 55.00000, -1.17213, -6.64745
  5127, 55.00000, -1.44345, -8.18621
  5128, 55.00000, -1.71478, -9.72498
  5129, 55.00000, -1.98610, -11.26374
  5130, 55.00000, -2.25743, -12.80250
  5131, 55.00000, -0.00000, -0.50000
  5132, 55.00000, -0.00000, -2.06250
  5133, 55.00000, -0.00000, -3.62500
  5134, 55.00000, -0.00000, -5.18750
  5135, 55.00000, -0.00000, -6.75000
  5136, 55.00000, -0.00000, -8.31250
  5137, 55.00000, -0.00000, -9.87500
  5138, 55.00000, -0.00000, -11.43750
  5139, 55.00000, -0.00000, -13.00000
  5140, 55.00000, 0.08682, -0.49240
  5141, 55.00000, 0.35815, -2.03117
  5142, 55.00000, 0.62947, -3.56993
  5143, 55.00000, 0.90080, -5.10869
  5144, 55.00000, 1.17213, -6.64745
  5145, 55.00000, 1.44345, -8.18621
  5146, 55.00000, 1.71478, -9.72498
  5147, 55.00000, 1.98610, -11.26374
  5148, 55.00000, 2.25743, -12.80250
  5149, 55.00000, 0.17101, -0.46985
  5150, 55.00000, 0.70542, -1.93812
  5151, 55.00000, 1.23982, -3.40639
  5152, 55.00000, 1.77423, -4.87466
  5153, 55.00000, 2.30864, -6.34293
  5154, 55.00000, 2.84304, -7.81119
  5155, 55.00000, 3.37745, -9.27946
  5156, 55.00000, 3.91186, -10.74773
  5157, 55.00000, 4.44626, -12.21600
  5158, 55.00000, 0.25000, -0.43301
  5159, 55.00000, 1.03125, -1.78618
  5160, 55.00000, 1.81250, -3.13934
  5161, 55.00000, 2.59375, -4.49251
  5162, 55.00000, 3.37500, -5.84567
  5163, 55.00000, 4.15625, -7.19884
  5164, 55.00000, 4.93750, -8.55200
  5165, 55.00000, 5.71875, -9.90517
  5166, 55.00000, 6.50000, -11.25833
  5167, 55.00000, 0.32139, -0.38302
  5168, 55.00000, 1.32575, -1.57997
  5169, 55.00000, 2.33011, -2.77691
  5170, 55.00000, 3.33446, -3.97386
  5171, 55.00000, 4.33882, -5.17080
  5172, 55.00000, 5.34317, -6.36774
  5173, 55.00000, 6.34753, -7.56469
  5174, 55.00000, 7.35188, -8.76163
  5175, 55.00000, 8.35624, -9.95858
  5176, 55.00000, 0.38302, -0.32139
  5177, 55.00000, 1.57997, -1.32575
  5178, 55.00000, 2.77691, -2.33011
  5179, 55.00000, 3.97386, -3.33446
  5180, 55.00000, 5.17080, -4.33882
  5181, 55.00000, 6.36774, -5.34317
  5182, 55.00000, 7.56469, -6.34753
  5183, 55.00000, 8.76163, -7.35188
  5184, 55.00000, 9.95858, -8.35624
  5185, 55.00000, 0.43301, -0.25000
  5186, 55.00000, 1.78618, -1.03125
  5187, 55.00000, 3.13934, -1.81250
  5188, 55.00000, 4.49251, -2.59375
  5189, 55.00000, 5.84567, -3.37500
  5190, 55.00000, 7.19884, -4.15625
  5191, 55.00000, 8.55200, -4.93750
  5192, 55.00000, 9.90517, -5.71875
  5193, 55.00000, 11.25833, -6.50000
  5194, 55.00000, 0.46985, -0.17101
  5195, 55.00000, 1.93812, -0.70542
  5196, 55.00000, 3.40639, -1.23982
  5197, 55.00000, 4.87466, -1.77423
  5198, 55.00000, 6.34293, -2.30864
  5199, 55.00000, 7.81119, -2.84304
  5200, 55.00000, 9.27946, -3.37745
  5201, 55.00000, 10.74773, -3.91186
  5202, 55.00000, 12.21600, -4.44626
  5203, 55.00000, 0.49240, -0.08682
  5204, 55.00000, 2.03117, -0.35815
  5205, 55.00000, 3.56993, -0.62947
  5206, 55.00000, 5.10869, -0.90080
  5207, 55.00000, 6.64745, -1.17213
  5208, 55.00000, 8.18621, -1.44345
  5209, 55.00000, 9.72498, -1.71478
  5210, 55.00000, 11.26374, -1.98610
  5211, 55.00000, 12.80250, -2.25743
  5212, 55.00000, 0.50000, -0.00000
  5213, 55.00000, 2.06250, -0.00000
  5214, 55.00000, 3.62500, -0.00000
  5215, 55.00000, 5.18750, -0.00000
  5216, 55.00000, 6.75000, -0.00000
  5217, 55.00000, 8.31250, -0.00000
  5218, 55.00000, 9.87500, -0.00000
  5219, 55.00000, 11.43750, -0.00000
  5220, 55.00000, 13.00000, -0.00000
  5221, 60.00000, 0.50000, 0.00000
  5222, 60.00000, 2.06250, 0.00000
  5223, 60.00000, 3.62500, 0.00000
  5224, 60.00000, 5.18750, 0.00000
  5225, 60.00000, 6.75000, 0.00000
  5226, 60.00000, 8.31250, 0.00000
  5227, 60.00000, 9.87500, 0.00000
  5228, 60.00000, 11.43750, 0.00000
  5229, 60.00000, 13.00000, 0.00000
  5230, 60.00000, 0.49240, 0.08682
  5231, 60.00000, 2.03117, 0.35815
  5232, 60.00000, 3.56993, 0.62947
  5233, 60.00000, 5.10869, 0.90080
  5234, 60.00000, 6.64745, 1.17213
  5235, 60.00000, 8.18621, 1.44345
  5236, 60.00000, 9.72498, 1.71478
  5237, 60.00000, 11.26374, 1.98610
  5238, 60.00000, 12.80250, 2.25743
  5239, 60.00000, 0.46985, 0.17101
  5240, 60.00000, 1.93812, 0.70542
  5241, 60.00000, 3.40639, 1.23982
  5242, 60.00000, 4.87466, 1.77423
  5243, 60.00000, 6.34293, 2.30864
  5244, 60.00000, 7.81119, 2.84304
  5245, 60.00000, 9.27946, 3.37745
  5246, 60.00000, 10.74773, 3.91186
  5247, 60.00000, 12.21600, 4.44626
  5248, 60.00000, 0.43301, 0.25000
  5249, 60.00000, 1.78618, 1.03125
  5250, 60.00000, 3.13934, 1.81250
  5251, 60.00000, 4.49251, 2.59375
  5252, 60.00000, 5.84567, 3.37500
  5253, 60.00000, 7.19884, 4.15625
  5254, 60.00000, 8.55200, 4.93750
  5255, 60.00000, 9.90517, 5.71875
  5256, 60.00000, 11.25833, 6.50000
  5257, 60.00000, 0.38302, 0.32139
  5258, 60.00000, 1.57997, 1.32575
  5259, 60.00000, 2.77691, 2.33011
  5260, 60.00000, 3.97386, 3.33446
  5261, 60.00000, 5.17080, 4.33882
  5262, 60.00000, 6.36774, 5.34317
  5263, 60.00000, 7.56469, 6.34753
  5264, 60.00000, 8.76163, 7.35188
  5265, 60.00000, 9.95858, 8.35624
  5266, 60.00000, 0.32139, 0.38302
  5267, 60.00000, 1.32575, 1.57997
  5268, 60.00000, 2.33011, 2.77691
  5269, 60.00000, 3.33446, 3.97386
  5270, 60.00000, 4.33882, 5.17080
  5271, 60.00000, 5.34317, 6.36774
  5272, 60.00000, 6.34753, 7.56469
  5273, 60.00000, 7.35188, 8.76163
  5274, 60.00000, 8.35624, 9.95858
  5275, 60.00000, 0.25000, 0.43301
  5276, 60.00000, 1.03125, 1.78618
  5277, 60.00000, 1.81250, 3.13934
  5278, 60.00000, 2.59375, 4.49251
  5279, 60.00000, 3.37500, 5.84567
  5280, 60.00000, 4.15625, 7.19884
  5281, 60.00000, 4.93750, 8.55200
  5282, 60.00000, 5.71875, 9.90517
  5283, 60.00000, 6.50000, 11.25833
  5284, 60.00000, 0.17101, 0.46985
  5285, 60.00000, 0.70542, 1.93812
  5286, 60.00000, 1.23982, 3.40639
  5287, 60.00000, 1.77423, 4.87466
  5288, 60.00000, 2.30864, 6.34293
  5289, 60.00000, 2.84304, 7.81119
  5290, 60.00000, 3.37745, 9.27946
  5291, 60.00000, 3.91186, 10.74773
  5292, 60.00000, 4.44626, 12.21600
  5293, 60.00000, 0.08682, 0.49240
  5294, 60.00000, 0.35815, 2.03117
  5295, 60.00000, 0.62947, 3.56993
  5296, 60.00000, 0.90080, 5.10869
  5297, 60.00000, 1.17213, 6.64745
  5298, 60.00000, 1.44345, 8.18621
  5299, 60.00000, 1.71478, 9.72498
  5300, 60.00000, 1.98610, 11.26374
  5301, 60.00000, 2.25743, 12.80250
  5302, 60.00000, 0.00000, 0.50000
  5303, 60.00000, 0.00000, 2.06250
  5304, 60.00000, 0.00000, 3.62500
  5305, 60.00000, 0.00000, 5.18750
  5306, 60.00000, 0.00000, 6.75000
  5307, 60.00000, 0.00000, 8.31250
  5308, 60.00000, 0.00000, 9.87500
  5309, 60.00000, 0.00000, 11.43750
  5310, 60.00000, 0.00000, 13.00000
  5311, 60.00000, -0.08682, 0.49240
  5312, 60.00000, -0.35815, 2.03117
  5313, 60.00000, -0.62947, 3.56993
  5314, 60.00000, -0.90080, 5.10869
  5315, 60.00000, -1.17213, 6.64745
  5316, 60.00000, -1.44345, 8.18621
  5317, 60.00000, -1.71478, 9.72498
  5318, 60.00000, -1.98610, 11.26374
  5319, 60.00000, -2.25743, 12.80250
  5320, 60.00000, -0.17101, 0.46985
  5321, 60.00000, -0.70542, 1.93812
  5322, 60.00000, -1.23982, 3.40639
  5323, 60.00000, -1.77423, 4.87466
  5324, 60.00000, -2.30864, 6.34293
  5325, 60.00000, -2.84304, 7.81119
  5326, 60.00000, -3.37745, 9.27946
  5327, 60.00000, -3.91186, 10.74773
  5328, 60.00000, -4.44626, 12.21600
  5329, 60.00000, -0.25000, 0.43301
  5330, 60.00000, -1.03125, 1.78618
  5331, 60.00000, -1.81250, 3.13934
  5332, 60.00000, -2.59375, 4.49251
  5333, 60.00000, -3.37500, 5.84567
  5334, 60.00000, -4.15625, 7.19884
  5335, 60.00000, -4.93750, 8.55200
  5336, 60.00000, -5.71875, 9.90517
  5337, 60.00000, -6.50000, 11.25833
  5338, 60.00000, -0.32139, 0.38302
  5339, 60.00000, -1.32575, 1.57997
  5340, 60.00000, -2.33011, 2.77691
  5341, 60.00000, -3.33446, 3.97386
  5342, 60.00000, -4.33882, 5.17080
  5343, 60.00000, -5.34317, 6.36774
  5344, 60.00000, -6.34753, 7.56469
  5345, 60.00000, -7.35188, 8.76163
  5346, 60.00000, -8.35624, 9.95858
  5347, 60.00000, -0.38302, 0.32139
  5348, 60.00000, -1.57997, 1.32575
  5349, 60.00000, -2.77691, 2.33011
  5350, 60.00000, -3.97386, 3.33446
  5351, 60.00000, -5.17080, 4.33882
  5352, 60.00000, -6.36774, 5.34317
  5353, 60.00000, -7.56469, 6.34753
  5354, 60.00000, -8.76163, 7.35188
  5355, 60.00000, -9.95858, 8.35624
  5356, 60.00000, -0.43301, 0.25000
  5357, 60.00000, -1.78618, 1.03125
  5358, 60.00000, -3.13934, 1.81250
  5359, 60.00000, -4.49251, 2.59375
  5360, 60.00000, -5.84567, 3.37500
  5361, 60.00000, -7.19884, 4.15625
  5362, 60.00000, -8.55200, 4.93750
  5363, 60.00000, -9.90517, 5.71875
  5364, 60.00000, -11.25833, 6.50000
  5365, 60.00000, -0.46985, 0.17101
  5366, 60.00000, -1.93812, 0.70542
  5367, 60.00000, -3.40639, 1.23982
  5368, 60.00000, -4.87466, 1.77423
  5369, 60.00000, -6.34293, 2.30864
  5370, 60.00000, -7.81119, 2.84304
  5371, 60.00000, -9.27946, 3.37745
  5372, 60.00000, -10.74773, 3.91186
  5373, 60.00000, -12.21600, 4.44626
  5374, 60.00000, -0.49240, 0.08682
  5375, 60.00000, -2.03117, 0.35815
  5376, 60.00000, -3.56993, 0.62947
  5377, 60.00000, -5.10869, 0.90080
  5378, 60.00000, -6.64745, 1.17213
  5379, 60.00000, -8.18621, 1.44345
  5380, 60.00000, -9.72498, 1.71478
  5381, 60.00000, -11.26374, 1.98610
  5382, 60.00000, -12.80250, 2.25743
  5383, 60.00000, -0.50000, 0.00000
  5384, 60.00000, -2.06250, 0.00000
  5385, 60.00000, -3.62500, 0.00000
  5386, 60.00000, -5.18750, 0.00000
  5387, 60.00000, -6.75000, 0.00000
  5388, 60.00000, -8.31250, 0.00000
  5389, 60.00000, -9.87500, 0.00000
  5390, 60.00000, -11.43750, 0.00000
  5391, 60.00000, -13.00000, 0.00000
  5392, 60.00000, -0.49240, -0.08682
  5393, 60.00000, -2.03117, -0.35815
  5394, 60.00000, -3.56993, -0.62947
  5395, 60.00000, -5.10869, -0.90080
  5396, 60.00000, -6.64745, -1.17213
  5397, 60.00000, -8.18621, -1.44345
  5398, 60.00000, -9.72498, -1.71478
  5399, 60.00000, -11.26374, -1.98610
  5400, 60.00000, -12.80250, -2.25743
  5401, 60.00000, -0.46985, -0.17101
  5402, 60.00000, -1.93812, -0.70542
  5403, 60.00000, -3.40639, -1.23982
  5404, 60.00000, -4.87466, -1.77423
  5405, 60.00000, -6.34293, -2.30864
  5406, 60.00000, -7.81119, -2.84304
  5407, 60.00000, -9.27946, -3.37745
  5408, 60.00000, -10.74773, -3.91186
  5409, 60.00000, -12.21600, -4.44626
  5410, 60.00000, -0.43301, -0.25000
  5411, 60.00000, -1.78618, -1.03125
  5412, 60.00000, -3.13934, -1.81250
  5413, 60.00000, -4.49251, -2.59375
  5414, 60.00000, -5.84567, -3.37500
  5415, 60.00000, -7.19884, -4.15625
  5416, 60.00000, -8.55200, -4.93750
  5417, 60.00000, -9.90517, -5.71875
  5418, 60.00000, -11.25833, -6.50000
  5419, 60.00000, -0.38302, -0.32139
  5420, 60.00000, -1.57997, -1.32575
  5421, 60.00000, -2.77691, -2.33011
  5422, 60.00000, -3.97386, -3.33446
  5423, 60.00000, -5.17080, -4.33882
  5424, 60.00000, -6.36774, -5.34317
  5425, 60.00000, -7.56469, -6.34753
  5426, 60.00000, -8.76163, -7.35188
  5427, 60.00000, -9.95858, -8.35624
  5428, 60.00000, -0.32139, -0.38302
  5429, 60.00000, -1.32575, -1.57997
  5430, 60.00000, -2.33011, -2.77691
  5431, 60.00000, -3.33446, -3.97386
  5432, 60.00000, -4.33882, -5.17080
  5433, 60.00000, -5.34317, -6.36774
  5434, 60.00000, -6.34753, -7.56469
  5435, 60.00000, -7.35188, -8.76163
  5436, 60.00000, -8.35624, -9.95858
  5437, 60.00000, -0.25000, -0.43301
  5438, 60.00000, -1.03125, -1.78618
  5439, 60.00000, -1.81250, -3.13934
  5440, 60.00000, -2.59375, -4.49251
  5441, 60.00000, -3.37500, -5.84567
  5442, 60.00000, -4.15625, -7.19884
  5443, 60.00000, -4.93750, -8.55200
  5444, 60.00000, -5.71875, -9.90517
  5445, 60.00000, -6.50000, -11.25833
  5446, 60.00000, -0.17101, -0.46985
  5447, 60.00000, -0.70542, -1.93812
  5448, 60.00000, -1.23982, -3.40639
  5449, 60.00000, -1.77423, -4.87466
  5450, 60.00000, -2.30864, -6.34293
  5451, 60.00000, -2.84304, -7.81119
  5452, 60.00000, -3.37745, -9.27946
  5453, 60.00000, -3.91186, -10.74773
  5454, 60.00000, -4.44626, -12.21600
  5455, 60.00000, -0.08682, -0.49240
  5456, 60.00000, -0.35815, -2.03117
  5457, 60.00000, -0.62947, -3.56993
  5458, 60.00000, -0.90080, -5.10869
  5459, 60.00000, -1.17213, -6.64745
  5460, 60.00000, -1.44345, -8.18621
  5461, 60.00000, -1.71478, -9.72498
  5462, 60.00000, -1.98610, -11.26374
  5463, 60.00000, -2.25743, -12.80250
  5464, 60.00000, -0.00000, -0.50000
  5465, 60.00000, -0.00000, -2.06250
  5466, 60.00000, -0.00000, -3.62500
  5467, 60.00000, -0.00000, -5.18750
  5468, 60.00000, -0.00000, -6.75000
  5469, 60.00000, -0.00000, -8.31250
  5470, 60.00000, -0.00000, -9.87500
  5471, 60.00000, -0.00000, -11.43750
  5472, 60.00000, -0.00000, -13.00000
  5473, 60.00000, 0.08682, -0.49240
  5474, 60.00000, 0.35815, -2.03117
  5475, 60.00000, 0.62947, -3.56993
  5476, 60.00000, 0.90080, -5.10869
  5477, 60.00000, 1.17213, -6.64745
  5478, 60.00000, 1.44345, -8.18621
  5479, 60.00000, 1.71478, -9.72498
  5480, 60.00000, 1.98610, -11.26374
  5481, 60.00000, 2.25743, -12.80250
  5482, 60.00000, 0.17101, -0.46985
  5483, 60.00000, 0.70542, -1.93812
  5484, 60.00000, 1.23982, -3.40639
  5485, 60.00000, 1.77423, -4.87466
  5486, 60.00000, 2.30864, -6.34293
  5487, 60.00000, 2.84304, -7.81119
  5488, 60.00000, 3.37745, -9.27946
  5489, 60.00000, 3.91186, -10.74773
  5490, 60.00000, 4.44626, -12.21600
  5491, 60.00000, 0.25000, -0.43301
  5492, 60.00000, 1.03125, -1.78618
  5493, 60.00000, 1.81250, -3.13934
  5494, 60.00000, 2.59375, -4.49251
  5495, 60.00000, 3.37500, -5.84567
  5496, 60.00000, 4.15625, -7.19884
  5497, 60.00000, 4.93750, -8.55200
  5498, 60.00000, 5.71875, -9.90517
  5499, 60.00000, 6.50000, -11.25833
  5500, 60.00000, 0.32139, -0.38302
  5501, 60.00000, 1.32575, -1.57997
  5502, 60.00000, 2.33011, -2.77691
  5503, 60.00000, 3.33446, -3.97386
  5504, 60.00000, 4.33882, -5.17080
  5505, 60.00000, 5.34317, -6.36774
  5506, 60.00000, 6.34753, -7.56469
  5507, 60.00000, 7.35188, -8.76163
  5508, 60.00000, 8.35624, -9.95858
  5509, 60.00000, 0.38302, -0.32139
  5510, 60.00000, 1.57997, -1.32575
  5511, 60.00000, 2.77691, -2.33011
  5512, 60.00000, 3.97386, -3.33446
  5513, 60.00000, 5.17080, -4.33882
  5514, 60.00000, 6.36774, -5.34317
  5515, 60.00000, 7.56469, -6.34753
  5516, 60.00000, 8.76163, -7.35188
  5517, 60.00000, 9.95858, -8.35624
  5518, 60.00000, 0.43301, -0.25000
  5519, 60.00000, 1.78618, -1.03125
  5520, 60.00000, 3.13934, -1.81250
  5521, 60.00000, 4.49251, -2.59375
  5522, 60.00000, 5.84567, -3.37500
  5523, 60.00000, 7.19884, -4.15625
  5524, 60.00000, 8.55200, -4.93750
  5525, 60.00000, 9.90517, -5.71875
  5526, 60.00000, 11.25833, -6.50000
  5527, 60.00000, 0.46985, -0.17101
  5528, 60.00000, 1.93812, -0.70542
  5529, 60.00000, 3.40639, -1.23982
  5530, 60.00000, 4.87466, -1.77423
  5531, 60.00000, 6.34293, -2.30864
  5532, 60.00000, 7.81119, -2.84304
  5533, 60.00000, 9.27946, -3.37745
  5534, 60.00000, 10.74773, -3.91186
  5535, 60.00000, 12.21600, -4.44626
  5536, 60.00000, 0.49240, -0.08682
  5537, 60.00000, 2.03117, -0.35815
  5538, 60.00000, 3.56993, -0.62947
  5539, 60.00000, 5.10869, -0.90080
  5540, 60.00000, 6.64745, -1.17213
  5541, 60.00000, 8.18621, -1.44345
  5542, 60.00000, 9.72498, -1.71478
  5543, 60.00000, 11.26374, -1.98610
  5544, 60.00000, 12.80250, -2.25743
  5545, 60.00000, 0.50000, -0.00000
  5546, 60.00000, 2.06250, -0.00000
  5547, 60.00000, 3.62500, -0.00000
  5548, 60.00000, 5.18750, -0.00000
  5549, 60.00000, 6.75000, -0.00000
  5550, 60.00000, 8.31250, -0.00000
  5551, 60.00000, 9.87500, -0.00000
  5552, 60.00000, 11.43750, -0.00000
  5553, 60.00000, 13.00000, -0.00000
  5554, 65.00000, 0.50000, 0.00000
  5555, 65.00000, 2.06250, 0.00000
  5556, 65.00000, 3.62500, 0.00000
  5557, 65.00000, 5.18750, 0.00000
  5558, 65.00000, 6.75000, 0.00000
  5559, 65.00000, 8.31250, 0.00000
  5560, 65.00000, 9.87500, 0.00000
  5561, 65.00000, 11.43750, 0.00000
  5562, 65.00000, 13.00000, 0.00000
  5563, 65.00000, 0.49240, 0.08682
  5564, 65.00000, 2.03117, 0.35815
  5565, 65.00000, 3.56993, 0.62947
  5566, 65.00000, 5.10869, 0.90080
  5567, 65.00000, 6.64745, 1.17213
  5568, 65.00000, 8.18621, 1.44345
  5569, 65.00000, 9.72498, 1.71478
  5570, 65.00000, 11.26374, 1.98610
  5571, 65.00000, 12.80250, 2.25743
  5572, 65.00000, 0.46985, 0.17101
  5573, 65.00000, 1.93812, 0.70542
  5574, 65.00000, 3.40639, 1.23982
  5575, 65.00000, 4.87466, 1.77423
  5576, 65.00000, 6.34293, 2.30864
  5577, 65.00000, 7.81119, 2.84304
  5578, 65.00000, 9.27946, 3.37745
  5579, 65.00000, 10.74773, 3.91186
  5580, 65.00000, 12.21600, 4.44626
  5581, 65.00000, 0.43301, 0.25000
  5582, 65.00000, 1.78618, 1.03125
  5583, 65.00000, 3.13934, 1.81250
  5584, 65.00000, 4.49251, 2.59375
  5585, 65.00000, 5.84567, 3.37500
  5586, 65.00000, 7.19884, 4.15625
  5587, 65.00000, 8.55200, 4.93750
  5588, 65.00000, 9.90517, 5.71875
  5589, 65.00000, 11.25833, 6.50000
  5590, 65.00000, 0.38302, 0.32139
  5591, 65.00000, 1.57997, 1.32575
  5592, 65.00000, 2.77691, 2.33011
  5593, 65.00000, 3.97386, 3.33446
  5594, 65.00000, 5.17080, 4.33882
  5595, 65.00000, 6.36774, 5.34317
  5596, 65.00000, 7.56469, 6.34753
  5597, 65.00000, 8.76163, 7.35188
  5598, 65.00000, 9.95858, 8.35624
  5599, 65.00000, 0.32139, 0.38302
  5600, 65.00000, 1.32575, 1.57997
  5601, 65.00000, 2.33011, 2.77691
  5602, 65.00000, 3.33446, 3.97386
  5603, 65.00000, 4.33882, 5.17080
  5604, 65.00000, 5.34317, 6.36774
  5605, 65.00000, 6.34753, 7.56469
  5606, 65.00000, 7.35188, 8.76163
  5607, 65.00000, 8.35624, 9.95858
  5608, 65.00000, 0.25000, 0.43301
  5609, 65.00000, 1.03125, 1.78618
  5610, 65.00000, 1.81250, 3.13934
  5611, 65.00000, 2.59375, 4.49251
  5612, 65.00000, 3.37500, 5.84567
  5613, 65.00000, 4.15625, 7.19884
  5614, 65.00000, 4.93750, 8.55200
  5615, 65.00000, 5.71875, 9.90517
  5616, 65.00000, 6.50000, 11.25833
  5617, 65.00000, 0.17101, 0.46985
  5618, 65.00000, 0.70542, 1.93812
  5619, 65.00000, 1.23982, 3.40639
  5620, 65.00000, 1.77423, 4.87466
  5621, 65.00000, 2.30864, 6.34293
  5622, 65.00000, 2.84304, 7.81119
  5623, 65.00000, 3.37745, 9.27946
  5624, 65.00000, 3.91186, 10.74773
  5625, 65.00000, 4.44626, 12.21600
  5626, 65.00000, 0.08682, 0.49240
  5627, 65.00000, 0.35815, 2.03117
  5628, 65.00000, 0.62947, 3.56993
  5629, 65.00000, 0.90080, 5.10869
  5630, 65.00000, 1.17213, 6.64745
  5631, 65.00000, 1.44345, 8.18621
  5632, 65.00000, 1.71478, 9.72498
  5633, 65.00000, 1.98610, 11.26374
  5634, 65.00000, 2.25743, 12.80250
  5635, 65.00000, 0.00000, 0.50000
  5636, 65.00000, 0.00000, 2.06250
  5637, 65.00000, 0.00000, 3.62500
  5638, 65.00000, 0.00000, 5.18750
  5639, 65.00000, 0.00000, 6.75000
  5640, 65.00000, 0.00000, 8.31250
  5641, 65.00000, 0.00000, 9.87500
  5642, 65.00000, 0.00000, 11.43750
  5643, 65.00000, 0.00000, 13.00000
  5644, 65.00000, -0.08682, 0.49240
  5645, 65.00000, -0.35815, 2.03117
  5646, 65.00000, -0.62947, 3.56993
  5647, 65.00000, -0.90080, 5.10869
  5648, 65.00000, -1.17213, 6.64745
  5649, 65.00000, -1.44345, 8.18621
  5650, 65.00000, -1.71478, 9.72498
  5651, 65.00000, -1.98610, 11.26374
  5652, 65.00000, -2.25743, 12.80250
  5653, 65.00000, -0.17101, 0.46985
  5654, 65.00000, -0.70542, 1.93812
  5655, 65.00000, -1.23982, 3.40639
  5656, 65.00000, -1.77423, 4.87466
  5657, 65.00000, -2.30864, 6.34293
  5658, 65.00000, -2.84304, 7.81119
  5659, 65.00000, -3.37745, 9.27946
  5660, 65.00000, -3.91186, 10.74773
  5661, 65.00000, -4.44626, 12.21600
  5662, 65.00000, -0.25000, 0.43301
  5663, 65.00000, -1.03125, 1.78618
  5664, 65.00000, -1.81250, 3.13934
  5665, 65.00000, -2.59375, 4.49251
  5666, 65.00000, -3.37500, 5.84567
  5667, 65.00000, -4.15625, 7.19884
  5668, 65.00000, -4.93750, 8.55200
  5669, 65.00000, -5.71875, 9.90517
  5670, 65.00000, -6.50000, 11.25833
  5671, 65.00000, -0.32139, 0.38302
  5672, 65.00000, -1.32575, 1.57997
  5673, 65.00000, -2.33011, 2.77691
  5674, 65.00000, -3.33446, 3.97386
  5675, 65.00000, -4.33882, 5.17080
  5676, 65.00000, -5.34317, 6.36774
  5677, 65.00000, -6.34753, 7.56469
  5678, 65.00000, -7.35188, 8.76163
  5679, 65.00000, -8.35624, 9.95858
  5680, 65.00000, -0.38302, 0.32139
  5681, 65.00000, -1.57997, 1.32575
  5682, 65.00000, -2.77691, 2.33011
  5683, 65.00000, -3.97386, 3.33446
  5684, 65.00000, -5.17080, 4.33882
  5685, 65.00000, -6.36774, 5.34317
  5686, 65.00000, -7.56469, 6.34753
  5687, 65.00000, -8.76163, 7.35188
  5688, 65.00000, -9.95858, 8.35624
  5689, 65.00000, -0.43301, 0.25000
  5690, 65.00000, -1.78618, 1.03125
  5691, 65.00000, -3.13934, 1.81250
  5692, 65.00000, -4.49251, 2.59375
  5693, 65.00000, -5.84567, 3.37500
  5694, 65.00000, -7.19884, 4.15625
  5695, 65.00000, -8.55200, 4.93750
  5696, 65.00000, -9.90517, 5.71875
  5697, 65.00000, -11.25833, 6.50000
  5698, 65.00000, -0.46985, 0.17101
  5699, 65.00000, -1.93812, 0.70542
  5700, 65.00000, -3.40639, 1.23982
  5701, 65.00000, -4.87466, 1.77423
  5702, 65.00000, -6.34293, 2.30864
  5703, 65.00000, -7.81119, 2.84304
  5704, 65.00000, -9.27946, 3.37745
  5705, 65.00000, -10.74773, 3.91186
  5706, 65.00000, -12.21600, 4.44626
  5707, 65.00000, -0.49240, 0.08682
  5708, 65.00000, -2.03117, 0.35815
  5709, 65.00000, -3.56993, 0.62947
  5710, 65.00000, -5.10869, 0.90080
  5711, 65.00000, -6.64745, 1.17213
  5712, 65.00000, -8.18621, 1.44345
  5713, 65.00000, -9.72498, 1.71478
  5714, 65.00000, -11.26374, 1.98610
  5715, 65.00000, -12.80250, 2.25743
  5716, 65.00000, -0.50000, 0.00000
  5717, 65.00000, -2.06250, 0.00000
  5718, 65.00000, -3.62500, 0.00000
  5719, 65.00000, -5.18750, 0.00000
  5720, 65.00000, -6.75000, 0.00000
  5721, 65.00000, -8.31250, 0.00000
  5722, 65.00000, -9.87500, 0.00000
  5723, 65.00000, -11.43750, 0.00000
  5724, 65.00000, -13.00000, 0.00000
  5725, 65.00000, -0.49240, -0.08682
  5726, 65.00000, -2.03117, -0.35815
  5727, 65.00000, -3.56993, -0.62947
  5728, 65.00000, -5.10869, -0.90080
  5729, 65.00000, -6.64745, -1.17213
  5730, 65.00000, -8.18621, -1.44345
  5731, 65.00000, -9.72498, -1.71478
  5732, 65.00000, -11.26374, -1.98610
  5733, 65.00000, -12.80250, -2.25743
  5734, 65.00000, -0.46985, -0.17101
  5735, 65.00000, -1.93812, -0.70542
  5736, 65.00000, -3.40639, -1.23982
  5737, 65.00000, -4.87466, -1.77423
  5738, 65.00000, -6.34293, -2.30864
  5739, 65.00000, -7.81119, -2.84304
  5740, 65.00000, -9.27946, -3.37745
  5741, 65.00000, -10.74773, -3.91186
  5742, 65.00000, -12.21600, -4.44626
  5743, 65.00000, -0.43301, -0.25000
  5744, 65.00000, -1.78618, -1.03125
  5745, 65.00000, -3.13934, -1.81250
  5746, 65.00000, -4.49251, -2.59375
  5747, 65.00000, -5.84567, -3.37500
  5748, 65.00000, -7.19884, -4.15625
  5749, 65.00000, -8.55200, -4.93750
  5750, 65.00000, -9.90517, -5.71875
  5751, 65.00000, -11.25833, -6.50000
  5752, 65.00000, -0.38302, -0.32139
  5753, 65.00000, -1.57997, -1.32575
  5754, 65.00000, -2.77691, -2.33011
  5755, 65.00000, -3.97386, -3.33446
  5756, 65.00000, -5.17080, -4.33882
  5757, 65.00000, -6.36774, -5.34317
  5758, 65.00000, -7.56469, -6.34753
  5759, 65.00000, -8.76163, -7.35188
  5760, 65.00000, -9.95858, -8.35624
  5761, 65.00000, -0.32139, -0.38302
  5762, 65.00000, -1.32575, -1.57997
  5763, 65.00000, -2.33011, -2.77691
  5764, 65.00000, -3.33446, -3.97386
  5765, 65.00000, -4.33882, -5.17080
  5766, 65.00000, -5.34317, -6.36774
  5767, 65.00000, -6.34753, -7.56469
  5768, 65.00000, -7.35188, -8.76163
  5769, 65.00000, -8.35624, -9.95858
  5770, 65.00000, -0.25000, -0.43301
  5771, 65.00000, -1.03125, -1.78618
  5772, 65.00000, -1.81250, -3.13934
  5773, 65.00000, -2.59375, -4.49251
  5774, 65.00000, -3.37500, -5.84567
  5775, 65.00000, -4.15625, -7.19884
  5776, 65.00000, -4.93750, -8.55200
  5777, 65.00000, -5.71875, -9.90517
  5778, 65.00000, -6.50000, -11.25833
  5779, 65.00000, -0.17101, -0.46985
  5780, 65.00000, -0.70542, -1.93812
  5781, 65.00000, -1.23982, -3.40639
  5782, 65.00000, -1.77423, -4.87466
  5783, 65.00000, -2.30864, -6.34293
  5784, 65.00000, -2.84304, -7.81119
  5785, 65.00000, -3.37745, -9.27946
  5786, 65.00000, -3.91186, -10.74773
  5787, 65.00000, -4.44626, -12.21600
  5788, 65.00000, -0.08682, -0.49240
  5789, 65.00000, -0.35815, -2.03117
  5790, 65.00000, -0.62947, -3.56993
  5791, 65.00000, -0.90080, -5.10869
  5792, 65.00000, -1.17213, -6.64745
  5793, 65.00000, -1.44345, -8.18621
  5794, 65.00000, -1.71478, -9.72498
  5795, 65.00000, -1.98610, -11.26374
  5796, 65.00000, -2.25743, -12.80250
  5797, 65.00000, -0.00000, -0.50000
  5798, 65.00000, -0.00000, -2.06250
  5799, 65.00000, -0.00000, -3.62500
  5800, 65.00000, -0.00000, -5.18750
  5801, 65.00000, -0.00000, -6.75000
  5802, 65.00000, -0.00000, -8.31250
  5803, 65.00000, -0.00000, -9.87500
  5804, 65.00000, -0.00000, -11.43750
  5805, 65.00000, -0.00000, -13.00000
  5806, 65.00000, 0.08682, -0.49240
  5807, 65.00000, 0.35815, -2.03117
  5808, 65.00000, 0.62947, -3.56993
  5809, 65.00000, 0.90080, -5.10869
  5810, 65.00000, 1.17213, -6.64745
  5811, 65.00000, 1.44345, -8.18621
  5812, 65.00000, 1.71478, -9.72498
  5813, 65.00000, 1.98610, -11.26374
  5814, 65.00000, 2.25743, -12.80250
  5815, 65.00000, 0.17101, -0.46985
  5816, 65.00000, 0.70542, -1.93812
  5817, 65.00000, 1.23982, -3.40639
  5818, 65.00000, 1.77423, -4.87466
  5819, 65.00000, 2.30864, -6.34293
  5820, 65.00000, 2.84304, -7.81119
  5821, 65.00000, 3.37745, -9.27946
  5822, 65.00000, 3.91186, -10.74773
  5823, 65.00000, 4.44626, -12.21600
  5824, 65.00000, 0.25000, -0.43301
  5825, 65.00000, 1.03125, -1.78618
  5826, 65.00000, 1.81250, -3.13934
  5827, 65.00000, 2.59375, -4.49251
  5828, 65.00000, 3.37500, -5.84567
  5829, 65.00000, 4.15625, -7.19884
  5830, 65.00000, 4.93750, -8.55200
  5831, 65.00000, 5.71875, -9.90517
  5832, 65.00000, 6.50000, -11.25833
  5833, 65.00000, 0.32139, -0.38302
  5834, 65.00000, 1.32575, -1.57997
  5835, 65.00000, 2.33011, -2.77691
  5836, 65.00000, 3.33446, -3.97386
  5837, 65.00000, 4.33882, -5.17080
  5838, 65.00000, 5.34317, -6.36774
  5839, 65.00000, 6.34753, -7.56469
  5840, 65.00000, 7.35188, -8.76163
  5841, 65.00000, 8.35624, -9.95858
  5842, 65.00000, 0.38302, -0.32139
  5843, 65.00000, 1.57997, -1.32575
  5844, 65.00000, 2.77691, -2.33011
  5845, 65.00000, 3.97386, -3.33446
  5846, 65.00000, 5.17080, -4.33882
  5847, 65.00000, 6.36774, -5.34317
  5848, 65.00000, 7.56469, -6.34753
  5849, 65.00000, 8.76163, -7.35188
  5850, 65.00000, 9.95858, -8.35624
  5851, 65.00000, 0.43301, -0.25000
  5852, 65.00000, 1.78618, -1.03125
  5853, 65.00000, 3.13934, -1.81250
  5854, 65.00000, 4.49251, -2.59375
  5855, 65.00000, 5.84567, -3.37500
  5856, 65.00000, 7.19884, -4.15625
  5857, 65.00000, 8.55200, -4.93750
  5858, 65.00000, 9.90517, -5.71875
  5859, 65.00000, 11.25833, -6.50000
  5860, 65.00000, 0.46985, -0.17101
  5861, 65.00000, 1.93812, -0.70542
  5862, 65.00000, 3.40639, -1.23982
  5863, 65.00000, 4.87466, -1.77423
  5864, 65.00000, 6.34293, -2.30864
  5865, 65.00000, 7.81119, -2.84304
  5866, 65.00000, 9.27946, -3.37745
  5867, 65.00000, 10.74773, -3.91186
  5868, 65.00000, 12.21600, -4.44626
  5869, 65.00000, 0.49240, -0.08682
  5870, 65.00000, 2.03117, -0.35815
  5871, 65.00000, 3.56993, -0.62947
  5872, 65.00000, 5.10869, -0.90080
  5873, 65.00000, 6.64745, -1.17213
  5874, 65.00000, 8.18621, -1.44345
  5875, 65.00000, 9.72498, -1.71478
  5876, 65.00000, 11.26374, -1.98610
  5877, 65.00000, 12.80250, -2.25743
  5878, 65.00000, 0.50000, -0.00000
  5879, 65.00000, 2.06250, -0.00000
  5880, 65.00000, 3.62500, -0.00000
  5881, 65.00000, 5.18750, -0.00000
  5882, 65.00000, 6.75000, -0.00000
  5883, 65.00000, 8.31250, -0.00000
  5884, 65.00000, 9.87500, -0.00000
  5885, 65.00000, 11.43750, -0.00000
  5886, 65.00000, 13.00000, -0.00000
  5887, 70.00000, 0.50000, 0.00000
  5888, 70.00000, 2.06250, 0.00000
  5889, 70.00000, 3.62500, 0.00000
  5890, 70.00000, 5.18750, 0.00000
  5891, 70.00000, 6.75000, 0.00000
  5892, 70.00000, 8.31250, 0.00000
  5893, 70.00000, 9.87500, 0.00000
  5894, 70.00000, 11.43750, 0.00000
  5895, 70.00000, 13.00000, 0.00000
  5896, 70.00000, 0.49240, 0.08682
  5897, 70.00000, 2.03117, 0.35815
  5898, 70.00000, 3.56993, 0.62947
  5899, 70.00000, 5.10869, 0.90080
  5900, 70.00000, 6.64745, 1.17213
  5901, 70.00000, 8.18621, 1.44345
  5902, 70.00000, 9.72498, 1.71478
  5903, 70.00000, 11.26374, 1.98610
  5904, 70.00000, 12.80250, 2.25743
  5905, 70.00000, 0.46985, 0.17101
  5906, 70.00000, 1.93812, 0.70542
  5907, 70.00000, 3.40639, 1.23982
  5908, 70.00000, 4.87466, 1.77423
  5909, 70.00000, 6.34293, 2.30864
  5910, 70.00000, 7.81119, 2.84304
  5911, 70.00000, 9.27946, 3.37745
  5912, 70.00000, 10.74773, 3.91186
  5913, 70.00000, 12.21600, 4.44626
  5914, 70.00000, 0.43301, 0.25000
  5915, 70.00000, 1.78618, 1.03125
  5916, 70.00000, 3.13934, 1.81250
  5917, 70.00000, 4.49251, 2.59375
  5918, 70.00000, 5.84567, 3.37500
  5919, 70.00000, 7.19884, 4.15625
  5920, 70.00000, 8.55200, 4.93750
  5921, 70.00000, 9.90517, 5.71875
  5922, 70.00000, 11.25833, 6.50000
  5923, 70.00000, 0.38302, 0.32139
  5924, 70.00000, 1.57997, 1.32575
  5925, 70.00000, 2.77691, 2.33011
  5926, 70.00000, 3.97386, 3.33446
  5927, 70.00000, 5.17080, 4.33882
  5928, 70.00000, 6.36774, 5.34317
  5929, 70.00000, 7.56469, 6.34753
  5930, 70.00000, 8.76163, 7.35188
  5931, 70.00000, 9.95858, 8.35624
  5932, 70.00000, 0.32139, 0.38302
  5933, 70.00000, 1.32575, 1.57997
  5934, 70.00000, 2.33011, 2.77691
  5935, 70.00000, 3.33446, 3.97386
  5936, 70.00000, 4.33882, 5.17080
  5937, 70.00000, 5.34317, 6.36774
  5938, 70.00000, 6.34753, 7.56469
  5939, 70.00000, 7.35188, 8.76163
  5940, 70.00000, 8.35624, 9.95858
  5941, 70.00000, 0.25000, 0.43301
  5942, 70.00000, 1.03125, 1.78618
  5943, 70.00000, 1.81250, 3.13934
  5944, 70.00000, 2.59375, 4.49251
  5945, 70.00000, 3.37500, 5.84567
  5946, 70.00000, 4.15625, 7.19884
  5947, 70.00000, 4.93750, 8.55200
  5948, 70.00000, 5.71875, 9.90517
  5949, 70.00000, 6.50000, 11.25833
  5950, 70.00000, 0.17101, 0.46985
  5951, 70.00000, 0.70542, 1.93812
  5952, 70.00000, 1.23982, 3.40639
  5953, 70.00000, 1.77423, 4.87466
  5954, 70.00000, 2.30864, 6.34293
  5955, 70.00000, 2.84304, 7.81119
  5956, 70.00000, 3.37745, 9.27946
  5957, 70.00000, 3.91186, 10.74773
  5958, 70.00000, 4.44626, 12.21600
  5959, 70.00000, 0.08682, 0.49240
  5960, 70.00000, 0.35815, 2.03117
  5961, 70.00000, 0.62947, 3.56993
  5962, 70.00000, 0.90080, 5.10869
  5963, 70.00000, 1.17213, 6.64745
  5964, 70.00000, 1.44345, 8.18621
  5965, 70.00000, 1.71478, 9.72498
  5966, 70.00000, 1.98610, 11.26374
  5967, 70.00000, 2.25743, 12.80250
  5968, 70.00000, 0.00000, 0.50000
  5969, 70.00000, 0.00000, 2.06250
  5970, 70.00000, 0.00000, 3.62500
  5971, 70.00000, 0.00000, 5.18750
  5972, 70.00000, 0.00000, 6.75000
  5973, 70.00000, 0.00000, 8.31250
  5974, 70.00000, 0.00000, 9.87500
  5975, 70.00000, 0.00000, 11.43750
  5976, 70.00000, 0.00000, 13.00000
  5977, 70.00000, -0.08682, 0.49240
  5978, 70.00000, -0.35815, 2.03117
  5979, 70.00000, -0.62947, 3.56993
  5980, 70.00000, -0.90080, 5.10869
  5981, 70.00000, -1.17213, 6.64745
  5982, 70.00000, -1.44345, 8.18621
  5983, 70.00000, -1.71478, 9.72498
  5984, 70.00000, -1.98610, 11.26374
  5985, 70.00000, -2.25743, 12.80250
  5986, 70.00000, -0.17101, 0.46985
  5987, 70.00000, -0.70542, 1.93812
  5988, 70.00000, -1.23982, 3.40639
  5989, 70.00000, -1.77423, 4.87466
  5990, 70.00000, -2.30864, 6.34293
  5991, 70.00000, -2.84304, 7.81119
  5992, 70.00000, -3.37745, 9.27946
  5993, 70.00000, -3.91186, 10.74773
  5994, 70.00000, -4.44626, 12.21600
  5995, 70.00000, -0.25000, 0.43301
  5996, 70.00000, -1.03125, 1.78618
  5997, 70.00000, -1.81250, 3.13934
  5998, 70.00000, -2.59375, 4.49251
  5999, 70.00000, -3.37500, 5.84567
  6000, 70.00000, -4.15625, 7.19884
  6001, 70.00000, -4.93750, 8.55200
  6002, 70.00000, -5.71875, 9.90517
  6003, 70.00000, -6.50000, 11.25833
  6004, 70.00000, -0.32139, 0.38302
  6005, 70.00000, -1.32575, 1.57997
  6006, 70.00000, -2.33011, 2.77691
  6007, 70.00000, -3.33446, 3.97386
  6008, 70.00000, -4.33882, 5.17080
  6009, 70.00000, -5.34317, 6.36774
  6010, 70.00000, -6.34753, 7.56469
  6011, 70.00000, -7.35188, 8.76163
  6012, 70.00000, -8.35624, 9.95858
  6013, 70.00000, -0.38302, 0.32139
  6014, 70.00000, -1.57997, 1.32575
  6015, 70.00000, -2.77691, 2.33011
  6016, 70.00000, -3.97386, 3.33446
  6017, 70.00000, -5.17080, 4.33882
  6018, 70.00000, -6.36774, 5.34317
  6019, 70.00000, -7.56469, 6.34753
  6020, 70.00000, -8.76163, 7.35188
  6021, 70.00000, -9.95858, 8.35624
  6022, 70.00000, -0.43301, 0.25000
  6023, 70.00000, -1.78618, 1.03125
  6024, 70.00000, -3.13934, 1.81250
  6025, 70.00000, -4.49251, 2.59375
  6026, 70.00000, -5.84567, 3.37500
  6027, 70.00000, -7.19884, 4.15625
  6028, 70.00000, -8.55200, 4.93750
  6029, 70.00000, -9.90517, 5.71875
  6030, 70.00000, -11.25833, 6.50000
  6031, 70.00000, -0.46985, 0.17101
  6032, 70.00000, -1.93812, 0.70542
  6033, 70.00000, -3.40639, 1.23982
  6034, 70.00000, -4.87466, 1.77423
  6035, 70.00000, -6.34293, 2.30864
  6036, 70.00000, -7.81119, 2.84304
  6037, 70.00000, -9.27946, 3.37745
  6038, 70.00000, -10.74773, 3.91186
  6039, 70.00000, -12.21600, 4.44626
  6040, 70.00000, -0.49240, 0.08682
  6041, 70.00000, -2.03117, 0.35815
  6042, 70.00000, -3.56993, 0.62947
  6043, 70.00000, -5.10869, 0.90080
  6044, 70.00000, -6.64745, 1.17213
  6045, 70.00000, -8.18621, 1.44345
  6046, 70.00000, -9.72498, 1.71478
  6047, 70.00000, -11.26374, 1.98610
  6048, 70.00000, -12.80250, 2.25743
  6049, 70.00000, -0.50000, 0.00000
  6050, 70.00000, -2.06250, 0.00000
  6051, 70.00000, -3.62500, 0.00000
  6052, 70.00000, -5.18750, 0.00000
  6053, 70.00000, -6.75000, 0.00000
  6054, 70.00000, -8.31250, 0.00000
  6055, 70.00000, -9.87500, 0.00000
  6056, 70.00000, -11.43750, 0.00000
  6057, 70.00000, -13.00000, 0.00000
  6058, 70.00000, -0.49240, -0.08682
  6059, 70.00000, -2.03117, -0.35815
  6060, 70.00000, -3.56993, -0.62947
  6061, 70.00000, -5.10869, -0.90080
  6062, 70.00000, -6.64745, -1.17213
  6063, 70.00000, -8.18621, -1.44345
  6064, 70.00000, -9.72498, -1.71478
  6065, 70.00000, -11.26374, -1.98610
  6066, 70.00000, -12.80250, -2.25743
  6067, 70.00000, -0.46985, -0.17101
  6068, 70.00000, -1.93812, -0.70542
  6069, 70.00000, -3.40639, -1.23982
  6070, 70.00000, -4.87466, -1.77423
  6071, 70.00000, -6.34293, -2.30864
  6072, 70.00000, -7.81119, -2.84304
  6073, 70.00000, -9.27946, -3.37745
  6074, 70.00000, -10.74773, -3.91186
  6075, 70.00000, -12.21600, -4.44626
  6076, 70.00000, -0.43301, -0.25000
  6077, 70.00000, -1.78618, -1.03125
  6078, 70.00000, -3.13934, -1.81250
  6079, 70.00000, -4.49251, -2.59375
  6080, 70.00000, -5.84567, -3.37500
  6081, 70.00000, -7.19884, -4.15625
  6082, 70.00000, -8.55200, -4.93750
  6083, 70.00000, -9.90517, -5.71875
  6084, 70.00000, -11.25833, -6.50000
  6085, 70.00000, -0.38302, -0.32139
  6086, 70.00000, -1.57997, -1.32575
  6087, 70.00000, -2.77691, -2.33011
  6088, 70.00000, -3.97386, -3.33446
  6089, 70.00000, -5.17080, -4.33882
  6090, 70.00000, -6.36774, -5.34317
  6091, 70.00000, -7.56469, -6.34753
  6092, 70.00000, -8.76163, -7.35188
  6093, 70.00000, -9.95858, -8.35624
  6094, 70.00000, -0.32139, -0.38302
  6095, 70.00000, -1.32575, -1.57997
  6096, 70.00000, -2.33011, -2.77691
  6097, 70.00000, -3.33446, -3.97386
  6098, 70.00000, -4.33882, -5.17080
  6099, 70.00000, -5.34317, -6.36774
  6100, 70.00000, -6.34753, -7.56469
  6101, 70.00000, -7.35188, -8.76163
  6102, 70.00000, -8.35624, -9.95858
  6103, 70.00000, -0.25000, -0.43301
  6104, 70.00000, -1.03125, -1.78618
  6105, 70.00000, -1.81250, -3.13934
  6106, 70.00000, -2.59375, -4.49251
  6107, 70.00000, -3.37500, -5.84567
  6108, 70.00000, -4.15625, -7.19884
  6109, 70.00000, -4.93750, -8.55200
  6110, 70.00000, -5.71875, -9.90517
  6111, 70.00000, -6.50000, -11.25833
  6112, 70.00000, -0.17101, -0.46985
  6113, 70.00000, -0.70542, -1.93812
  6114, 70.00000, -1.23982, -3.40639
  6115, 70.00000, -1.77423, -4.87466
  6116, 70.00000, -2.30864, -6.34293
  6117, 70.00000, -2.84304, -7.81119
  6118, 70.00000, -3.37745, -9.27946
  6119, 70.00000, -3.91186, -10.74773
  6120, 70.00000, -4.44626, -12.21600
  6121, 70.00000, -0.08682, -0.49240
  6122, 70.00000, -0.35815, -2.03117
  6123, 70.00000, -0.62947, -3.56993
  6124, 70.00000, -0.90080, -5.10869
  6125, 70.00000, -1.17213, -6.64745
  6126, 70.00000, -1.44345, -8.18621
  6127, 70.00000, -1.71478, -9.72498
  6128, 70.00000, -1.98610, -11.26374
  6129, 70.00000, -2.25743, -12.80250
  6130, 70.00000, -0.00000, -0.50000
  6131, 70.00000, -0.00000, -2.06250
  6132, 70.00000, -0.00000, -3.62500
  6133, 70.00000, -0.00000, -5.18750
  6134, 70.00000, -0.00000, -6.75000
  6135, 70.00000, -0.00000, -8.31250
  6136, 70.00000, -0.00000, -9.87500
  6137, 70.00000, -0.00000, -11.43750
  6138, 70.00000, -0.00000, -13.00000
  6139, 70.00000, 0.08682, -0.49240
  6140, 70.00000, 0.35815, -2.03117
  6141, 70.00000, 0.62947, -3.56993
  6142, 70.00000, 0.90080, -5.10869
  6143, 70.00000, 1.17213, -6.64745
  6144, 70.00000, 1.44345, -8.18621
  6145, 70.00000, 1.71478, -9.72498
  6146, 70.00000, 1.98610, -11.26374
  6147, 70.00000, 2.25743, -12.80250
  6148, 70.00000, 0.17101, -0.46985
  6149, 70.00000, 0.70542, -1.93812
  6150, 70.00000, 1.23982, -3.40639
  6151, 70.00000, 1.77423, -4.87466
  6152, 70.00000, 2.30864, -6.34293
  6153, 70.00000, 2.84304, -7.81119
  6154, 70.00000, 3.37745, -9.27946
  6155, 70.00000, 3.91186, -10.74773
  6156, 70.00000, 4.44626, -12.21600
  6157, 70.00000, 0.25000, -0.43301
  6158, 70.00000, 1.03125, -1.78618
  6159, 70.00000, 1.81250, -3.13934
  6160, 70.00000, 2.59375, -4.49251
  6161, 70.00000, 3.37500, -5.84567
  6162, 70.00000, 4.15625, -7.19884
  6163, 70.00000, 4.93750, -8.55200
  6164, 70.00000, 5.71875, -9.90517
  6165, 70.00000, 6.50000, -11.25833
  6166, 70.00000, 0.32139, -0.38302
  6167, 70.00000, 1.32575, -1.57997
  6168, 70.00000, 2.33011, -2.77691
  6169, 70.00000, 3.33446, -3.97386
  6170, 70.00000, 4.33882, -5.17080
  6171, 70.00000, 5.34317, -6.36774
  6172, 70.00000, 6.34753, -7.56469
  6173, 70.00000, 7.35188, -8.76163
  6174, 70.00000, 8.35624, -9.95858
  6175, 70.00000, 0.38302, -0.32139
  6176, 70.00000, 1.57997, -1.32575
  6177, 70.00000, 2.77691, -2.33011
  6178, 70.00000, 3.97386, -3.33446
  6179, 70.00000, 5.17080, -4.33882
  6180, 70.00000, 6.36774, -5.34317
  6181, 70.00000, 7.56469, -6.34753
  6182, 70.00000, 8.76163, -7.35188
  6183, 70.00000, 9.95858, -8.35624
  6184, 70.00000, 0.43301, -0.25000
  6185, 70.00000, 1.78618, -1.03125
  6186, 70.00000, 3.13934, -1.81250
  6187, 70.00000, 4.49251, -2.59375
  6188, 70.00000, 5.84567, -3.37500
  6189, 70.00000, 7.19884, -4.15625
  6190, 70.00000, 8.55200, -4.93750
  6191, 70.00000, 9.90517, -5.71875
  6192, 70.00000, 11.25833, -6.50000
  6193, 70.00000, 0.46985, -0.17101
  6194, 70.00000, 1.93812, -0.70542
  6195, 70.00000, 3.40639, -1.23982
  6196, 70.00000, 4.87466, -1.77423
  6197, 70.00000, 6.34293, -2.30864
  6198, 70.00000, 7.81119, -2.84304
  6199, 70.00000, 9.27946, -3.37745
  6200, 70.00000, 10.74773, -3.91186
  6201, 70.00000, 12.21600, -4.44626
  6202, 70.00000, 0.49240, -0.08682
  6203, 70.00000, 2.03117, -0.35815
  6204, 70.00000, 3.56993, -0.62947
  6205, 70.00000, 5.10869, -0.90080
  6206, 70.00000, 6.64745, -1.17213
  6207, 70.00000, 8.18621, -1.44345
  6208, 70.00000, 9.72498, -1.71478
  6209, 70.00000, 11.26374, -1.98610
  6210, 70.00000, 12.80250, -2.25743
  6211, 70.00000, 0.50000, -0.00000
  6212, 70.00000, 2.06250, -0.00000
  6213, 70.00000, 3.62500, -0.00000
  6214, 70.00000, 5.18750, -0.00000
  6215, 70.00000, 6.75000, -0.00000
  6216, 70.00000, 8.31250, -0.00000
  6217, 70.00000, 9.87500, -0.00000
  6218, 70.00000, 11.43750, -0.00000
  6219, 70.00000, 13.00000, -0.00000
  6220, 75.00000, 0.50000, 0.00000
  6221, 75.00000, 2.06250, 0.00000
  6222, 75.00000, 3.62500, 0.00000
  6223, 75.00000, 5.18750, 0.00000
  6224, 75.00000, 6.75000, 0.00000
  6225, 75.00000, 8.31250, 0.00000
  6226, 75.00000, 9.87500, 0.00000
  6227, 75.00000, 11.43750, 0.00000
  6228, 75.00000, 13.00000, 0.00000
  6229, 75.00000, 0.49240, 0.08682
  6230, 75.00000, 2.03117, 0.35815
  6231, 75.00000, 3.56993, 0.62947
  6232, 75.00000, 5.10869, 0.90080
  6233, 75.00000, 6.64745, 1.17213
  6234, 75.00000, 8.18621, 1.44345
  6235, 75.00000, 9.72498, 1.71478
  6236, 75.00000, 11.26374, 1.98610
  6237, 75.00000, 12.80250, 2.25743
  6238, 75.00000, 0.46985, 0.17101
  6239, 75.00000, 1.93812, 0.70542
  6240, 75.00000, 3.40639, 1.23982
  6241, 75.00000, 4.87466, 1.77423
  6242, 75.00000, 6.34293, 2.30864
  6243, 75.00000, 7.81119, 2.84304
  6244, 75.00000, 9.27946, 3.37745
  6245, 75.00000, 10.74773, 3.91186
  6246, 75.00000, 12.21600, 4.44626
  6247, 75.00000, 0.43301, 0.25000
  6248, 75.00000, 1.78618, 1.03125
  6249, 75.00000, 3.13934, 1.81250
  6250, 75.00000, 4.49251, 2.59375
  6251, 75.00000, 5.84567, 3.37500
  6252, 75.00000, 7.19884, 4.15625
  6253, 75.00000, 8.55200, 4.93750
  6254, 75.00000, 9.90517, 5.71875
  6255, 75.00000, 11.25833, 6.50000
  6256, 75.00000, 0.38302, 0.32139
  6257, 75.00000, 1.57997, 1.32575
  6258, 75.00000, 2.77691, 2.33011
  6259, 75.00000, 3.97386, 3.33446
  6260, 75.00000, 5.17080, 4.33882
  6261, 75.00000, 6.36774, 5.34317
  6262, 75.00000, 7.56469, 6.34753
  6263, 75.00000, 8.76163, 7.35188
  6264, 75.00000, 9.95858, 8.35624
  6265, 75.00000, 0.32139, 0.38302
  6266, 75.00000, 1.32575, 1.57997
  6267, 75.00000, 2.33011, 2.77691
  6268, 75.00000, 3.33446, 3.97386
  6269, 75.00000, 4.33882, 5.17080
  6270, 75.00000, 5.34317, 6.36774
  6271, 75.00000, 6.34753, 7.56469
  6272, 75.00000, 7.35188, 8.76163
  6273, 75.00000, 8.35624, 9.95858
  6274, 75.00000, 0.25000, 0.43301
  6275, 75.00000, 1.03125, 1.78618
  6276, 75.00000, 1.81250, 3.13934
  6277, 75.00000, 2.59375, 4.49251
  6278, 75.00000, 3.37500, 5.84567
  6279, 75.00000, 4.15625, 7.19884
  6280, 75.00000, 4.93750, 8.55200
  6281, 75.00000, 5.71875, 9.90517
  6282, 75.00000, 6.50000, 11.25833
  6283, 75.00000, 0.17101, 0.46985
  6284, 75.00000, 0.70542, 1.93812
  6285, 75.00000, 1.23982, 3.40639
  6286, 75.00000, 1.77423, 4.87466
  6287, 75.00000, 2.30864, 6.34293
  6288, 75.00000, 2.84304, 7.81119
  6289, 75.00000, 3.37745, 9.27946
  6290, 75.00000, 3.91186, 10.74773
  6291, 75.00000, 4.44626, 12.21600
  6292, 75.00000, 0.08682, 0.49240
  6293, 75.00000, 0.35815, 2.03117
  6294, 75.00000, 0.62947, 3.56993
  6295, 75.00000, 0.90080, 5.10869
  6296, 75.00000, 1.17213, 6.64745
  6297, 75.00000, 1.44345, 8.18621
  6298, 75.00000, 1.71478, 9.72498
  6299, 75.00000, 1.98610, 11.26374
  6300, 75.00000, 2.25743, 12.80250
  6301, 75.00000, 0.00000, 0.50000
  6302, 75.00000, 0.00000, 2.06250
  6303, 75.00000, 0.00000, 3.62500
  6304, 75.00000, 0.00000, 5.18750
  6305, 75.00000, 0.00000, 6.75000
  6306, 75.00000, 0.00000, 8.31250
  6307, 75.00000, 0.00000, 9.87500
  6308, 75.00000, 0.00000, 11.43750
  6309, 75.00000, 0.00000, 13.00000
  6310, 75.00000, -0.08682, 0.49240
  6311, 75.00000, -0.35815, 2.03117
  6312, 75.00000, -0.62947, 3.56993
  6313, 75.00000, -0.90080, 5.10869
  6314, 75.00000, -1.17213, 6.64745
  6315, 75.00000, -1.44345, 8.18621
  6316, 75.00000, -1.71478, 9.72498
  6317, 75.00000, -1.98610, 11.26374
  6318, 75.00000, -2.25743, 12.80250
  6319, 75.00000, -0.17101, 0.46985
  6320, 75.00000, -0.70542, 1.93812
  6321, 75.00000, -1.23982, 3.40639
  6322, 75.00000, -1.77423, 4.87466
  6323, 75.00000, -2.30864, 6.34293
  6324, 75.00000, -2.84304, 7.81119
  6325, 75.00000, -3.37745, 9.27946
  6326, 75.00000, -3.91186, 10.74773
  6327, 75.00000, -4.44626, 12.21600
  6328, 75.00000, -0.25000, 0.43301
  6329, 75.00000, -1.03125, 1.78618
  6330, 75.00000, -1.81250, 3.13934
  6331, 75.00000, -2.59375, 4.49251
  6332, 75.00000, -3.37500, 5.84567
  6333, 75.00000, -4.15625, 7.19884
  6334, 75.00000, -4.93750, 8.55200
  6335, 75.00000, -5.71875, 9.90517
  6336, 75.00000, -6.50000, 11.25833
  6337, 75.00000, -0.32139, 0.38302
  6338, 75.00000, -1.32575, 1.57997
  6339, 75.00000, -2.33011, 2.77691
  6340, 75.00000, -3.33446, 3.97386
  6341, 75.00000, -4.33882, 5.17080
  6342, 75.00000, -5.34317, 6.36774
  6343, 75.00000, -6.34753, 7.56469
  6344, 75.00000, -7.35188, 8.76163
  6345, 75.00000, -8.35624, 9.95858
  6346, 75.00000, -0.38302, 0.32139
  6347, 75.00000, -1.57997, 1.32575
  6348, 75.00000, -2.77691, 2.33011
  6349, 75.00000, -3.97386, 3.33446
  6350, 75.00000, -5.17080, 4.33882
  6351, 75.00000, -6.36774, 5.34317
  6352, 75.00000, -7.56469, 6.34753
  6353, 75.00000, -8.76163, 7.35188
  6354, 75.00000, -9.95858, 8.35624
  6355, 75.00000, -0.43301, 0.25000
  6356, 75.00000, -1.78618, 1.03125
  6357, 75.00000, -3.13934, 1.81250
  6358, 75.00000, -4.49251, 2.59375
  6359, 75.00000, -5.84567, 3.37500
  6360, 75.00000, -7.19884, 4.15625
  6361, 75.00000, -8.55200, 4.93750
  6362, 75.00000, -9.90517, 5.71875
  6363, 75.00000, -11.25833, 6.50000
  6364, 75.00000, -0.46985, 0.17101
  6365, 75.00000, -1.93812, 0.70542
  6366, 75.00000, -3.40639, 1.23982
  6367, 75.00000, -4.87466, 1.77423
  6368, 75.00000, -6.34293, 2.30864
  6369, 75.00000, -7.81119, 2.84304
  6370, 75.00000, -9.27946, 3.37745
  6371, 75.00000, -10.74773, 3.91186
  6372, 75.00000, -12.21600, 4.44626
  6373, 75.00000, -0.49240, 0.08682
  6374, 75.00000, -2.03117, 0.35815
  6375, 75.00000, -3.56993, 0.62947
  6376, 75.00000, -5.10869, 0.90080
  6377, 75.00000, -6.64745, 1.17213
  6378, 75.00000, -8.18621, 1.44345
  6379, 75.00000, -9.72498, 1.71478
  6380, 75.00000, -11.26374, 1.98610
  6381, 75.00000, -12.80250, 2.25743
  6382, 75.00000, -0.50000, 0.00000
  6383, 75.00000, -2.06250, 0.00000
  6384, 75.00000, -3.62500, 0.00000
  6385, 75.00000, -5.18750, 0.00000
  6386, 75.00000, -6.75000, 0.00000
  6387, 75.00000, -8.31250, 0.00000
  6388, 75.00000, -9.87500, 0.00000
  6389, 75.00000, -11.43750, 0.00000
  6390, 75.00000, -13.00000, 0.00000
  6391, 75.00000, -0.49240, -0.08682
  6392, 75.00000, -2.03117, -0.35815
  6393, 75.00000, -3.56993, -0.62947
  6394, 75.00000, -5.10869, -0.90080
  6395, 75.00000, -6.64745, -1.17213
  6396, 75.00000, -8.18621, -1.44345
  6397, 75.00000, -9.72498, -1.71478
  6398, 75.00000, -11.26374, -1.98610
  6399, 75.00000, -12.80250, -2.25743
  6400, 75.00000, -0.46985, -0.17101
  6401, 75.00000, -1.93812, -0.70542
  6402, 75.00000, -3.40639, -1.23982
  6403, 75.00000, -4.87466, -1.77423
  6404, 75.00000, -6.34293, -2.30864
  6405, 75.00000, -7.81119, -2.84304
  6406, 75.00000, -9.27946, -3.37745
  6407, 75.00000, -10.74773, -3.91186
  6408, 75.00000, -12.21600, -4.44626
  6409, 75.00000, -0.43301, -0.25000
  6410, 75.00000, -1.78618, -1.03125
  6411, 75.00000, -3.13934, -1.81250
  6412, 75.00000, -4.49251, -2.59375
  6413, 75.00000, -5.84567, -3.37500
  6414, 75.00000, -7.19884, -4.15625
  6415, 75.00000, -8.55200, -4.93750
  6416, 75.00000, -9.90517, -5.71875
  6417, 75.00000, -11.25833, -6.50000
  6418, 75.00000, -0.38302, -0.32139
  6419, 75.00000, -1.57997, -1.32575
  6420, 75.00000, -2.77691, -2.33011
  6421, 75.00000, -3.97386, -3.33446
  6422, 75.00000, -5.17080, -4.33882
  6423, 75.00000, -6.36774, -5.34317
  6424, 75.00000, -7.56469, -6.34753
  6425, 75.00000, -8.76163, -7.35188
  6426, 75.00000, -9.95858, -8.35624
  6427, 75.00000, -0.32139, -0.38302
  6428, 75.00000, -1.32575, -1.57997
  6429, 75.00000, -2.33011, -2.77691
  6430, 75.00000, -3.33446, -3.97386
  6431, 75.00000, -4.33882, -5.17080
  6432, 75.00000, -5.34317, -6.36774
  6433, 75.00000, -6.34753, -7.56469
  6434, 75.00000, -7.35188, -8.76163
  6435, 75.00000, -8.35624, -9.95858
  6436, 75.00000, -0.25000, -0.43301
  6437, 75.00000, -1.03125, -1.78618
  6438, 75.00000, -1.81250, -3.13934
  6439, 75.00000, -2.59375, -4.49251
  6440, 75.00000, -3.37500, -5.84567
  6441, 75.00000, -4.15625, -7.19884
  6442, 75.00000, -4.93750, -8.55200
  6443, 75.00000, -5.71875, -9.90517
  6444, 75.00000, -6.50000, -11.25833
  6445, 75.00000, -0.17101, -0.46985
  6446, 75.00000, -0.70542, -1.93812
  6447, 75.00000, -1.23982, -3.40639
  6448, 75.00000, -1.77423, -4.87466
  6449, 75.00000, -2.30864, -6.34293
  6450, 75.00000, -2.84304, -7.81119
  6451, 75.00000, -3.37745, -9.27946
  6452, 75.00000, -3.91186, -10.74773
  6453, 75.00000, -4.44626, -12.21600
  6454, 75.00000, -0.08682, -0.49240
  6455, 75.00000, -0.35815, -2.03117
  6456, 75.00000, -0.62947, -3.56993
  6457, 75.00000, -0.90080, -5.10869
  6458, 75.00000, -1.17213, -6.64745
  6459, 75.00000, -1.44345, -8.18621
  6460, 75.00000, -1.71478, -9.72498
  6461, 75.00000, -1.98610, -11.26374
  6462, 75.00000, -2.25743, -12.80250
  6463, 75.00000, -0.00000, -0.50000
  6464, 75.00000, -0.00000, -2.06250
  6465, 75.00000, -0.00000, -3.62500
  6466, 75.00000, -0.00000, -5.18750
  6467, 75.00000, -0.00000, -6.75000
  6468, 75.00000, -0.00000, -8.31250
  6469, 75.00000, -0.00000, -9.87500
  6470, 75.00000, -0.00000, -11.43750
  6471, 75.00000, -0.00000, -13.00000
  6472, 75.00000, 0.08682, -0.49240
  6473, 75.00000, 0.35815, -2.03117
  6474, 75.00000, 0.62947, -3.56993
  6475, 75.00000, 0.90080, -5.10869
  6476, 75.00000, 1.17213, -6.64745
  6477, 75.00000, 1.44345, -8.18621
  6478, 75.00000, 1.71478, -9.72498
  6479, 75.00000, 1.98610, -11.26374
  6480, 75.00000, 2.25743, -12.80250
  6481, 75.00000, 0.17101, -0.46985
  6482, 75.00000, 0.70542, -1.93812
  6483, 75.00000, 1.23982, -3.40639
  6484, 75.00000, 1.77423, -4.87466
  6485, 75.00000, 2.30864, -6.34293
  6486, 75.00000, 2.84304, -7.81119
  6487, 75.00000, 3.37745, -9.27946
  6488, 75.00000, 3.91186, -10.74773
  6489, 75.00000, 4.44626, -12.21600
  6490, 75.00000, 0.25000, -0.43301
  6491, 75.00000, 1.03125, -1.78618
  6492, 75.00000, 1.81250, -3.13934
  6493, 75.00000, 2.59375, -4.49251
  6494, 75.00000, 3.37500, -5.84567
  6495, 75.00000, 4.15625, -7.19884
  6496, 75.00000, 4.93750, -8.55200
  6497, 75.00000, 5.71875, -9.90517
  6498, 75.00000, 6.50000, -11.25833
  6499, 75.00000, 0.32139, -0.38302
  6500, 75.00000, 1.32575, -1.57997
  6501, 75.00000, 2.33011, -2.77691
  6502, 75.00000, 3.33446, -3.97386
  6503, 75.00000, 4.33882, -5.17080
  6504, 75.00000, 5.34317, -6.36774
  6505, 75.00000, 6.34753, -7.56469
  6506, 75.00000, 7.35188, -8.76163
  6507, 75.00000, 8.35624, -9.95858
  6508, 75.00000, 0.38302, -0.32139
  6509, 75.00000, 1.57997, -1.32575
  6510, 75.00000, 2.77691, -2.33011
  6511, 75.00000, 3.97386, -3.33446
  6512, 75.00000, 5.17080, -4.33882
  6513, 75.00000, 6.36774, -5.34317
  6514, 75.00000, 7.56469, -6.34753
  6515, 75.00000, 8.76163, -7.35188
  6516, 75.00000, 9.95858, -8.35624
  6517, 75.00000, 0.43301, -0.25000
  6518, 75.00000, 1.78618, -1.03125
  6519, 75.00000, 3.13934, -1.81250
  6520, 75.00000, 4.49251, -2.59375
  6521, 75.00000, 5.84567, -3.37500
  6522, 75.00000, 7.19884, -4.15625
  6523, 75.00000, 8.55200, -4.93750
  6524, 75.00000, 9.90517, -5.71875
  6525, 75.00000, 11.25833, -6.50000
  6526, 75.00000, 0.46985, -0.17101
  6527, 75.00000, 1.93812, -0.70542
  6528, 75.00000, 3.40639, -1.23982
  6529, 75.00000, 4.87466, -1.77423
  6530, 75.00000, 6.34293, -2.30864
  6531, 75.00000, 7.81119, -2.84304
  6532, 75.00000, 9.27946, -3.37745
  6533, 75.00000, 10.74773, -3.91186
  6534, 75.00000, 12.21600, -4.44626
  6535, 75.00000, 0.49240, -0.08682
  6536, 75.00000, 2.03117, -0.35815
  6537, 75.00000, 3.56993, -0.62947
  6538, 75.00000, 5.10869, -0.90080
  6539, 75.00000, 6.64745, -1.17213
  6540, 75.00000, 8.18621, -1.44345
  6541, 75.00000, 9.72498, -1.71478
  6542, 75.00000, 11.26374, -1.98610
  6543, 75.00000, 12.80250, -2.25743
  6544, 75.00000, 0.50000, -0.00000
  6545, 75.00000, 2.06250, -0.00000
  6546, 75.00000, 3.62500, -0.00000
  6547, 75.00000, 5.18750, -0.00000
  6548, 75.00000, 6.75000, -0.00000
  6549, 75.00000, 8.31250, -0.00000
  6550, 75.00000, 9.87500, -0.00000
  6551, 75.00000, 11.43750, -0.00000
  6552, 75.00000, 13.00000, -0.00000
  6553, 80.00000, 0.50000, 0.00000
  6554, 80.00000, 2.06250, 0.00000
  6555, 80.00000, 3.62500, 0.00000
  6556, 80.00000, 5.18750, 0.00000
  6557, 80.00000, 6.75000, 0.00000
  6558, 80.00000, 8.31250, 0.00000
  6559, 80.00000, 9.87500, 0.00000
  6560, 80.00000, 11.43750, 0.00000
  6561, 80.00000, 13.00000, 0.00000
  6562, 80.00000, 0.49240, 0.08682
  6563, 80.00000, 2.03117, 0.35815
  6564, 80.00000, 3.56993, 0.62947
  6565, 80.00000, 5.10869, 0.90080
  6566, 80.00000, 6.64745, 1.17213
  6567, 80.00000, 8.18621, 1.44345
  6568, 80.00000, 9.72498, 1.71478
  6569, 80.00000, 11.26374, 1.98610
  6570, 80.00000, 12.80250, 2.25743
  6571, 80.00000, 0.46985, 0.17101
  6572, 80.00000, 1.93812, 0.70542
  6573, 80.00000, 3.40639, 1.23982
  6574, 80.00000, 4.87466, 1.77423
  6575, 80.00000, 6.34293, 2.30864
  6576, 80.00000, 7.81119, 2.84304
  6577, 80.00000, 9.27946, 3.37745
  6578, 80.00000, 10.74773, 3.91186
  6579, 80.00000, 12.21600, 4.44626
  6580, 80.00000, 0.43301, 0.25000
  6581, 80.00000, 1.78618, 1.03125
  6582, 80.00000, 3.13934, 1.81250
  6583, 80.00000, 4.49251, 2.59375
  6584, 80.00000, 5.84567, 3.37500
  6585, 80.00000, 7.19884, 4.15625
  6586, 80.00000, 8.55200, 4.93750
  6587, 80.00000, 9.90517, 5.71875
  6588, 80.00000, 11.25833, 6.50000
  6589, 80.00000, 0.38302, 0.32139
  6590, 80.00000, 1.57997, 1.32575
  6591, 80.00000, 2.77691, 2.33011
  6592, 80.00000, 3.97386, 3.33446
  6593, 80.00000, 5.17080, 4.33882
  6594, 80.00000, 6.36774, 5.34317
  6595, 80.00000, 7.56469, 6.34753
  6596, 80.00000, 8.76163, 7.35188
  6597, 80.00000, 9.95858, 8.35624
  6598, 80.00000, 0.32139, 0.38302
  6599, 80.00000, 1.32575, 1.57997
  6600, 80.00000, 2.33011, 2.77691
  6601, 80.00000, 3.33446, 3.97386
  6602, 80.00000, 4.33882, 5.17080
  6603, 80.00000, 5.34317, 6.36774
  6604, 80.00000, 6.34753, 7.56469
  6605, 80.00000, 7.35188, 8.76163
  6606, 80.00000, 8.35624, 9.95858
  6607, 80.00000, 0.25000, 0.43301
  6608, 80.00000, 1.03125, 1.78618
  6609, 80.00000, 1.81250, 3.13934
  6610, 80.00000, 2.59375, 4.49251
  6611, 80.00000, 3.37500, 5.84567
  6612, 80.00000, 4.15625, 7.19884
  6613, 80.00000, 4.93750, 8.55200
  6614, 80.00000, 5.71875, 9.90517
  6615, 80.00000, 6.50000, 11.25833
  6616, 80.00000, 0.17101, 0.46985
  6617, 80.00000, 0.70542, 1.93812
  6618, 80.00000, 1.23982, 3.40639
  6619, 80.00000, 1.77423, 4.87466
  6620, 80.00000, 2.30864, 6.34293
  6621, 80.00000, 2.84304, 7.81119
  6622, 80.00000, 3.37745, 9.27946
  6623, 80.00000, 3.91186, 10.74773
  6624, 80.00000, 4.44626, 12.21600
  6625, 80.00000, 0.08682, 0.49240
  6626, 80.00000, 0.35815, 2.03117
  6627, 80.00000, 0.62947, 3.56993
  6628, 80.00000, 0.90080, 5.10869
  6629, 80.00000, 1.17213, 6.64745
  6630, 80.00000, 1.44345, 8.18621
  6631, 80.00000, 1.71478, 9.72498
  6632, 80.00000, 1.98610, 11.26374
  6633, 80.00000, 2.25743, 12.80250
  6634, 80.00000, 0.00000, 0.50000
  6635, 80.00000, 0.00000, 2.06250
  6636, 80.00000, 0.00000, 3.62500
  6637, 80.00000, 0.00000, 5.18750
  6638, 80.00000, 0.00000, 6.75000
  6639, 80.00000, 0.00000, 8.31250
  6640, 80.00000, 0.00000, 9.87500
  6641, 80.00000, 0.00000, 11.43750
  6642, 80.00000, 0.00000, 13.00000
  6643, 80.00000, -0.08682, 0.49240
  6644, 80.00000, -0.35815, 2.03117
  6645, 80.00000, -0.62947, 3.56993
  6646, 80.00000, -0.90080, 5.10869
  6647, 80.00000, -1.17213, 6.64745
  6648, 80.00000, -1.44345, 8.18621
  6649, 80.00000, -1.71478, 9.72498
  6650, 80.00000, -1.98610, 11.26374
  6651, 80.00000, -2.25743, 12.80250
  6652, 80.00000, -0.17101, 0.46985
  6653, 80.00000, -0.70542, 1.93812
  6654, 80.00000, -1.23982, 3.40639
  6655, 80.00000, -1.77423, 4.87466
  6656, 80.00000, -2.30864, 6.34293
  6657, 80.00000, -2.84304, 7.81119
  6658, 80.00000, -3.37745, 9.27946
  6659, 80.00000, -3.91186, 10.74773
  6660, 80.00000, -4.44626, 12.21600
  6661, 80.00000, -0.25000, 0.43301
  6662, 80.00000, -1.03125, 1.78618
  6663, 80.00000, -1.81250, 3.13934
  6664, 80.00000, -2.59375, 4.49251
  6665, 80.00000, -3.37500, 5.84567
  6666, 80.00000, -4.15625, 7.19884
  6667, 80.00000, -4.93750, 8.55200
  6668, 80.00000, -5.71875, 9.90517
  6669, 80.00000, -6.50000, 11.25833
  6670, 80.00000, -0.32139, 0.38302
  6671, 80.00000, -1.32575, 1.57997
  6672, 80.00000, -2.33011, 2.77691
  6673, 80.00000, -3.33446, 3.97386
  6674, 80.00000, -4.33882, 5.17080
  6675, 80.00000, -5.34317, 6.36774
  6676, 80.00000, -6.34753, 7.56469
  6677, 80.00000, -7.35188, 8.76163
  6678, 80.00000, -8.35624, 9.95858
  6679, 80.00000, -0.38302, 0.32139
  6680, 80.00000, -1.57997, 1.32575
  6681, 80.00000, -2.77691, 2.33011
  6682, 80.00000, -3.97386, 3.33446
  6683, 80.00000, -5.17080, 4.33882
  6684, 80.00000, -6.36774, 5.34317
  6685, 80.00000, -7.56469, 6.34753
  6686, 80.00000, -8.76163, 7.35188
  6687, 80.00000, -9.95858, 8.35624
  6688, 80.00000, -0.43301, 0.25000
  6689, 80.00000, -1.78618, 1.03125
  6690, 80.00000, -3.13934, 1.81250
  6691, 80.00000, -4.49251, 2.59375
  6692, 80.00000, -5.84567, 3.37500
  6693, 80.00000, -7.19884, 4.15625
  6694, 80.00000, -8.55200, 4.93750
  6695, 80.00000, -9.90517, 5.71875
  6696, 80.00000, -11.25833, 6.50000
  6697, 80.00000, -0.46985, 0.17101
  6698, 80.00000, -1.93812, 0.70542
  6699, 80.00000, -3.40639, 1.23982
  6700, 80.00000, -4.87466, 1.77423
  6701, 80.00000, -6.34293, 2.30864
  6702, 80.00000, -7.81119, 2.84304
  6703, 80.00000, -9.27946, 3.37745
  6704, 80.00000, -10.74773, 3.91186
  6705, 80.00000, -12.21600, 4.44626
  6706, 80.00000, -0.49240, 0.08682
  6707, 80.00000, -2.03117, 0.35815
  6708, 80.00000, -3.56993, 0.62947
  6709, 80.00000, -5.10869, 0.90080
  6710, 80.00000, -6.64745, 1.17213
  6711, 80.00000, -8.18621, 1.44345
  6712, 80.00000, -9.72498, 1.71478
  6713, 80.00000, -11.26374, 1.98610
  6714, 80.00000, -12.80250, 2.25743
  6715, 80.00000, -0.50000, 0.00000
  6716, 80.00000, -2.06250, 0.00000
  6717, 80.00000, -3.62500, 0.00000
  6718, 80.00000, -5.18750, 0.00000
  6719, 80.00000, -6.75000, 0.00000
  6720, 80.00000, -8.31250, 0.00000
  6721, 80.00000, -9.87500, 0.00000
  6722, 80.00000, -11.43750, 0.00000
  6723, 80.00000, -13.00000, 0.00000
  6724, 80.00000, -0.49240, -0.08682
  6725, 80.00000, -2.03117, -0.35815
  6726, 80.00000, -3.56993, -0.62947
  6727, 80.00000, -5.10869, -0.90080
  6728, 80.00000, -6.64745, -1.17213
  6729, 80.00000, -8.18621, -1.44345
  6730, 80.00000, -9.72498, -1.71478
  6731, 80.00000, -11.26374, -1.98610
  6732, 80.00000, -12.80250, -2.25743
  6733, 80.00000, -0.46985, -0.17101
  6734, 80.00000, -1.93812, -0.70542
  6735, 80.00000, -3.40639, -1.23982
  6736, 80.00000, -4.87466, -1.77423
  6737, 80.00000, -6.34293, -2.30864
  6738, 80.00000, -7.81119, -2.84304
  6739, 80.00000, -9.27946, -3.37745
  6740, 80.00000, -10.74773, -3.91186
  6741, 80.00000, -12.21600, -4.44626
  6742, 80.00000, -0.43301, -0.25000
  6743, 80.00000, -1.78618, -1.03125
  6744, 80.00000, -3.13934, -1.81250
  6745, 80.00000, -4.49251, -2.59375
  6746, 80.00000, -5.84567, -3.37500
  6747, 80.00000, -7.19884, -4.15625
  6748, 80.00000, -8.55200, -4.93750
  6749, 80.00000, -9.90517, -5.71875
  6750, 80.00000, -11.25833, -6.50000
  6751, 80.00000, -0.38302, -0.32139
  6752, 80.00000, -1.57997, -1.32575
  6753, 80.00000, -2.77691, -2.33011
  6754, 80.00000, -3.97386, -3.33446
  6755, 80.00000, -5.17080, -4.33882
  6756, 80.00000, -6.36774, -5.34317
  6757, 80.00000, -7.56469, -6.34753
  6758, 80.00000, -8.76163, -7.35188
  6759, 80.00000, -9.95858, -8.35624
  6760, 80.00000, -0.32139, -0.38302
  6761, 80.00000, -1.32575, -1.57997
  6762, 80.00000, -2.33011, -2.77691
  6763, 80.00000, -3.33446, -3.97386
  6764, 80.00000, -4.33882, -5.17080
  6765, 80.00000, -5.34317, -6.36774
  6766, 80.00000, -6.34753, -7.56469
  6767, 80.00000, -7.35188, -8.76163
  6768, 80.00000, -8.35624, -9.95858
  6769, 80.00000, -0.25000, -0.43301
  6770, 80.00000, -1.03125, -1.78618
  6771, 80.00000, -1.81250, -3.13934
  6772, 80.00000, -2.59375, -4.49251
  6773, 80.00000, -3.37500, -5.84567
  6774, 80.00000, -4.15625, -7.19884
  6775, 80.00000, -4.93750, -8.55200
  6776, 80.00000, -5.71875, -9.90517
  6777, 80.00000, -6.50000, -11.25833
  6778, 80.00000, -0.17101, -0.46985
  6779, 80.00000, -0.70542, -1.93812
  6780, 80.00000, -1.23982, -3.40639
  6781, 80.00000, -1.77423, -4.87466
  6782, 80.00000, -2.30864, -6.34293
  6783, 80.00000, -2.84304, -7.81119
  6784, 80.00000, -3.37745, -9.27946
  6785, 80.00000, -3.91186, -10.74773
  6786, 80.00000, -4.44626, -12.21600
  6787, 80.00000, -0.08682, -0.49240
  6788, 80.00000, -0.35815, -2.03117
  6789, 80.00000, -0.62947, -3.56993
  6790, 80.00000, -0.90080, -5.10869
  6791, 80.00000, -1.17213, -6.64745
  6792, 80.00000, -1.44345, -8.18621
  6793, 80.00000, -1.71478, -9.72498
  6794, 80.00000, -1.98610, -11.26374
  6795, 80.00000, -2.25743, -12.80250
  6796, 80.00000, -0.00000, -0.50000
  6797, 80.00000, -0.00000, -2.06250
  6798, 80.00000, -0.00000, -3.62500
  6799, 80.00000, -0.00000, -5.18750
  6800, 80.00000, -0.00000, -6.75000
  6801, 80.00000, -0.00000, -8.31250
  6802, 80.00000, -0.00000, -9.87500
  6803, 80.00000, -0.00000, -11.43750
  6804, 80.00000, -0.00000, -13.00000
  6805, 80.00000, 0.08682, -0.49240
  6806, 80.00000, 0.35815, -2.03117
  6807, 80.00000, 0.62947, -3.56993
  6808, 80.00000, 0.90080, -5.10869
  6809, 80.00000, 1.17213, -6.64745
  6810, 80.00000, 1.44345, -8.18621
  6811, 80.00000, 1.71478, -9.72498
  6812, 80.00000, 1.98610, -11.26374
  6813, 80.00000, 2.25743, -12.80250
  6814, 80.00000, 0.17101, -0.46985
  6815, 80.00000, 0.70542, -1.93812
  6816, 80.00000, 1.23982, -3.40639
  6817, 80.00000, 1.77423, -4.87466
  6818, 80.00000, 2.30864, -6.34293
  6819, 80.00000, 2.84304, -7.81119
  6820, 80.00000, 3.37745, -9.27946
  6821, 80.00000, 3.91186, -10.74773
  6822, 80.00000, 4.44626, -12.21600
  6823, 80.00000, 0.25000, -0.43301
  6824, 80.00000, 1.03125, -1.78618
  6825, 80.00000, 1.81250, -3.13934
  6826, 80.00000, 2.59375, -4.49251
  6827, 80.00000, 3.37500, -5.84567
  6828, 80.00000, 4.15625, -7.19884
  6829, 80.00000, 4.93750, -8.55200
  6830, 80.00000, 5.71875, -9.90517
  6831, 80.00000, 6.50000, -11.25833
  6832, 80.00000, 0.32139, -0.38302
  6833, 80.00000, 1.32575, -1.57997
  6834, 80.00000, 2.33011, -2.77691
  6835, 80.00000, 3.33446, -3.97386
  6836, 80.00000, 4.33882, -5.17080
  6837, 80.00000, 5.34317, -6.36774
  6838, 80.00000, 6.34753, -7.56469
  6839, 80.00000, 7.35188, -8.76163
  6840, 80.00000, 8.35624, -9.95858
  6841, 80.00000, 0.38302, -0.32139
  6842, 80.00000, 1.57997, -1.32575
  6843, 80.00000, 2.77691, -2.33011
  6844, 80.00000, 3.97386, -3.33446
  6845, 80.00000, 5.17080, -4.33882
  6846, 80.00000, 6.36774, -5.34317
  6847, 80.00000, 7.56469, -6.34753
  6848, 80.00000, 8.76163, -7.35188
  6849, 80.00000, 9.95858, -8.35624
  6850, 80.00000, 0.43301, -0.25000
  6851, 80.00000, 1.78618, -1.03125
  6852, 80.00000, 3.13934, -1.81250
  6853, 80.00000, 4.49251, -2.59375
  6854, 80.00000, 5.84567, -3.37500
  6855, 80.00000, 7.19884, -4.15625
  6856, 80.00000, 8.55200, -4.93750
  6857, 80.00000, 9.90517, -5.71875
  6858, 80.00000, 11.25833, -6.50000
  6859, 80.00000, 0.46985, -0.17101
  6860, 80.00000, 1.93812, -0.70542
  6861, 80.00000, 3.40639, -1.23982
  6862, 80.00000, 4.87466, -1.77423
  6863, 80.00000, 6.34293, -2.30864
  6864, 80.00000, 7.81119, -2.84304
  6865, 80.00000, 9.27946, -3.37745
  6866, 80.00000, 10.74773, -3.91186
  6867, 80.00000, 12.21600, -4.44626
  6868, 80.00000, 0.49240, -0.08682
  6869, 80.00000, 2.03117, -0.35815
  6870, 80.00000, 3.56993, -0.62947
  6871, 80.00000, 5.10869, -0.90080
  6872, 80.00000, 6.64745, -1.17213
  6873, 80.00000, 8.18621, -1.44345
  6874, 80.00000, 9.72498, -1.71478
  6875, 80.00000, 11.26374, -1.98610
  6876, 80.00000, 12.80250, -2.25743
  6877, 80.00000, 0.50000, -0.00000
  6878, 80.00000, 2.06250, -0.00000
  6879, 80.00000, 3.62500, -0.00000
  6880, 80.00000, 5.18750, -0.00000
  6881, 80.00000, 6.75000, -0.00000
  6882, 80.00000, 8.31250, -0.00000
  6883, 80.00000, 9.87500, -0.00000
  6884, 80.00000, 11.43750, -0.00000
  6885, 80.00000, 13.00000, -0.00000
  6886, 85.00000, 0.50000, 0.00000
  6887, 85.00000, 2.06250, 0.00000
  6888, 85.00000, 3.62500, 0.00000
  6889, 85.00000, 5.18750, 0.00000
  6890, 85.00000, 6.75000, 0.00000
  6891, 85.00000, 8.31250, 0.00000
  6892, 85.00000, 9.87500, 0.00000
  6893, 85.00000, 11.43750, 0.00000
  6894, 85.00000, 13.00000, 0.00000
  6895, 85.00000, 0.49240, 0.08682
  6896, 85.00000, 2.03117, 0.35815
  6897, 85.00000, 3.56993, 0.62947
  6898, 85.00000, 5.10869, 0.90080
  6899, 85.00000, 6.64745, 1.17213
  6900, 85.00000, 8.18621, 1.44345
  6901, 85.00000, 9.72498, 1.71478
  6902, 85.00000, 11.26374, 1.98610
  6903, 85.00000, 12.80250, 2.25743
  6904, 85.00000, 0.46985, 0.17101
  6905, 85.00000, 1.93812, 0.70542
  6906, 85.00000, 3.40639, 1.23982
  6907, 85.00000, 4.87466, 1.77423
  6908, 85.00000, 6.34293, 2.30864
  6909, 85.00000, 7.81119, 2.84304
  6910, 85.00000, 9.27946, 3.37745
  6911, 85.00000, 10.74773, 3.91186
  6912, 85.00000, 12.21600, 4.44626
  6913, 85.00000, 0.43301, 0.25000
  6914, 85.00000, 1.78618, 1.03125
  6915, 85.00000, 3.13934, 1.81250
  6916, 85.00000, 4.49251, 2.59375
  6917, 85.00000, 5.84567, 3.37500
  6918, 85.00000, 7.19884, 4.15625
  6919, 85.00000, 8.55200, 4.93750
  6920, 85.00000, 9.90517, 5.71875
  6921, 85.00000, 11.25833, 6.50000
  6922, 85.00000, 0.38302, 0.32139
  6923, 85.00000, 1.57997, 1.32575
  6924, 85.00000, 2.77691, 2.33011
  6925, 85.00000, 3.97386, 3.33446
  6926, 85.00000, 5.17080, 4.33882
  6927, 85.00000, 6.36774, 5.34317
  6928, 85.00000, 7.56469, 6.34753
  6929, 85.00000, 8.76163, 7.35188
  6930, 85.00000, 9.95858, 8.35624
  6931, 85.00000, 0.32139, 0.38302
  6932, 85.00000, 1.32575, 1.57997
  6933, 85.00000, 2.33011, 2.77691
  6934, 85.00000, 3.33446, 3.97386
  6935, 85.00000, 4.33882, 5.17080
  6936, 85.00000, 5.34317, 6.36774
  6937, 85.00000, 6.34753, 7.56469
  6938, 85.00000, 7.35188, 8.76163
  6939, 85.00000, 8.35624, 9.95858
  6940, 85.00000, 0.25000, 0.43301
  6941, 85.00000, 1.03125, 1.78618
  6942, 85.00000, 1.81250, 3.13934
  6943, 85.00000, 2.59375, 4.49251
  6944, 85.00000, 3.37500, 5.84567
  6945, 85.00000, 4.15625, 7.19884
  6946, 85.00000, 4.93750, 8.55200
  6947, 85.00000, 5.71875, 9.90517
  6948, 85.00000, 6.50000, 11.25833
  6949, 85.00000, 0.17101, 0.46985
  6950, 85.00000, 0.70542, 1.93812
  6951, 85.00000, 1.23982, 3.40639
  6952, 85.00000, 1.77423, 4.87466
  6953, 85.00000, 2.30864, 6.34293
  6954, 85.00000, 2.84304, 7.81119
  6955, 85.00000, 3.37745, 9.27946
  6956, 85.00000, 3.91186, 10.74773
  6957, 85.00000, 4.44626, 12.21600
  6958, 85.00000, 0.08682, 0.49240
  6959, 85.00000, 0.35815, 2.03117
  6960, 85.00000, 0.62947, 3.56993
  6961, 85.00000, 0.90080, 5.10869
  6962, 85.00000, 1.17213, 6.64745
  6963, 85.00000, 1.44345, 8.18621
  6964, 85.00000, 1.71478, 9.72498
  6965, 85.00000, 1.98610, 11.26374
  6966, 85.00000, 2.25743, 12.80250
  6967, 85.00000, 0.00000, 0.50000
  6968, 85.00000, 0.00000, 2.06250
  6969, 85.00000, 0.00000, 3.62500
  6970, 85.00000, 0.00000, 5.18750
  6971, 85.00000, 0.00000, 6.75000
  6972, 85.00000, 0.00000, 8.31250
  6973, 85.00000, 0.00000, 9.87500
  6974, 85.00000, 0.00000, 11.43750
  6975, 85.00000, 0.00000, 13.00000
  6976, 85.00000, -0.08682, 0.49240
  6977, 85.00000, -0.35815, 2.03117
  6978, 85.00000, -0.62947, 3.56993
  6979, 85.00000, -0.90080, 5.10869
  6980, 85.00000, -1.17213, 6.64745
  6981, 85.00000, -1.44345, 8.18621
  6982, 85.00000, -1.71478, 9.72498
  6983, 85.00000, -1.98610, 11.26374
  6984, 85.00000, -2.25743, 12.80250
  6985, 85.00000, -0.17101, 0.46985
  6986, 85.00000, -0.70542, 1.93812
  6987, 85.00000, -1.23982, 3.40639
  6988, 85.00000, -1.77423, 4.87466
  6989, 85.00000, -2.30864, 6.34293
  6990, 85.00000, -2.84304, 7.81119
  6991, 85.00000, -3.37745, 9.27946
  6992, 85.00000, -3.91186, 10.74773
  6993, 85.00000, -4.44626, 12.21600
  6994, 85.00000, -0.25000, 0.43301
  6995, 85.00000, -1.03125, 1.78618
  6996, 85.00000, -1.81250, 3.13934
  6997, 85.00000, -2.59375, 4.49251
  6998, 85.00000, -3.37500, 5.84567
  6999, 85.00000, -4.15625, 7.19884
  7000, 85.00000, -4.93750, 8.55200
  7001, 85.00000, -5.71875, 9.90517
  7002, 85.00000, -6.50000, 11.25833
  7003, 85.00000, -0.32139, 0.38302
  7004, 85.00000, -1.32575, 1.57997
  7005, 85.00000, -2.33011, 2.77691
  7006, 85.00000, -3.33446, 3.97386
  7007, 85.00000, -4.33882, 5.17080
  7008, 85.00000, -5.34317, 6.36774
  7009, 85.00000, -6.34753, 7.56469
  7010, 85.00000, -7.35188, 8.76163
  7011, 85.00000, -8.35624, 9.95858
  7012, 85.00000, -0.38302, 0.32139
  7013, 85.00000, -1.57997, 1.32575
  7014, 85.00000, -2.77691, 2.33011
  7015, 85.00000, -3.97386, 3.33446
  7016, 85.00000, -5.17080, 4.33882
  7017, 85.00000, -6.36774, 5.34317
  7018, 85.00000, -7.56469, 6.34753
  7019, 85.00000, -8.76163, 7.35188
  7020, 85.00000, -9.95858, 8.35624
  7021, 85.00000, -0.43301, 0.25000
  7022, 85.00000, -1.78618, 1.03125
  7023, 85.00000, -3.13934, 1.81250
  7024, 85.00000, -4.49251, 2.59375
  7025, 85.00000, -5.84567, 3.37500
  7026, 85.00000, -7.19884, 4.15625
  7027, 85.00000, -8.55200, 4.93750
  7028, 85.00000, -9.90517, 5.71875
  7029, 85.00000, -11.25833, 6.50000
  7030, 85.00000, -0.46985, 0.17101
  7031, 85.00000, -1.93812, 0.70542
  7032, 85.00000, -3.40639, 1.23982
  7033, 85.00000, -4.87466, 1.77423
  7034, 85.00000, -6.34293, 2.30864
  7035, 85.00000, -7.81119, 2.84304
  7036, 85.00000, -9.27946, 3.37745
  7037, 85.00000, -10.74773, 3.91186
  7038, 85.00000, -12.21600, 4.44626
  7039, 85.00000, -0.49240, 0.08682
  7040, 85.00000, -2.03117, 0.35815
  7041, 85.00000, -3.56993, 0.62947
  7042, 85.00000, -5.10869, 0.90080
  7043, 85.00000, -6.64745, 1.17213
  7044, 85.00000, -8.18621, 1.44345
  7045, 85.00000, -9.72498, 1.71478
  7046, 85.00000, -11.26374, 1.98610
  7047, 85.00000, -12.80250, 2.25743
  7048, 85.00000, -0.50000, 0.00000
  7049, 85.00000, -2.06250, 0.00000
  7050, 85.00000, -3.62500, 0.00000
  7051, 85.00000, -5.18750, 0.00000
  7052, 85.00000, -6.75000, 0.00000
  7053, 85.00000, -8.31250, 0.00000
  7054, 85.00000, -9.87500, 0.00000
  7055, 85.00000, -11.43750, 0.00000
  7056, 85.00000, -13.00000, 0.00000
  7057, 85.00000, -0.49240, -0.08682
  7058, 85.00000, -2.03117, -0.35815
  7059, 85.00000, -3.56993, -0.62947
  7060, 85.00000, -5.10869, -0.90080
  7061, 85.00000, -6.64745, -1.17213
  7062, 85.00000, -8.18621, -1.44345
  7063, 85.00000, -9.72498, -1.71478
  7064, 85.00000, -11.26374, -1.98610
  7065, 85.00000, -12.80250, -2.25743
  7066, 85.00000, -0.46985, -0.17101
  7067, 85.00000, -1.93812, -0.70542
  7068, 85.00000, -3.40639, -1.23982
  7069, 85.00000, -4.87466, -1.77423
  7070, 85.00000, -6.34293, -2.30864
  7071, 85.00000, -7.81119, -2.84304
  7072, 85.00000, -9.27946, -3.37745
  7073, 85.00000, -10.74773, -3.91186
  7074, 85.00000, -12.21600, -4.44626
  7075, 85.00000, -0.43301, -0.25000
  7076, 85.00000, -1.78618, -1.03125
  7077, 85.00000, -3.13934, -1.81250
  7078, 85.00000, -4.49251, -2.59375
  7079, 85.00000, -5.84567, -3.37500
  7080, 85.00000, -7.19884, -4.15625
  7081, 85.00000, -8.55200, -4.93750
  7082, 85.00000, -9.90517, -5.71875
  7083, 85.00000, -11.25833, -6.50000
  7084, 85.00000, -0.38302, -0.32139
  7085, 85.00000, -1.57997, -1.32575
  7086, 85.00000, -2.77691, -2.33011
  7087, 85.00000, -3.97386, -3.33446
  7088, 85.00000, -5.17080, -4.33882
  7089, 85.00000, -6.36774, -5.34317
  7090, 85.00000, -7.56469, -6.34753
  7091, 85.00000, -8.76163, -7.35188
  7092, 85.00000, -9.95858, -8.35624
  7093, 85.00000, -0.32139, -0.38302
  7094, 85.00000, -1.32575, -1.57997
  7095, 85.00000, -2.33011, -2.77691
  7096, 85.00000, -3.33446, -3.97386
  7097, 85.00000, -4.33882, -5.17080
  7098, 85.00000, -5.34317, -6.36774
  7099, 85.00000, -6.34753, -7.56469
  7100, 85.00000, -7.35188, -8.76163
  7101, 85.00000, -8.35624, -9.95858
  7102, 85.00000, -0.25000, -0.43301
  7103, 85.00000, -1.03125, -1.78618
  7104, 85.00000, -1.81250, -3.13934
  7105, 85.00000, -2.59375, -4.49251
  7106, 85.00000, -3.37500, -5.84567
  7107, 85.00000, -4.15625, -7.19884
  7108, 85.00000, -4.93750, -8.55200
  7109, 85.00000, -5.71875, -9.90517
  7110, 85.00000, -6.50000, -11.25833
  7111, 85.00000, -0.17101, -0.46985
  7112, 85.00000, -0.70542, -1.93812
  7113, 85.00000, -1.23982, -3.40639
  7114, 85.00000, -1.77423, -4.87466
  7115, 85.00000, -2.30864, -6.34293
  7116, 85.00000, -2.84304, -7.81119
  7117, 85.00000, -3.37745, -9.27946
  7118, 85.00000, -3.91186, -10.74773
  7119, 85.00000, -4.44626, -12.21600
  7120, 85.00000, -0.08682, -0.49240
  7121, 85.00000, -0.35815, -2.03117
  7122, 85.00000, -0.62947, -3.56993
  7123, 85.00000, -0.90080, -5.10869
  7124, 85.00000, -1.17213, -6.64745
  7125, 85.00000, -1.44345, -8.18621
  7126, 85.00000, -1.71478, -9.72498
  7127, 85.00000, -1.98610, -11.26374
  7128, 85.00000, -2.25743, -12.80250
  7129, 85.00000, -0.00000, -0.50000
  7130, 85.00000, -0.00000, -2.06250
  7131, 85.00000, -0.00000, -3.62500
  7132, 85.00000, -0.00000, -5.18750
  7133, 85.00000, -0.00000, -6.75000
  7134, 85.00000, -0.00000, -8.31250
  7135, 85.00000, -0.00000, -9.87500
  7136, 85.00000, -0.00000, -11.43750
  7137, 85.00000, -0.00000, -13.00000
  7138, 85.00000, 0.08682, -0.49240
  7139, 85.00000, 0.35815, -2.03117
  7140, 85.00000, 0.62947, -3.56993
  7141, 85.00000, 0.90080, -5.10869
  7142, 85.00000, 1.17213, -6.64745
  7143, 85.00000, 1.44345, -8.18621
  7144, 85.00000, 1.71478, -9.72498
  7145, 85.00000, 1.98610, -11.26374
  7146, 85.00000, 2.25743, -12.80250
  7147, 85.00000, 0.17101, -0.46985
  7148, 85.00000, 0.70542, -1.93812
  7149, 85.00000, 1.23982, -3.40639
  7150, 85.00000, 1.77423, -4.87466
  7151, 85.00000, 2.30864, -6.34293
  7152, 85.00000, 2.84304, -7.81119
  7153, 85.00000, 3.37745, -9.27946
  7154, 85.00000, 3.91186, -10.74773
  7155, 85.00000, 4.44626, -12.21600
  7156, 85.00000, 0.25000, -0.43301
  7157, 85.00000, 1.03125, -1.78618
  7158, 85.00000, 1.81250, -3.13934
  7159, 85.00000, 2.59375, -4.49251
  7160, 85.00000, 3.37500, -5.84567
  7161, 85.00000, 4.15625, -7.19884
  7162, 85.00000, 4.93750, -8.55200
  7163, 85.00000, 5.71875, -9.90517
  7164, 85.00000, 6.50000, -11.25833
  7165, 85.00000, 0.32139, -0.38302
  7166, 85.00000, 1.32575, -1.57997
  7167, 85.00000, 2.33011, -2.77691
  7168, 85.00000, 3.33446, -3.97386
  7169, 85.00000, 4.33882, -5.17080
  7170, 85.00000, 5.34317, -6.36774
  7171, 85.00000, 6.34753, -7.56469
  7172, 85.00000, 7.35188, -8.76163
  7173, 85.00000, 8.35624, -9.95858
  7174, 85.00000, 0.38302, -0.32139
  7175, 85.00000, 1.57997, -1.32575
  7176, 85.00000, 2.77691, -2.33011
  7177, 85.00000, 3.97386, -3.33446
  7178, 85.00000, 5.17080, -4.33882
  7179, 85.00000, 6.36774, -5.34317
  7180, 85.00000, 7.56469, -6.34753
  7181, 85.00000, 8.76163, -7.35188
  7182, 85.00000, 9.95858, -8.35624
  7183, 85.00000, 0.43301, -0.25000
  7184, 85.00000, 1.78618, -1.03125
  7185, 85.00000, 3.13934, -1.81250
  7186, 85.00000, 4.49251, -2.59375
  7187, 85.00000, 5.84567, -3.37500
  7188, 85.00000, 7.19884, -4.15625
  7189, 85.00000, 8.55200, -4.93750
  7190, 85.00000, 9.90517, -5.71875
  7191, 85.00000, 11.25833, -6.50000
  7192, 85.00000, 0.46985, -0.17101
  7193, 85.00000, 1.93812, -0.70542
  7194, 85.00000, 3.40639, -1.23982
  7195, 85.00000, 4.87466, -1.77423
  7196, 85.00000, 6.34293, -2.30864
  7197, 85.00000, 7.81119, -2.84304
  7198, 85.00000, 9.27946, -3.37745
  7199, 85.00000, 10.74773, -3.91186
  7200, 85.00000, 12.21600, -4.44626
  7201, 85.00000, 0.49240, -0.08682
  7202, 85.00000, 2.03117, -0.35815
  7203, 85.00000, 3.56993, -0.62947
  7204, 85.00000, 5.10869, -0.90080
  7205, 85.00000, 6.64745, -1.17213
  7206, 85.00000, 8.18621, -1.44345
  7207, 85.00000, 9.72498, -1.71478
  7208, 85.00000, 11.26374, -1.98610
  7209, 85.00000, 12.80250, -2.25743
  7210, 85.00000, 0.50000, -0.00000
  7211, 85.00000, 2.06250, -0.00000
  7212, 85.00000, 3.62500, -0.00000
  7213, 85.00000, 5.18750, -0.00000
  7214, 85.00000, 6.75000, -0.00000
  7215, 85.00000, 8.31250, -0.00000
  7216, 85.00000, 9.87500, -0.00000
  7217, 85.00000, 11.43750, -0.00000
  7218, 85.00000, 13.00000, -0.00000
  7219, 90.00000, 0.50000, 0.00000
  7220, 90.00000, 2.06250, 0.00000
  7221, 90.00000, 3.62500, 0.00000
  7222, 90.00000, 5.18750, 0.00000
  7223, 90.00000, 6.75000, 0.00000
  7224, 90.00000, 8.31250, 0.00000
  7225, 90.00000, 9.87500, 0.00000
  7226, 90.00000, 11.43750, 0.00000
  7227, 90.00000, 13.00000, 0.00000
  7228, 90.00000, 0.49240, 0.08682
  7229, 90.00000, 2.03117, 0.35815
  7230, 90.00000, 3.56993, 0.62947
  7231, 90.00000, 5.10869, 0.90080
  7232, 90.00000, 6.64745, 1.17213
  7233, 90.00000, 8.18621, 1.44345
  7234, 90.00000, 9.72498, 1.71478
  7235, 90.00000, 11.26374, 1.98610
  7236, 90.00000, 12.80250, 2.25743
  7237, 90.00000, 0.46985, 0.17101
  7238, 90.00000, 1.93812, 0.70542
  7239, 90.00000, 3.40639, 1.23982
  7240, 90.00000, 4.87466, 1.77423
  7241, 90.00000, 6.34293, 2.30864
  7242, 90.00000, 7.81119, 2.84304
  7243, 90.00000, 9.27946, 3.37745
  7244, 90.00000, 10.74773, 3.91186
  7245, 90.00000, 12.21600, 4.44626
  7246, 90.00000, 0.43301, 0.25000
  7247, 90.00000, 1.78618, 1.03125
  7248, 90.00000, 3.13934, 1.81250
  7249, 90.00000, 4.49251, 2.59375
  7250, 90.00000, 5.84567, 3.37500
  7251, 90.00000, 7.19884, 4.15625
  7252, 90.00000, 8.55200, 4.93750
  7253, 90.00000, 9.90517, 5.71875
  7254, 90.00000, 11.25833, 6.50000
  7255, 90.00000, 0.38302, 0.32139
  7256, 90.00000, 1.57997, 1.32575
  7257, 90.00000, 2.77691, 2.33011
  7258, 90.00000, 3.97386, 3.33446
  7259, 90.00000, 5.17080, 4.33882
  7260, 90.00000, 6.36774, 5.34317
  7261, 90.00000, 7.56469, 6.34753
  7262, 90.00000, 8.76163, 7.35188
  7263, 90.00000, 9.95858, 8.35624
  7264, 90.00000, 0.32139, 0.38302
  7265, 90.00000, 1.32575, 1.57997
  7266, 90.00000, 2.33011, 2.77691
  7267, 90.00000, 3.33446, 3.97386
  7268, 90.00000, 4.33882, 5.17080
  7269, 90.00000, 5.34317, 6.36774
  7270, 90.00000, 6.34753, 7.56469
  7271, 90.00000, 7.35188, 8.76163
  7272, 90.00000, 8.35624, 9.95858
  7273, 90.00000, 0.25000, 0.43301
  7274, 90.00000, 1.03125, 1.78618
  7275, 90.00000, 1.81250, 3.13934
  7276, 90.00000, 2.59375, 4.49251
  7277, 90.00000, 3.37500, 5.84567
  7278, 90.00000, 4.15625, 7.19884
  7279, 90.00000, 4.93750, 8.55200
  7280, 90.00000, 5.71875, 9.90517
  7281, 90.00000, 6.50000, 11.25833
  7282, 90.00000, 0.17101, 0.46985
  7283, 90.00000, 0.70542, 1.93812
  7284, 90.00000, 1.23982, 3.40639
  7285, 90.00000, 1.77423, 4.87466
  7286, 90.00000, 2.30864, 6.34293
  7287, 90.00000, 2.84304, 7.81119
  7288, 90.00000, 3.37745, 9.27946
  7289, 90.00000, 3.91186, 10.74773
  7290, 90.00000, 4.44626, 12.21600
  7291, 90.00000, 0.08682, 0.49240
  7292, 90.00000, 0.35815, 2.03117
  7293, 90.00000, 0.62947, 3.56993
  7294, 90.00000, 0.90080, 5.10869
  7295, 90.00000, 1.17213, 6.64745
  7296, 90.00000, 1.44345, 8.18621
  7297, 90.00000, 1.71478, 9.72498
  7298, 90.00000, 1.98610, 11.26374
  7299, 90.00000, 2.25743, 12.80250
  7300, 90.00000, 0.00000, 0.50000
  7301, 90.00000, 0.00000, 2.06250
  7302, 90.00000, 0.00000, 3.62500
  7303, 90.00000, 0.00000, 5.18750
  7304, 90.00000, 0.00000, 6.75000
  7305, 90.00000, 0.00000, 8.31250
  7306, 90.00000, 0.00000, 9.87500
  7307, 90.00000, 0.00000, 11.43750
  7308, 90.00000, 0.00000, 13.00000
  7309, 90.00000, -0.08682, 0.49240
  7310, 90.00000, -0.35815, 2.03117
  7311, 90.00000, -0.62947, 3.56993
  7312, 90.00000, -0.90080, 5.10869
  7313, 90.00000, -1.17213, 6.64745
  7314, 90.00000, -1.44345, 8.18621
  7315, 90.00000, -1.71478, 9.72498
  7316, 90.00000, -1.98610, 11.26374
  7317, 90.00000, -2.25743, 12.80250
  7318, 90.00000, -0.17101, 0.46985
  7319, 90.00000, -0.70542, 1.93812
  7320, 90.00000, -1.23982, 3.40639
  7321, 90.00000, -1.77423, 4.87466
  7322, 90.00000, -2.30864, 6.34293
  7323, 90.00000, -2.84304, 7.81119
  7324, 90.00000, -3.37745, 9.27946
  7325, 90.00000, -3.91186, 10.74773
  7326, 90.00000, -4.44626, 12.21600
  7327, 90.00000, -0.25000, 0.43301
  7328, 90.00000, -1.03125, 1.78618
  7329, 90.00000, -1.81250, 3.13934
  7330, 90.00000, -2.59375, 4.49251
  7331, 90.00000, -3.37500, 5.84567
  7332, 90.00000, -4.15625, 7.19884
  7333, 90.00000, -4.93750, 8.55200
  7334, 90.00000, -5.71875, 9.90517
  7335, 90.00000, -6.50000, 11.25833
  7336, 90.00000, -0.32139, 0.38302
  7337, 90.00000, -1.32575, 1.57997
  7338, 90.00000, -2.33011, 2.77691
  7339, 90.00000, -3.33446, 3.97386
  7340, 90.00000, -4.33882, 5.17080
  7341, 90.00000, -5.34317, 6.36774
  7342, 90.00000, -6.34753, 7.56469
  7343, 90.00000, -7.35188, 8.76163
  7344, 90.00000, -8.35624, 9.95858
  7345, 90.00000, -0.38302, 0.32139
  7346, 90.00000, -1.57997, 1.32575
  7347, 90.00000, -2.77691, 2.33011
  7348, 90.00000, -3.97386, 3.33446
  7349, 90.00000, -5.17080, 4.33882
  7350, 90.00000, -6.36774, 5.34317
  7351, 90.00000, -7.56469, 6.34753
  7352, 90.00000, -8.76163, 7.35188
  7353, 90.00000, -9.95858, 8.35624
  7354, 90.00000, -0.43301, 0.25000
  7355, 90.00000, -1.78618, 1.03125
  7356, 90.00000, -3.13934, 1.81250
  7357, 90.00000, -4.49251, 2.59375
  7358, 90.00000, -5.84567, 3.37500
  7359, 90.00000, -7.19884, 4.15625
  7360, 90.00000, -8.55200, 4.93750
  7361, 90.00000, -9.90517, 5.71875
  7362, 90.00000, -11.25833, 6.50000
  7363, 90.00000, -0.46985, 0.17101
  7364, 90.00000, -1.93812, 0.70542
  7365, 90.00000, -3.40639, 1.23982
  7366, 90.00000, -4.87466, 1.77423
  7367, 90.00000, -6.34293, 2.30864
  7368, 90.00000, -7.81119, 2.84304
  7369, 90.00000, -9.27946, 3.37745
  7370, 90.00000, -10.74773, 3.91186
  7371, 90.00000, -12.21600, 4.44626
  7372, 90.00000, -0.49240, 0.08682
  7373, 90.00000, -2.03117, 0.35815
  7374, 90.00000, -3.56993, 0.62947
  7375, 90.00000, -5.10869, 0.90080
  7376, 90.00000, -6.64745, 1.17213
  7377, 90.00000, -8.18621, 1.44345
  7378, 90.00000, -9.72498, 1.71478
  7379, 90.00000, -11.26374, 1.98610
  7380, 90.00000, -12.80250, 2.25743
  7381, 90.00000, -0.50000, 0.00000
  7382, 90.00000, -2.06250, 0.00000
  7383, 90.00000, -3.62500, 0.00000
  7384, 90.00000, -5.18750, 0.00000
  7385, 90.00000, -6.75000, 0.00000
  7386, 90.00000, -8.31250, 0.00000
  7387, 90.00000, -9.87500, 0.00000
  7388, 90.00000, -11.43750, 0.00000
  7389, 90.00000, -13.00000, 0.00000
  7390, 90.00000, -0.49240, -0.08682
  7391, 90.00000, -2.03117, -0.35815
  7392, 90.00000, -3.56993, -0.62947
  7393, 90.00000, -5.10869, -0.90080
  7394, 90.00000, -6.64745, -1.17213
  7395, 90.00000, -8.18621, -1.44345
  7396, 90.00000, -9.72498, -1.71478
  7397, 90.00000, -11.26374, -1.98610
  7398, 90.00000, -12.80250, -2.25743
  7399, 90.00000, -0.46985, -0.17101
  7400, 90.00000, -1.93812, -0.70542
  7401, 90.00000, -3.40639, -1.23982
  7402, 90.00000, -4.87466, -1.77423
  7403, 90.00000, -6.34293, -2.30864
  7404, 90.00000, -7.81119, -2.84304
  7405, 90.00000, -9.27946, -3.37745
  7406, 90.00000, -10.74773, -3.91186
  7407, 90.00000, -12.21600, -4.44626
  7408, 90.00000, -0.43301, -0.25000
  7409, 90.00000, -1.78618, -1.03125
  7410, 90.00000, -3.13934, -1.81250
  7411, 90.00000, -4.49251, -2.59375
  7412, 90.00000, -5.84567, -3.37500
  7413, 90.00000, -7.19884, -4.15625
  7414, 90.00000, -8.55200, -4.93750
  7415, 90.00000, -9.90517, -5.71875
  7416, 90.00000, -11.25833, -6.50000
  7417, 90.00000, -0.38302, -0.32139
  7418, 90.00000, -1.57997, -1.32575
  7419, 90.00000, -2.77691, -2.33011
  7420, 90.00000, -3.97386, -3.33446
  7421, 90.00000, -5.17080, -4.33882
  7422, 90.00000, -6.36774, -5.34317
  7423, 90.00000, -7.56469, -6.34753
  7424, 90.00000, -8.76163, -7.35188
  7425, 90.00000, -9.95858, -8.35624
  7426, 90.00000, -0.32139, -0.38302
  7427, 90.00000, -1.32575, -1.57997
  7428, 90.00000, -2.33011, -2.77691
  7429, 90.00000, -3.33446, -3.97386
  7430, 90.00000, -4.33882, -5.17080
  7431, 90.00000, -5.34317, -6.36774
  7432, 90.00000, -6.34753, -7.56469
  7433, 90.00000, -7.35188, -8.76163
  7434, 90.00000, -8.35624, -9.95858
  7435, 90.00000, -0.25000, -0.43301
  7436, 90.00000, -1.03125, -1.78618
  7437, 90.00000, -1.81250, -3.13934
  7438, 90.00000, -2.59375, -4.49251
  7439, 90.00000, -3.37500, -5.84567
  7440, 90.00000, -4.15625, -7.19884
  7441, 90.00000, -4.93750, -8.55200
  7442, 90.00000, -5.71875, -9.90517
  7443, 90.00000, -6.50000, -11.25833
  7444, 90.00000, -0.17101, -0.46985
  7445, 90.00000, -0.70542, -1.93812
  7446, 90.00000, -1.23982, -3.40639
  7447, 90.00000, -1.77423, -4.87466
  7448, 90.00000, -2.30864, -6.34293
  7449, 90.00000, -2.84304, -7.81119
  7450, 90.00000, -3.37745, -9.27946
  7451, 90.00000, -3.91186, -10.74773
  7452, 90.00000, -4.44626, -12.21600
  7453, 90.00000, -0.08682, -0.49240
  7454, 90.00000, -0.35815, -2.03117
  7455, 90.00000, -0.62947, -3.56993
  7456, 90.00000, -0.90080, -5.10869
  7457, 90.00000, -1.17213, -6.64745
  7458, 90.00000, -1.44345, -8.18621
  7459, 90.00000, -1.71478, -9.72498
  7460, 90.00000, -1.98610, -11.26374
  7461, 90.00000, -2.25743, -12.80250
  7462, 90.00000, -0.00000, -0.50000
  7463, 90.00000, -0.00000, -2.06250
  7464, 90.00000, -0.00000, -3.62500
  7465, 90.00000, -0.00000, -5.18750
  7466, 90.00000, -0.00000, -6.75000
  7467, 90.00000, -0.00000, -8.31250
  7468, 90.00000, -0.00000, -9.87500
  7469, 90.00000, -0.00000, -11.43750
  7470, 90.00000, -0.00000, -13.00000
  7471, 90.00000, 0.08682, -0.49240
  7472, 90.00000, 0.35815, -2.03117
  7473, 90.00000, 0.62947, -3.56993
  7474, 90.00000, 0.90080, -5.10869
  7475, 90.00000, 1.17213, -6.64745
  7476, 90.00000, 1.44345, -8.18621
  7477, 90.00000, 1.71478, -9.72498
  7478, 90.00000, 1.98610, -11.26374
  7479, 90.00000, 2.25743, -12.80250
  7480, 90.00000, 0.17101, -0.46985
  7481, 90.00000, 0.70542, -1.93812
  7482, 90.00000, 1.23982, -3.40639
  7483, 90.00000, 1.77423, -4.87466
  7484, 90.00000, 2.30864, -6.34293
  7485, 90.00000, 2.84304, -7.81119
  7486, 90.00000, 3.37745, -9.27946
  7487, 90.00000, 3.91186, -10.74773
  7488, 90.00000, 4.44626, -12.21600
  7489, 90.00000, 0.25000, -0.43301
  7490, 90.00000, 1.03125, -1.78618
  7491, 90.00000, 1.81250, -3.13934
  7492, 90.00000, 2.59375, -4.49251
  7493, 90.00000, 3.37500, -5.84567
  7494, 90.00000, 4.15625, -7.19884
  7495, 90.00000, 4.93750, -8.55200
  7496, 90.00000, 5.71875, -9.90517
  7497, 90.00000, 6.50000, -11.25833
  7498, 90.00000, 0.32139, -0.38302
  7499, 90.00000, 1.32575, -1.57997
  7500, 90.00000, 2.33011, -2.77691
  7501, 90.00000, 3.33446, -3.97386
  7502, 90.00000, 4.33882, -5.17080
  7503, 90.00000, 5.34317, -6.36774
  7504, 90.00000, 6.34753, -7.56469
  7505, 90.00000, 7.35188, -8.76163
  7506, 90.00000, 8.35624, -9.95858
  7507, 90.00000, 0.38302, -0.32139
  7508, 90.00000, 1.57997, -1.32575
  7509, 90.00000, 2.77691, -2.33011
  7510, 90.00000, 3.97386, -3.33446
  7511, 90.00000, 5.17080, -4.33882
  7512, 90.00000, 6.36774, -5.34317
  7513, 90.00000, 7.56469, -6.34753
  7514, 90.00000, 8.76163, -7.35188
  7515, 90.00000, 9.95858, -8.35624
  7516, 90.00000, 0.43301, -0.25000
  7517, 90.00000, 1.78618, -1.03125
  7518, 90.00000, 3.13934, -1.81250
  7519, 90.00000, 4.49251, -2.59375
  7520, 90.00000, 5.84567, -3.37500
  7521, 90.00000, 7.19884, -4.15625
  7522, 90.00000, 8.55200, -4.93750
  7523, 90.00000, 9.90517, -5.71875
  7524, 90.00000, 11.25833, -6.50000
  7525, 90.00000, 0.46985, -0.17101
  7526, 90.00000, 1.93812, -0.70542
  7527, 90.00000, 3.40639, -1.23982
  7528, 90.00000, 4.87466, -1.77423
  7529, 90.00000, 6.34293, -2.30864
  7530, 90.00000, 7.81119, -2.84304
  7531, 90.00000, 9.27946, -3.37745
  7532, 90.00000, 10.74773, -3.91186
  7533, 90.00000, 12.21600, -4.44626
  7534, 90.00000, 0.49240, -0.08682
  7535, 90.00000, 2.03117, -0.35815
  7536, 90.00000, 3.56993, -0.62947
  7537, 90.00000, 5.10869, -0.90080
  7538, 90.00000, 6.64745, -1.17213
  7539, 90.00000, 8.18621, -1.44345
  7540, 90.00000, 9.72498, -1.71478
  7541, 90.00000, 11.26374, -1.98610
  7542, 90.00000, 12.80250, -2.25743
  7543, 90.00000, 0.50000, -0.00000
  7544, 90.00000, 2.06250, -0.00000
  7545, 90.00000, 3.62500, -0.00000
  7546, 90.00000, 5.18750, -0.00000
  7547, 90.00000, 6.75000, -0.00000
  7548, 90.00000, 8.31250, -0.00000
  7549, 90.00000, 9.87500, -0.00000
  7550, 90.00000, 11.43750, -0.00000
  7551, 90.00000, 13.00000, -0.00000
  7552, 95.00000, 0.50000, 0.00000
  7553, 95.00000, 2.06250, 0.00000
  7554, 95.00000, 3.62500, 0.00000
  7555, 95.00000, 5.18750, 0.00000
  7556, 95.00000, 6.75000, 0.00000
  7557, 95.00000, 8.31250, 0.00000
  7558, 95.00000, 9.87500, 0.00000
  7559, 95.00000, 11.43750, 0.00000
  7560, 95.00000, 13.00000, 0.00000
  7561, 95.00000, 0.49240, 0.08682
  7562, 95.00000, 2.03117, 0.35815
  7563, 95.00000, 3.56993, 0.62947
  7564, 95.00000, 5.10869, 0.90080
  7565, 95.00000, 6.64745, 1.17213
  7566, 95.00000, 8.18621, 1.44345
  7567, 95.00000, 9.72498, 1.71478
  7568, 95.00000, 11.26374, 1.98610
  7569, 95.00000, 12.80250, 2.25743
  7570, 95.00000, 0.46985, 0.17101
  7571, 95.00000, 1.93812, 0.70542
  7572, 95.00000, 3.40639, 1.23982
  7573, 95.00000, 4.87466, 1.77423
  7574, 95.00000, 6.34293, 2.30864
  7575, 95.00000, 7.81119, 2.84304
  7576, 95.00000, 9.27946, 3.37745
  7577, 95.00000, 10.74773, 3.91186
  7578, 95.00000, 12.21600, 4.44626
  7579, 95.00000, 0.43301, 0.25000
  7580, 95.00000, 1.78618, 1.03125
  7581, 95.00000, 3.13934, 1.81250
  7582, 95.00000, 4.49251, 2.59375
  7583, 95.00000, 5.84567, 3.37500
  7584, 95.00000, 7.19884, 4.15625
  7585, 95.00000, 8.55200, 4.93750
  7586, 95.00000, 9.90517, 5.71875
  7587, 95.00000, 11.25833, 6.50000
  7588, 95.00000, 0.38302, 0.32139
  7589, 95.00000, 1.57997, 1.32575
  7590, 95.00000, 2.77691, 2.33011
  7591, 95.00000, 3.97386, 3.33446
  7592, 95.00000, 5.17080, 4.33882
  7593, 95.00000, 6.36774, 5.34317
  7594, 95.00000, 7.56469, 6.34753
  7595, 95.00000, 8.76163, 7.35188
  7596, 95.00000, 9.95858, 8.35624
  7597, 95.00000, 0.32139, 0.38302
  7598, 95.00000, 1.32575, 1.57997
  7599, 95.00000, 2.33011, 2.77691
  7600, 95.00000, 3.33446, 3.97386
  7601, 95.00000, 4.33882, 5.17080
  7602, 95.00000, 5.34317, 6.36774
  7603, 95.00000, 6.34753, 7.56469
  7604, 95.00000, 7.35188, 8.76163
  7605, 95.00000, 8.35624, 9.95858
  7606, 95.00000, 0.25000, 0.43301
  7607, 95.00000, 1.03125, 1.78618
  7608, 95.00000, 1.81250, 3.13934
  7609, 95.00000, 2.59375, 4.49251
  7610, 95.00000, 3.37500, 5.84567
  7611, 95.00000, 4.15625, 7.19884
  7612, 95.00000, 4.93750, 8.55200
  7613, 95.00000, 5.71875, 9.90517
  7614, 95.00000, 6.50000, 11.25833
  7615, 95.00000, 0.17101, 0.46985
  7616, 95.00000, 0.70542, 1.93812
  7617, 95.00000, 1.23982, 3.40639
  7618, 95.00000, 1.77423, 4.87466
  7619, 95.00000, 2.30864, 6.34293
  7620, 95.00000, 2.84304, 7.81119
  7621, 95.00000, 3.37745, 9.27946
  7622, 95.00000, 3.91186, 10.74773
  7623, 95.00000, 4.44626, 12.21600
  7624, 95.00000, 0.08682, 0.49240
  7625, 95.00000, 0.35815, 2.03117
  7626, 95.00000, 0.62947, 3.56993
  7627, 95.00000, 0.90080, 5.10869
  7628, 95.00000, 1.17213, 6.64745
  7629, 95.00000, 1.44345, 8.18621
  7630, 95.00000, 1.71478, 9.72498
  7631, 95.00000, 1.98610, 11.26374
  7632, 95.00000, 2.25743, 12.80250
  7633, 95.00000, 0.00000, 0.50000
  7634, 95.00000, 0.00000, 2.06250
  7635, 95.00000, 0.00000, 3.62500
  7636, 95.00000, 0.00000, 5.18750
  7637, 95.00000, 0.00000, 6.75000
  7638, 95.00000, 0.00000, 8.31250
  7639, 95.00000, 0.00000, 9.87500
  7640, 95.00000, 0.00000, 11.43750
  7641, 95.00000, 0.00000, 13.00000
  7642, 95.00000, -0.08682, 0.49240
  7643, 95.00000, -0.35815, 2.03117
  7644, 95.00000, -0.62947, 3.56993
  7645, 95.00000, -0.90080, 5.10869
  7646, 95.00000, -1.17213, 6.64745
  7647, 95.00000, -1.44345, 8.18621
  7648, 95.00000, -1.71478, 9.72498
  7649, 95.00000, -1.98610, 11.26374
  7650, 95.00000, -2.25743, 12.80250
  7651, 95.00000, -0.17101, 0.46985
  7652, 95.00000, -0.70542, 1.93812
  7653, 95.00000, -1.23982, 3.40639
  7654, 95.00000, -1.77423, 4.87466
  7655, 95.00000, -2.30864, 6.34293
  7656, 95.00000, -2.84304, 7.81119
  7657, 95.00000, -3.37745, 9.27946
  7658, 95.00000, -3.91186, 10.74773
  7659, 95.00000, -4.44626, 12.21600
  7660, 95.00000, -0.25000, 0.43301
  7661, 95.00000, -1.03125, 1.78618
  7662, 95.00000, -1.81250, 3.13934
  7663, 95.00000, -2.59375, 4.49251
  7664, 95.00000, -3.37500, 5.84567
  7665, 95.00000, -4.15625, 7.19884
  7666, 95.00000, -4.93750, 8.55200
  7667, 95.00000, -5.71875, 9.90517
  7668, 95.00000, -6.50000, 11.25833
  7669, 95.00000, -0.32139, 0.38302
  7670, 95.00000, -1.32575, 1.57997
  7671, 95.00000, -2.33011, 2.77691
  7672, 95.00000, -3.33446, 3.97386
  7673, 95.00000, -4.33882, 5.17080
  7674, 95.00000, -5.34317, 6.36774
  7675, 95.00000, -6.34753, 7.56469
  7676, 95.00000, -7.35188, 8.76163
  7677, 95.00000, -8.35624, 9.95858
  7678, 95.00000, -0.38302, 0.32139
  7679, 95.00000, -1.57997, 1.32575
  7680, 95.00000, -2.77691, 2.33011
  7681, 95.00000, -3.97386, 3.33446
  7682, 95.00000, -5.17080, 4.33882
  7683, 95.00000, -6.36774, 5.34317
  7684, 95.00000, -7.56469, 6.34753
  7685, 95.00000, -8.76163, 7.35188
  7686, 95.00000, -9.95858, 8.35624
  7687, 95.00000, -0.43301, 0.25000
  7688, 95.00000, -1.78618, 1.03125
  7689, 95.00000, -3.13934, 1.81250
  7690, 95.00000, -4.49251, 2.59375
  7691, 95.00000, -5.84567, 3.37500
  7692, 95.00000, -7.19884, 4.15625
  7693, 95.00000, -8.55200, 4.93750
  7694, 95.00000, -9.90517, 5.71875
  7695, 95.00000, -11.25833, 6.50000
  7696, 95.00000, -0.46985, 0.17101
  7697, 95.00000, -1.93812, 0.70542
  7698, 95.00000, -3.40639, 1.23982
  7699, 95.00000, -4.87466, 1.77423
  7700, 95.00000, -6.34293, 2.30864
  7701, 95.00000, -7.81119, 2.84304
  7702, 95.00000, -9.27946, 3.37745
  7703, 95.00000, -10.74773, 3.91186
  7704, 95.00000, -12.21600, 4.44626
  7705, 95.00000, -0.49240, 0.08682
  7706, 95.00000, -2.03117, 0.35815
  7707, 95.00000, -3.56993, 0.62947
  7708, 95.00000, -5.10869, 0.90080
  7709, 95.00000, -6.64745, 1.17213
  7710, 95.00000, -8.18621, 1.44345
  7711, 95.00000, -9.72498, 1.71478
  7712, 95.00000, -11.26374, 1.98610
  7713, 95.00000, -12.80250, 2.25743
  7714, 95.00000, -0.50000, 0.00000
  7715, 95.00000, -2.06250, 0.00000
  7716, 95.00000, -3.62500, 0.00000
  7717, 95.00000, -5.18750, 0.00000
  7718, 95.00000, -6.75000, 0.00000
  7719, 95.00000, -8.31250, 0.00000
  7720, 95.00000, -9.87500, 0.00000
  7721, 95.00000, -11.43750, 0.00000
  7722, 95.00000, -13.00000, 0.00000
  7723, 95.00000, -0.49240, -0.08682
  7724, 95.00000, -2.03117, -0.35815
  7725, 95.00000, -3.56993, -0.62947
  7726, 95.00000, -5.10869, -0.90080
  7727, 95.00000, -6.64745, -1.17213
  7728, 95.00000, -8.18621, -1.44345
  7729, 95.00000, -9.72498, -1.71478
  7730, 95.00000, -11.26374, -1.98610
  7731, 95.00000, -12.80250, -2.25743
  7732, 95.00000, -0.46985, -0.17101
  7733, 95.00000, -1.93812, -0.70542
  7734, 95.00000, -3.40639, -1.23982
  7735, 95.00000, -4.87466, -1.77423
  7736, 95.00000, -6.34293, -2.30864
  7737, 95.00000, -7.81119, -2.84304
  7738, 95.00000, -9.27946, -3.37745
  7739, 95.00000, -10.74773, -3.91186
  7740, 95.00000, -12.21600, -4.44626
  7741, 95.00000, -0.43301, -0.25000
  7742, 95.00000, -1.78618, -1.03125
  7743, 95.00000, -3.13934, -1.81250
  7744, 95.00000, -4.49251, -2.59375
  7745, 95.00000, -5.84567, -3.37500
  7746, 95.00000, -7.19884, -4.15625
  7747, 95.00000, -8.55200, -4.93750
  7748, 95.00000, -9.90517, -5.71875
  7749, 95.00000, -11.25833, -6.50000
  7750, 95.00000, -0.38302, -0.32139
  7751, 95.00000, -1.57997, -1.32575
  7752, 95.00000, -2.77691, -2.33011
  7753, 95.00000, -3.97386, -3.33446
  7754, 95.00000, -5.17080, -4.33882
  7755, 95.00000, -6.36774, -5.34317
  7756, 95.00000, -7.56469, -6.34753
  7757, 95.00000, -8.76163, -7.35188
  7758, 95.00000, -9.95858, -8.35624
  7759, 95.00000, -0.32139, -0.38302
  7760, 95.00000, -1.32575, -1.57997
  7761, 95.00000, -2.33011, -2.77691
  7762, 95.00000, -3.33446, -3.97386
  7763, 95.00000, -4.33882, -5.17080
  7764, 95.00000, -5.34317, -6.36774
  7765, 95.00000, -6.34753, -7.56469
  7766, 95.00000, -7.35188, -8.76163
  7767, 95.00000, -8.35624, -9.95858
  7768, 95.00000, -0.25000, -0.43301
  7769, 95.00000, -1.03125, -1.78618
  7770, 95.00000, -1.81250, -3.13934
  7771, 95.00000, -2.59375, -4.49251
  7772, 95.00000, -3.37500, -5.84567
  7773, 95.00000, -4.15625, -7.19884
  7774, 95.00000, -4.93750, -8.55200
  7775, 95.00000, -5.71875, -9.90517
  7776, 95.00000, -6.50000, -11.25833
  7777, 95.00000, -0.17101, -0.46985
  7778, 95.00000, -0.70542, -1.93812
  7779, 95.00000, -1.23982, -3.40639
  7780, 95.00000, -1.77423, -4.87466
  7781, 95.00000, -2.30864, -6.34293
  7782, 95.00000, -2.84304, -7.81119
  7783, 95.00000, -3.37745, -9.27946
  7784, 95.00000, -3.91186, -10.74773
  7785, 95.00000, -4.44626, -12.21600
  7786, 95.00000, -0.08682, -0.49240
  7787, 95.00000, -0.35815, -2.03117
  7788, 95.00000, -0.62947, -3.56993
  7789, 95.00000, -0.90080, -5.10869
  7790, 95.00000, -1.17213, -6.64745
  7791, 95.00000, -1.44345, -8.18621
  7792, 95.00000, -1.71478, -9.72498
  7793, 95.00000, -1.98610, -11.26374
  7794, 95.00000, -2.25743, -12.80250
  7795, 95.00000, -0.00000, -0.50000
  7796, 95.00000, -0.00000, -2.06250
  7797, 95.00000, -0.00000, -3.62500
  7798, 95.00000, -0.00000, -5.18750
  7799, 95.00000, -0.00000, -6.75000
  7800, 95.00000, -0.00000, -8.31250
  7801, 95.00000, -0.00000, -9.87500
  7802, 95.00000, -0.00000, -11.43750
  7803, 95.00000, -0.00000, -13.00000
  7804, 95.00000, 0.08682, -0.49240
  7805, 95.00000, 0.35815, -2.03117
  7806, 95.00000, 0.62947, -3.56993
  7807, 95.00000, 0.90080, -5.10869
  7808, 95.00000, 1.17213, -6.64745
  7809, 95.00000, 1.44345, -8.18621
  7810, 95.00000, 1.71478, -9.72498
  7811, 95.00000, 1.98610, -11.26374
  7812, 95.00000, 2.25743, -12.80250
  7813, 95.00000, 0.17101, -0.46985
  7814, 95.00000, 0.70542, -1.93812
  7815, 95.00000, 1.23982, -3.40639
  7816, 95.00000, 1.77423, -4.87466
  7817, 95.00000, 2.30864, -6.34293
  7818, 95.00000, 2.84304, -7.81119
  7819, 95.00000, 3.37745, -9.27946
  7820, 95.00000, 3.91186, -10.74773
  7821, 95.00000, 4.44626, -12.21600
  7822, 95.00000, 0.25000, -0.43301
  7823, 95.00000, 1.03125, -1.78618
  7824, 95.00000, 1.81250, -3.13934
  7825, 95.00000, 2.59375, -4.49251
  7826, 95.00000, 3.37500, -5.84567
  7827, 95.00000, 4.15625, -7.19884
  7828, 95.00000, 4.93750, -8.55200
  7829, 95.00000, 5.71875, -9.90517
  7830, 95.00000, 6.50000, -11.25833
  7831, 95.00000, 0.32139, -0.38302
  7832, 95.00000, 1.32575, -1.57997
  7833, 95.00000, 2.33011, -2.77691
  7834, 95.00000, 3.33446, -3.97386
  7835, 95.00000, 4.33882, -5.17080
  7836, 95.00000, 5.34317, -6.36774
  7837, 95.00000, 6.34753, -7.56469
  7838, 95.00000, 7.35188, -8.76163
  7839, 95.00000, 8.35624, -9.95858
  7840, 95.00000, 0.38302, -0.32139
  7841, 95.00000, 1.57997, -1.32575
  7842, 95.00000, 2.77691, -2.33011
  7843, 95.00000, 3.97386, -3.33446
  7844, 95.00000, 5.17080, -4.33882
  7845, 95.00000, 6.36774, -5.34317
  7846, 95.00000, 7.56469, -6.34753
  7847, 95.00000, 8.76163, -7.35188
  7848, 95.00000, 9.95858, -8.35624
  7849, 95.00000, 0.43301, -0.25000
  7850, 95.00000, 1.78618, -1.03125
  7851, 95.00000, 3.13934, -1.81250
  7852, 95.00000, 4.49251, -2.59375
  7853, 95.00000, 5.84567, -3.37500
  7854, 95.00000, 7.19884, -4.15625
  7855, 95.00000, 8.55200, -4.93750
  7856, 95.00000, 9.90517, -5.71875
  7857, 95.00000, 11.25833, -6.50000
  7858, 95.00000, 0.46985, -0.17101
  7859, 95.00000, 1.93812, -0.70542
  7860, 95.00000, 3.40639, -1.23982
  7861, 95.00000, 4.87466, -1.77423
  7862, 95.00000, 6.34293, -2.30864
  7863, 95.00000, 7.81119, -2.84304
  7864, 95.00000, 9.27946, -3.37745
  7865, 95.00000, 10.74773, -3.91186
  7866, 95.00000, 12.21600, -4.44626
  7867, 95.00000, 0.49240, -0.08682
  7868, 95.00000, 2.03117, -0.35815
  7869, 95.00000, 3.56993, -0.62947
  7870, 95.00000, 5.10869, -0.90080
  7871, 95.00000, 6.64745, -1.17213
  7872, 95.00000, 8.18621, -1.44345
  7873, 95.00000, 9.72498, -1.71478
  7874, 95.00000, 11.26374, -1.98610
  7875, 95.00000, 12.80250, -2.25743
  7876, 95.00000, 0.50000, -0.00000
  7877, 95.00000, 2.06250, -0.00000
  7878, 95.00000, 3.62500, -0.00000
  7879, 95.00000, 5.18750, -0.00000
  7880, 95.00000, 6.75000, -0.00000
  7881, 95.00000, 8.31250, -0.00000
  7882, 95.00000, 9.87500, -0.00000
  7883, 95.00000, 11.43750, -0.00000
  7884, 95.00000, 13.00000, -0.00000
  7885, 100.00000, 0.50000, 0.00000
  7886, 100.00000, 2.06250, 0.00000
  7887, 100.00000, 3.62500, 0.00000
  7888, 100.00000, 5.18750, 0.00000
  7889, 100.00000, 6.75000, 0.00000
  7890, 100.00000, 8.31250, 0.00000
  7891, 100.00000, 9.87500, 0.00000
  7892, 100.00000, 11.43750, 0.00000
  7893, 100.00000, 13.00000, 0.00000
  7894, 100.00000, 0.49240, 0.08682
  7895, 100.00000, 2.03117, 0.35815
  7896, 100.00000, 3.56993, 0.62947
  7897, 100.00000, 5.10869, 0.90080
  7898, 100.00000, 6.64745, 1.17213
  7899, 100.00000, 8.18621, 1.44345
  7900, 100.00000, 9.72498, 1.71478
  7901, 100.00000, 11.26374, 1.98610
  7902, 100.00000, 12.80250, 2.25743
  7903, 100.00000, 0.46985, 0.17101
  7904, 100.00000, 1.93812, 0.70542
  7905, 100.00000, 3.40639, 1.23982
  7906, 100.00000, 4.87466, 1.77423
  7907, 100.00000, 6.34293, 2.30864
  7908, 100.00000, 7.81119, 2.84304
  7909, 100.00000, 9.27946, 3.37745
  7910, 100.00000, 10.74773, 3.91186
  7911, 100.00000, 12.21600, 4.44626
  7912, 100.00000, 0.43301, 0.25000
  7913, 100.00000, 1.78618, 1.03125
  7914, 100.00000, 3.13934, 1.81250
  7915, 100.00000, 4.49251, 2.59375
  7916, 100.00000, 5.84567, 3.37500
  7917, 100.00000, 7.19884, 4.15625
  7918, 100.00000, 8.55200, 4.93750
  7919, 100.00000, 9.90517, 5.71875
  7920, 100.00000, 11.25833, 6.50000
  7921, 100.00000, 0.38302, 0.32139
  7922, 100.00000, 1.57997, 1.32575
  7923, 100.00000, 2.77691, 2.33011
  7924, 100.00000, 3.97386, 3.33446
  7925, 100.00000, 5.17080, 4.33882
  7926, 100.00000, 6.36774, 5.34317
  7927, 100.00000, 7.56469, 6.34753
  7928, 100.00000, 8.76163, 7.35188
  7929, 100.00000, 9.95858, 8.35624
  7930, 100.00000, 0.32139, 0.38302
  7931, 100.00000, 1.32575, 1.57997
  7932, 100.00000, 2.33011, 2.77691
  7933, 100.00000, 3.33446, 3.97386
  7934, 100.00000, 4.33882, 5.17080
  7935, 100.00000, 5.34317, 6.36774
  7936, 100.00000, 6.34753, 7.56469
  7937, 100.00000, 7.35188, 8.76163
  7938, 100.00000, 8.35624, 9.95858
  7939, 100.00000, 0.25000, 0.43301
  7940, 100.00000, 1.03125, 1.78618
  7941, 100.00000, 1.81250, 3.13934
  7942, 100.00000, 2.59375, 4.49251
  7943, 100.00000, 3.37500, 5.84567
  7944, 100.00000, 4.15625, 7.19884
  7945, 100.00000, 4.93750, 8.55200
  7946, 100.00000, 5.71875, 9.90517
  7947, 100.00000, 6.50000, 11.25833
  7948, 100.00000, 0.17101, 0.46985
  7949, 100.00000, 0.70542, 1.93812
  7950, 100.00000, 1.23982, 3.40639
  7951, 100.00000, 1.77423, 4.87466
  7952, 100.00000, 2.30864, 6.34293
  7953, 100.00000, 2.84304, 7.81119
  7954, 100.00000, 3.37745, 9.27946
  7955, 100.00000, 3.91186, 10.74773
  7956, 100.00000, 4.44626, 12.21600
  7957, 100.00000, 0.08682, 0.49240
  7958, 100.00000, 0.35815, 2.03117
  7959, 100.00000, 0.62947, 3.56993
  7960, 100.00000, 0.90080, 5.10869
  7961, 100.00000, 1.17213, 6.64745
  7962, 100.00000, 1.44345, 8.18621
  7963, 100.00000, 1.71478, 9.72498
  7964, 100.00000, 1.98610, 11.26374
  7965, 100.00000, 2.25743, 12.80250
  7966, 100.00000, 0.00000, 0.50000
  7967, 100.00000, 0.00000, 2.06250
  7968, 100.00000, 0.00000, 3.62500
  7969, 100.00000, 0.00000, 5.18750
  7970, 100.00000, 0.00000, 6.75000
  7971, 100.00000, 0.00000, 8.31250
  7972, 100.00000, 0.00000, 9.87500
  7973, 100.00000, 0.00000, 11.43750
  7974, 100.00000, 0.00000, 13.00000
  7975, 100.00000, -0.08682, 0.49240
  7976, 100.00000, -0.35815, 2.03117
  7977, 100.00000, -0.62947, 3.56993
  7978, 100.00000, -0.90080, 5.10869
  7979, 100.00000, -1.17213, 6.64745
  7980, 100.00000, -1.44345, 8.18621
  7981, 100.00000, -1.71478, 9.72498
  7982, 100.00000, -1.98610, 11.26374
  7983, 100.00000, -2.25743, 12.80250
  7984, 100.00000, -0.17101, 0.46985
  7985, 100.00000, -0.70542, 1.93812
  7986, 100.00000, -1.23982, 3.40639
  7987, 100.00000, -1.77423, 4.87466
  7988, 100.00000, -2.30864, 6.34293
  7989, 100.00000, -2.84304, 7.81119
  7990, 100.00000, -3.37745, 9.27946
  7991, 100.00000, -3.91186, 10.74773
  7992, 100.00000, -4.44626, 12.21600
  7993, 100.00000, -0.25000, 0.43301
  7994, 100.00000, -1.03125, 1.78618
  7995, 100.00000, -1.81250, 3.13934
  7996, 100.00000, -2.59375, 4.49251
  7997, 100.00000, -3.37500, 5.84567
  7998, 100.00000, -4.15625, 7.19884
  7999, 100.00000, -4.93750, 8.55200
  8000, 100.00000, -5.71875, 9.90517
  8001, 100.00000, -6.50000, 11.25833
  8002, 100.00000, -0.32139, 0.38302
  8003, 100.00000, -1.32575, 1.57997
  8004, 100.00000, -2.33011, 2.77691
  8005, 100.00000, -3.33446, 3.97386
  8006, 100.00000, -4.33882, 5.17080
  8007, 100.00000, -5.34317, 6.36774
  8008, 100.00000, -6.34753, 7.56469
  8009, 100.00000, -7.35188, 8.76163
  8010, 100.00000, -8.35624, 9.95858
  8011, 100.00000, -0.38302, 0.32139
  8012, 100.00000, -1.57997, 1.32575
  8013, 100.00000, -2.77691, 2.33011
  8014, 100.00000, -3.97386, 3.33446
  8015, 100.00000, -5.17080, 4.33882
  8016, 100.00000, -6.36774, 5.34317
  8017, 100.00000, -7.56469, 6.34753
  8018, 100.00000, -8.76163, 7.35188
  8019, 100.00000, -9.95858, 8.35624
  8020, 100.00000, -0.43301, 0.25000
  8021, 100.00000, -1.78618, 1.03125
  8022, 100.00000, -3.13934, 1.81250
  8023, 100.00000, -4.49251, 2.59375
  8024, 100.00000, -5.84567, 3.37500
  8025, 100.00000, -7.19884, 4.15625
  8026, 100.00000, -8.55200, 4.93750
  8027, 100.00000, -9.90517, 5.71875
  8028, 100.00000, -11.25833, 6.50000
  8029, 100.00000, -0.46985, 0.17101
  8030, 100.00000, -1.93812, 0.70542
  8031, 100.00000, -3.40639, 1.23982
  8032, 100.00000, -4.87466, 1.77423
  8033, 100.00000, -6.34293, 2.30864
  8034, 100.00000, -7.81119, 2.84304
  8035, 100.00000, -9.27946, 3.37745
  8036, 100.00000, -10.74773, 3.91186
  8037, 100.00000, -12.21600, 4.44626
  8038, 100.00000, -0.49240, 0.08682
  8039, 100.00000, -2.03117, 0.35815
  8040, 100.00000, -3.56993, 0.62947
  8041, 100.00000, -5.10869, 0.90080
  8042, 100.00000, -6.64745, 1.17213
  8043, 100.00000, -8.18621, 1.44345
  8044, 100.00000, -9.72498, 1.71478
  8045, 100.00000, -11.26374, 1.98610
  8046, 100.00000, -12.80250, 2.25743
  8047, 100.00000, -0.50000, 0.00000
  8048, 100.00000, -2.06250, 0.00000
  8049, 100.00000, -3.62500, 0.00000
  8050, 100.00000, -5.18750, 0.00000
  8051, 100.00000, -6.75000, 0.00000
  8052, 100.00000, -8.31250, 0.00000
  8053, 100.00000, -9.87500, 0.00000
  8054, 100.00000, -11.43750, 0.00000
  8055, 100.00000, -13.00000, 0.00000
  8056, 100.00000, -0.49240, -0.08682
  8057, 100.00000, -2.03117, -0.35815
  8058, 100.00000, -3.56993, -0.62947
  8059, 100.00000, -5.10869, -0.90080
  8060, 100.00000, -6.64745, -1.17213
  8061, 100.00000, -8.18621, -1.44345
  8062, 100.00000, -9.72498, -1.71478
  8063, 100.00000, -11.26374, -1.98610
  8064, 100.00000, -12.80250, -2.25743
  8065, 100.00000, -0.46985, -0.17101
  8066, 100.00000, -1.93812, -0.70542
  8067, 100.00000, -3.40639, -1.23982
  8068, 100.00000, -4.87466, -1.77423
  8069, 100.00000, -6.34293, -2.30864
  8070, 100.00000, -7.81119, -2.84304
  8071, 100.00000, -9.27946, -3.37745
  8072, 100.00000, -10.74773, -3.91186
  8073, 100.00000, -12.21600, -4.44626
  8074, 100.00000, -0.43301, -0.25000
  8075, 100.00000, -1.78618, -1.03125
  8076, 100.00000, -3.13934, -1.81250
  8077, 100.00000, -4.49251, -2.59375
  8078, 100.00000, -5.84567, -3.37500
  8079, 100.00000, -7.19884, -4.15625
  8080, 100.00000, -8.55200, -4.93750
  8081, 100.00000, -9.90517, -5.71875
  8082, 100.00000, -11.25833, -6.50000
  8083, 100.00000, -0.38302, -0.32139
  8084, 100.00000, -1.57997, -1.32575
  8085, 100.00000, -2.77691, -2.33011
  8086, 100.00000, -3.97386, -3.33446
  8087, 100.00000, -5.17080, -4.33882
  8088, 100.00000, -6.36774, -5.34317
  8089, 100.00000, -7.56469, -6.34753
  8090, 100.00000, -8.76163, -7.35188
  8091, 100.00000, -9.95858, -8.35624
  8092, 100.00000, -0.32139, -0.38302
  8093, 100.00000, -1.32575, -1.57997
  8094, 100.00000, -2.33011, -2.77691
  8095, 100.00000, -3.33446, -3.97386
  8096, 100.00000, -4.33882, -5.17080
  8097, 100.00000, -5.34317, -6.36774
  8098, 100.00000, -6.34753, -7.56469
  8099, 100.00000, -7.35188, -8.76163
  8100, 100.00000, -8.35624, -9.95858
  8101, 100.00000, -0.25000, -0.43301
  8102, 100.00000, -1.03125, -1.78618
  8103, 100.00000, -1.81250, -3.13934
  8104, 100.00000, -2.59375, -4.49251
  8105, 100.00000, -3.37500, -5.84567
  8106, 100.00000, -4.15625, -7.19884
  8107, 100.00000, -4.93750, -8.55200
  8108, 100.00000, -5.71875, -9.90517
  8109, 100.00000, -6.50000, -11.25833
  8110, 100.00000, -0.17101, -0.46985
  8111, 100.00000, -0.70542, -1.93812
  8112, 100.00000, -1.23982, -3.40639
  8113, 100.00000, -1.77423, -4.87466
  8114, 100.00000, -2.30864, -6.34293
  8115, 100.00000, -2.84304, -7.81119
  8116, 100.00000, -3.37745, -9.27946
  8117, 100.00000, -3.91186, -10.74773
  8118, 100.00000, -4.44626, -12.21600
  8119, 100.00000, -0.08682, -0.49240
  8120, 100.00000, -0.35815, -2.03117
  8121, 100.00000, -0.62947, -3.56993
  8122, 100.00000, -0.90080, -5.10869
  8123, 100.00000, -1.17213, -6.64745
  8124, 100.00000, -1.44345, -8.18621
  8125, 100.00000, -1.71478, -9.72498
  8126, 100.00000, -1.98610, -11.26374
  8127, 100.00000, -2.25743, -12.80250
  8128, 100.00000, -0.00000, -0.50000
  8129, 100.00000, -0.00000, -2.06250
  8130, 100.00000, -0.00000, -3.62500
  8131, 100.00000, -0.00000, -5.18750
  8132, 100.00000, -0.00000, -6.75000
  8133, 100.00000, -0.00000, -8.31250
  8134, 100.00000, -0.00000, -9.87500
  8135, 100.00000, -0.00000, -11.43750
  8136, 100.00000, -0.00000, -13.00000
  8137, 100.00000, 0.08682, -0.49240
  8138, 100.00000, 0.35815, -2.03117
  8139, 100.00000, 0.62947, -3.56993
  8140, 100.00000, 0.90080, -5.10869
  8141, 100.00000, 1.17213, -6.64745
  8142, 100.00000, 1.44345, -8.18621
  8143, 100.00000, 1.71478, -9.72498
  8144, 100.00000, 1.98610, -11.26374
  8145, 100.00000, 2.25743, -12.80250
  8146, 100.00000, 0.17101, -0.46985
  8147, 100.00000, 0.70542, -1.93812
  8148, 100.00000, 1.23982, -3.40639
  8149, 100.00000, 1.77423, -4.87466
  8150, 100.00000, 2.30864, -6.34293
  8151, 100.00000, 2.84304, -7.81119
  8152, 100.00000, 3.37745, -9.27946
  8153, 100.00000, 3.91186, -10.74773
  8154, 100.00000, 4.44626, -12.21600
  8155, 100.00000, 0.25000, -0.43301
  8156, 100.00000, 1.03125, -1.78618
  8157, 100.00000, 1.81250, -3.13934
  8158, 100.00000, 2.59375, -4.49251
  8159, 100.00000, 3.37500, -5.84567
  8160, 100.00000, 4.15625, -7.19884
  8161, 100.00000, 4.93750, -8.55200
  8162, 100.00000, 5.71875, -9.90517
  8163, 100.00000, 6.50000, -11.25833
  8164, 100.00000, 0.32139, -0.38302
  8165, 100.00000, 1.32575, -1.57997
  8166, 100.00000, 2.33011, -2.77691
  8167, 100.00000, 3.33446, -3.97386
  8168, 100.00000, 4.33882, -5.17080
  8169, 100.00000, 5.34317, -6.36774
  8170, 100.00000, 6.34753, -7.56469
  8171, 100.00000, 7.35188, -8.76163
  8172, 100.00000, 8.35624, -9.95858
  8173, 100.00000, 0.38302, -0.32139
  8174, 100.00000, 1.57997, -1.32575
  8175, 100.00000, 2.77691, -2.33011
  8176, 100.00000, 3.97386, -3.33446
  8177, 100.00000, 5.17080, -4.33882
  8178, 100.00000, 6.36774, -5.34317
  8179, 100.00000, 7.56469, -6.34753
  8180, 100.00000, 8.76163, -7.35188
  8181, 100.00000, 9.95858, -8.35624
  8182, 100.00000, 0.43301, -0.25000
  8183, 100.00000, 1.78618, -1.03125
  8184, 100.00000, 3.13934, -1.81250
  8185, 100.00000, 4.49251, -2.59375
  8186, 100.00000, 5.84567, -3.37500
  8187, 100.00000, 7.19884, -4.15625
  8188, 100.00000, 8.55200, -4.93750
  8189, 100.00000, 9.90517, -5.71875
  8190, 100.00000, 11.25833, -6.50000
  8191, 100.00000, 0.46985, -0.17101
  8192, 100.00000, 1.93812, -0.70542
  8193, 100.00000, 3.40639, -1.23982
  8194, 100.00000, 4.87466, -1.77423
  8195, 100.00000, 6.34293, -2.30864
  8196, 100.00000, 7.81119, -2.84304
  8197, 100.00000, 9.27946, -3.37745
  8198, 100.00000, 10.74773, -3.91186
  8199, 100.00000, 12.21600, -4.44626
  8200, 100.00000, 0.49240, -0.08682
  8201, 100.00000, 2.03117, -0.35815
  8202, 100.00000, 3.56993, -0.62947
  8203, 100.00000, 5.10869, -0.90080
  8204, 100.00000, 6.64745, -1.17213
  8205, 100.00000, 8.18621, -1.44345
  8206, 100.00000, 9.72498, -1.71478
  8207, 100.00000, 11.26374, -1.98610
  8208, 100.00000, 12.80250, -2.25743
  8209, 100.00000, 0.50000, -0.00000
  8210, 100.00000, 2.06250, -0.00000
  8211, 100.00000, 3.62500, -0.00000
  8212, 100.00000, 5.18750, -0.00000
  8213, 100.00000, 6.75000, -0.00000
  8214, 100.00000, 8.31250, -0.00000
  8215, 100.00000, 9.87500, -0.00000
  8216, 100.00000, 11.43750, -0.00000
  8217, 100.00000, 13.00000, -0.00000
  8218, 105.00000, 0.50000, 0.00000
  8219, 105.00000, 2.06250, 0.00000
  8220, 105.00000, 3.62500, 0.00000
  8221, 105.00000, 5.18750, 0.00000
  8222, 105.00000, 6.75000, 0.00000
  8223, 105.00000, 8.31250, 0.00000
  8224, 105.00000, 9.87500, 0.00000
  8225, 105.00000, 11.43750, 0.00000
  8226, 105.00000, 13.00000, 0.00000
  8227, 105.00000, 0.49240, 0.08682
  8228, 105.00000, 2.03117, 0.35815
  8229, 105.00000, 3.56993, 0.62947
  8230, 105.00000, 5.10869, 0.90080
  8231, 105.00000, 6.64745, 1.17213
  8232, 105.00000, 8.18621, 1.44345
  8233, 105.00000, 9.72498, 1.71478
  8234, 105.00000, 11.26374, 1.98610
  8235, 105.00000, 12.80250, 2.25743
  8236, 105.00000, 0.46985, 0.17101
  8237, 105.00000, 1.93812, 0.70542
  8238, 105.00000, 3.40639, 1.23982
  8239, 105.00000, 4.87466, 1.77423
  8240, 105.00000, 6.34293, 2.30864
  8241, 105.00000, 7.81119, 2.84304
  8242, 105.00000, 9.27946, 3.37745
  8243, 105.00000, 10.74773, 3.91186
  8244, 105.00000, 12.21600, 4.44626
  8245, 105.00000, 0.43301, 0.25000
  8246, 105.00000, 1.78618, 1.03125
  8247, 105.00000, 3.13934, 1.81250
  8248, 105.00000, 4.49251, 2.59375
  8249, 105.00000, 5.84567, 3.37500
  8250, 105.00000, 7.19884, 4.15625
  8251, 105.00000, 8.55200, 4.93750
  8252, 105.00000, 9.90517, 5.71875
  8253, 105.00000, 11.25833, 6.50000
  8254, 105.00000, 0.38302, 0.32139
  8255, 105.00000, 1.57997, 1.32575
  8256, 105.00000, 2.77691, 2.33011
  8257, 105.00000, 3.97386, 3.33446
  8258, 105.00000, 5.17080, 4.33882
  8259, 105.00000, 6.36774, 5.34317
  8260, 105.00000, 7.56469, 6.34753
  8261, 105.00000, 8.76163, 7.35188
  8262, 105.00000, 9.95858, 8.35624
  8263, 105.00000, 0.32139, 0.38302
  8264, 105.00000, 1.32575, 1.57997
  8265, 105.00000, 2.33011, 2.77691
  8266, 105.00000, 3.33446, 3.97386
  8267, 105.00000, 4.33882, 5.17080
  8268, 105.00000, 5.34317, 6.36774
  8269, 105.00000, 6.34753, 7.56469
  8270, 105.00000, 7.35188, 8.76163
  8271, 105.00000, 8.35624, 9.95858
  8272, 105.00000, 0.25000, 0.43301
  8273, 105.00000, 1.03125, 1.78618
  8274, 105.00000, 1.81250, 3.13934
  8275, 105.00000, 2.59375, 4.49251
  8276, 105.00000, 3.37500, 5.84567
  8277, 105.00000, 4.15625, 7.19884
  8278, 105.00000, 4.93750, 8.55200
  8279, 105.00000, 5.71875, 9.90517
  8280, 105.00000, 6.50000, 11.25833
  8281, 105.00000, 0.17101, 0.46985
  8282, 105.00000, 0.70542, 1.93812
  8283, 105.00000, 1.23982, 3.40639
  8284, 105.00000, 1.77423, 4.87466
  8285, 105.00000, 2.30864, 6.34293
  8286, 105.00000, 2.84304, 7.81119
  8287, 105.00000, 3.37745, 9.27946
  8288, 105.00000, 3.91186, 10.74773
  8289, 105.00000, 4.44626, 12.21600
  8290, 105.00000, 0.08682, 0.49240
  8291, 105.00000, 0.35815, 2.03117
  8292, 105.00000, 0.62947, 3.56993
  8293, 105.00000, 0.90080, 5.10869
  8294, 105.00000, 1.17213, 6.64745
  8295, 105.00000, 1.44345, 8.18621
  8296, 105.00000, 1.71478, 9.72498
  8297, 105.00000, 1.98610, 11.26374
  8298, 105.00000, 2.25743, 12.80250
  8299, 105.00000, 0.00000, 0.50000
  8300, 105.00000, 0.00000, 2.06250
  8301, 105.00000, 0.00000, 3.62500
  8302, 105.00000, 0.00000, 5.18750
  8303, 105.00000, 0.00000, 6.75000
  8304, 105.00000, 0.00000, 8.31250
  8305, 105.00000, 0.00000, 9.87500
  8306, 105.00000, 0.00000, 11.43750
  8307, 105.00000, 0.00000, 13.00000
  8308, 105.00000, -0.08682, 0.49240
  8309, 105.00000, -0.35815, 2.03117
  8310, 105.00000, -0.62947, 3.56993
  8311, 105.00000, -0.90080, 5.10869
  8312, 105.00000, -1.17213, 6.64745
  8313, 105.00000, -1.44345, 8.18621
  8314, 105.00000, -1.71478, 9.72498
  8315, 105.00000, -1.98610, 11.26374
  8316, 105.00000, -2.25743, 12.80250
  8317, 105.00000, -0.17101, 0.46985
  8318, 105.00000, -0.70542, 1.93812
  8319, 105.00000, -1.23982, 3.40639
  8320, 105.00000, -1.77423, 4.87466
  8321, 105.00000, -2.30864, 6.34293
  8322, 105.00000, -2.84304, 7.81119
  8323, 105.00000, -3.37745, 9.27946
  8324, 105.00000, -3.91186, 10.74773
  8325, 105.00000, -4.44626, 12.21600
  8326, 105.00000, -0.25000, 0.43301
  8327, 105.00000, -1.03125, 1.78618
  8328, 105.00000, -1.81250, 3.13934
  8329, 105.00000, -2.59375, 4.49251
  8330, 105.00000, -3.37500, 5.84567
  8331, 105.00000, -4.15625, 7.19884
  8332, 105.00000, -4.93750, 8.55200
  8333, 105.00000, -5.71875, 9.90517
  8334, 105.00000, -6.50000, 11.25833
  8335, 105.00000, -0.32139, 0.38302
  8336, 105.00000, -1.32575, 1.57997
  8337, 105.00000, -2.33011, 2.77691
  8338, 105.00000, -3.33446, 3.97386
  8339, 105.00000, -4.33882, 5.17080
  8340, 105.00000, -5.34317, 6.36774
  8341, 105.00000, -6.34753, 7.56469
  8342, 105.00000, -7.35188, 8.76163
  8343, 105.00000, -8.35624, 9.95858
  8344, 105.00000, -0.38302, 0.32139
  8345, 105.00000, -1.57997, 1.32575
  8346, 105.00000, -2.77691, 2.33011
  8347, 105.00000, -3.97386, 3.33446
  8348, 105.00000, -5.17080, 4.33882
  8349, 105.00000, -6.36774, 5.34317
  8350, 105.00000, -7.56469, 6.34753
  8351, 105.00000, -8.76163, 7.35188
  8352, 105.00000, -9.95858, 8.35624
  8353, 105.00000, -0.43301, 0.25000
  8354, 105.00000, -1.78618, 1.03125
  8355, 105.00000, -3.13934, 1.81250
  8356, 105.00000, -4.49251, 2.59375
  8357, 105.00000, -5.84567, 3.37500
  8358, 105.00000, -7.19884, 4.15625
  8359, 105.00000, -8.55200, 4.93750
  8360, 105.00000, -9.90517, 5.71875
  8361, 105.00000, -11.25833, 6.50000
  8362, 105.00000, -0.46985, 0.17101
  8363, 105.00000, -1.93812, 0.70542
  8364, 105.00000, -3.40639, 1.23982
  8365, 105.00000, -4.87466, 1.77423
  8366, 105.00000, -6.34293, 2.30864
  8367, 105.00000, -7.81119, 2.84304
  8368, 105.00000, -9.27946, 3.37745
  8369, 105.00000, -10.74773, 3.91186
  8370, 105.00000, -12.21600, 4.44626
  8371, 105.00000, -0.49240, 0.08682
  8372, 105.00000, -2.03117, 0.35815
  8373, 105.00000, -3.56993, 0.62947
  8374, 105.00000, -5.10869, 0.90080
  8375, 105.00000, -6.64745, 1.17213
  8376, 105.00000, -8.18621, 1.44345
  8377, 105.00000, -9.72498, 1.71478
  8378, 105.00000, -11.26374, 1.98610
  8379, 105.00000, -12.80250, 2.25743
  8380, 105.00000, -0.50000, 0.00000
  8381, 105.00000, -2.06250, 0.00000
  8382, 105.00000, -3.62500, 0.00000
  8383, 105.00000, -5.18750, 0.00000
  8384, 105.00000, -6.75000, 0.00000
  8385, 105.00000, -8.31250, 0.00000
  8386, 105.00000, -9.87500, 0.00000
  8387, 105.00000, -11.43750, 0.00000
  8388, 105.00000, -13.00000, 0.00000
  8389, 105.00000, -0.49240, -0.08682
  8390, 105.00000, -2.03117, -0.35815
  8391, 105.00000, -3.56993, -0.62947
  8392, 105.00000, -5.10869, -0.90080
  8393, 105.00000, -6.64745, -1.17213
  8394, 105.00000, -8.18621, -1.44345
  8395, 105.00000, -9.72498, -1.71478
  8396, 105.00000, -11.26374, -1.98610
  8397, 105.00000, -12.80250, -2.25743
  8398, 105.00000, -0.46985, -0.17101
  8399, 105.00000, -1.93812, -0.70542
  8400, 105.00000, -3.40639, -1.23982
  8401, 105.00000, -4.87466, -1.77423
  8402, 105.00000, -6.34293, -2.30864
  8403, 105.00000, -7.81119, -2.84304
  8404, 105.00000, -9.27946, -3.37745
  8405, 105.00000, -10.74773, -3.91186
  8406, 105.00000, -12.21600, -4.44626
  8407, 105.00000, -0.43301, -0.25000
  8408, 105.00000, -1.78618, -1.03125
  8409, 105.00000, -3.13934, -1.81250
  8410, 105.00000, -4.49251, -2.59375
  8411, 105.00000, -5.84567, -3.37500
  8412, 105.00000, -7.19884, -4.15625
  8413, 105.00000, -8.55200, -4.93750
  8414, 105.00000, -9.90517, -5.71875
  8415, 105.00000, -11.25833, -6.50000
  8416, 105.00000, -0.38302, -0.32139
  8417, 105.00000, -1.57997, -1.32575
  8418, 105.00000, -2.77691, -2.33011
  8419, 105.00000, -3.97386, -3.33446
  8420, 105.00000, -5.17080, -4.33882
  8421, 105.00000, -6.36774, -5.34317
  8422, 105.00000, -7.56469, -6.34753
  8423, 105.00000, -8.76163, -7.35188
  8424, 105.00000, -9.95858, -8.35624
  8425, 105.00000, -0.32139, -0.38302
  8426, 105.00000, -1.32575, -1.57997
  8427, 105.00000, -2.33011, -2.77691
  8428, 105.00000, -3.33446, -3.97386
  8429, 105.00000, -4.33882, -5.17080
  8430, 105.00000, -5.34317, -6.36774
  8431, 105.00000, -6.34753, -7.56469
  8432, 105.00000, -7.35188, -8.76163
  8433, 105.00000, -8.35624, -9.95858
  8434, 105.00000, -0.25000, -0.43301
  8435, 105.00000, -1.03125, -1.78618
  8436, 105.00000, -1.81250, -3.13934
  8437, 105.00000, -2.59375, -4.49251
  8438, 105.00000, -3.37500, -5.84567
  8439, 105.00000, -4.15625, -7.19884
  8440, 105.00000, -4.93750, -8.55200
  8441, 105.00000, -5.71875, -9.90517
  8442, 105.00000, -6.50000, -11.25833
  8443, 105.00000, -0.17101, -0.46985
  8444, 105.00000, -0.70542, -1.93812
  8445, 105.00000, -1.23982, -3.40639
  8446, 105.00000, -1.77423, -4.87466
  8447, 105.00000, -2.30864, -6.34293
  8448, 105.00000, -2.84304, -7.81119
  8449, 105.00000, -3.37745, -9.27946
  8450, 105.00000, -3.91186, -10.74773
  8451, 105.00000, -4.44626, -12.21600
  8452, 105.00000, -0.08682, -0.49240
  8453, 105.00000, -0.35815, -2.03117
  8454, 105.00000, -0.62947, -3.56993
  8455, 105.00000, -0.90080, -5.10869
  8456, 105.00000, -1.17213, -6.64745
  8457, 105.00000, -1.44345, -8.18621
  8458, 105.00000, -1.71478, -9.72498
  8459, 105.00000, -1.98610, -11.26374
  8460, 105.00000, -2.25743, -12.80250
  8461, 105.00000, -0.00000, -0.50000
  8462, 105.00000, -0.00000, -2.06250
  8463, 105.00000, -0.00000, -3.62500
  8464, 105.00000, -0.00000, -5.18750
  8465, 105.00000, -0.00000, -6.75000
  8466, 105.00000, -0.00000, -8.31250
  8467, 105.00000, -0.00000, -9.87500
  8468, 105.00000, -0.00000, -11.43750
  8469, 105.00000, -0.00000, -13.00000
  8470, 105.00000, 0.08682, -0.49240
  8471, 105.00000, 0.35815, -2.03117
  8472, 105.00000, 0.62947, -3.56993
  8473, 105.00000, 0.90080, -5.10869
  8474, 105.00000, 1.17213, -6.64745
  8475, 105.00000, 1.44345, -8.18621
  8476, 105.00000, 1.71478, -9.72498
  8477, 105.00000, 1.98610, -11.26374
  8478, 105.00000, 2.25743, -12.80250
  8479, 105.00000, 0.17101, -0.46985
  8480, 105.00000, 0.70542, -1.93812
  8481, 105.00000, 1.23982, -3.40639
  8482, 105.00000, 1.77423, -4.87466
  8483, 105.00000, 2.30864, -6.34293
  8484, 105.00000, 2.84304, -7.81119
  8485, 105.00000, 3.37745, -9.27946
  8486, 105.00000, 3.91186, -10.74773
  8487, 105.00000, 4.44626, -12.21600
  8488, 105.00000, 0.25000, -0.43301
  8489, 105.00000, 1.03125, -1.78618
  8490, 105.00000, 1.81250, -3.13934
  8491, 105.00000, 2.59375, -4.49251
  8492, 105.00000, 3.37500, -5.84567
  8493, 105.00000, 4.15625, -7.19884
  8494, 105.00000, 4.93750, -8.55200
  8495, 105.00000, 5.71875, -9.90517
  8496, 105.00000, 6.50000, -11.25833
  8497, 105.00000, 0.32139, -0.38302
  8498, 105.00000, 1.32575, -1.57997
  8499, 105.00000, 2.33011, -2.77691
  8500, 105.00000, 3.33446, -3.97386
  8501, 105.00000, 4.33882, -5.17080
  8502, 105.00000, 5.34317, -6.36774
  8503, 105.00000, 6.34753, -7.56469
  8504, 105.00000, 7.35188, -8.76163
  8505, 105.00000, 8.35624, -9.95858
  8506, 105.00000, 0.38302, -0.32139
  8507, 105.00000, 1.57997, -1.32575
  8508, 105.00000, 2.77691, -2.33011
  8509, 105.00000, 3.97386, -3.33446
  8510, 105.00000, 5.17080, -4.33882
  8511, 105.00000, 6.36774, -5.34317
  8512, 105.00000, 7.56469, -6.34753
  8513, 105.00000, 8.76163, -7.35188
  8514, 105.00000, 9.95858, -8.35624
  8515, 105.00000, 0.43301, -0.25000
  8516, 105.00000, 1.78618, -1.03125
  8517, 105.00000, 3.13934, -1.81250
  8518, 105.00000, 4.49251, -2.59375
  8519, 105.00000, 5.84567, -3.37500
  8520, 105.00000, 7.19884, -4.15625
  8521, 105.00000, 8.55200, -4.93750
  8522, 105.00000, 9.90517, -5.71875
  8523, 105.00000, 11.25833, -6.50000
  8524, 105.00000, 0.46985, -0.17101
  8525, 105.00000, 1.93812, -0.70542
  8526, 105.00000, 3.40639, -1.23982
  8527, 105.00000, 4.87466, -1.77423
  8528, 105.00000, 6.34293, -2.30864
  8529, 105.00000, 7.81119, -2.84304
  8530, 105.00000, 9.27946, -3.37745
  8531, 105.00000, 10.74773, -3.91186
  8532, 105.00000, 12.21600, -4.44626
  8533, 105.00000, 0.49240, -0.08682
  8534, 105.00000, 2.03117, -0.35815
  8535, 105.00000, 3.56993, -0.62947
  8536, 105.00000, 5.10869, -0.90080
  8537, 105.00000, 6.64745, -1.17213
  8538, 105.00000, 8.18621, -1.44345
  8539, 105.00000, 9.72498, -1.71478
  8540, 105.00000, 11.26374, -1.98610
  8541, 105.00000, 12.80250, -2.25743
  8542, 105.00000, 0.50000, -0.00000
  8543, 105.00000, 2.06250, -0.00000
  8544, 105.00000, 3.62500, -0.00000
  8545, 105.00000, 5.18750, -0.00000
  8546, 105.00000, 6.75000, -0.00000
  8547, 105.00000, 8.31250, -0.00000
  8548, 105.00000, 9.87500, -0.00000
  8549, 105.00000, 11.43750, -0.00000
  8550, 105.00000, 13.00000, -0.00000
  8551, 110.00000, 0.50000, 0.00000
  8552, 110.00000, 2.06250, 0.00000
  8553, 110.00000, 3.62500, 0.00000
  8554, 110.00000, 5.18750, 0.00000
  8555, 110.00000, 6.75000, 0.00000
  8556, 110.00000, 8.31250, 0.00000
  8557, 110.00000, 9.87500, 0.00000
  8558, 110.00000, 11.43750, 0.00000
  8559, 110.00000, 13.00000, 0.00000
  8560, 110.00000, 0.49240, 0.08682
  8561, 110.00000, 2.03117, 0.35815
  8562, 110.00000, 3.56993, 0.62947
  8563, 110.00000, 5.10869, 0.90080
  8564, 110.00000, 6.64745, 1.17213
  8565, 110.00000, 8.18621, 1.44345
  8566, 110.00000, 9.72498, 1.71478
  8567, 110.00000, 11.26374, 1.98610
  8568, 110.00000, 12.80250, 2.25743
  8569, 110.00000, 0.46985, 0.17101
  8570, 110.00000, 1.93812, 0.70542
  8571, 110.00000, 3.40639, 1.23982
  8572, 110.00000, 4.87466, 1.77423
  8573, 110.00000, 6.34293, 2.30864
  8574, 110.00000, 7.81119, 2.84304
  8575, 110.00000, 9.27946, 3.37745
  8576, 110.00000, 10.74773, 3.91186
  8577, 110.00000, 12.21600, 4.44626
  8578, 110.00000, 0.43301, 0.25000
  8579, 110.00000, 1.78618, 1.03125
  8580, 110.00000, 3.13934, 1.81250
  8581, 110.00000, 4.49251, 2.59375
  8582, 110.00000, 5.84567, 3.37500
  8583, 110.00000, 7.19884, 4.15625
  8584, 110.00000, 8.55200, 4.93750
  8585, 110.00000, 9.90517, 5.71875
  8586, 110.00000, 11.25833, 6.50000
  8587, 110.00000, 0.38302, 0.32139
  8588, 110.00000, 1.57997, 1.32575
  8589, 110.00000, 2.77691, 2.33011
  8590, 110.00000, 3.97386, 3.33446
  8591, 110.00000, 5.17080, 4.33882
  8592, 110.00000, 6.36774, 5.34317
  8593, 110.00000, 7.56469, 6.34753
  8594, 110.00000, 8.76163, 7.35188
  8595, 110.00000, 9.95858, 8.35624
  8596, 110.00000, 0.32139, 0.38302
  8597, 110.00000, 1.32575, 1.57997
  8598, 110.00000, 2.33011, 2.77691
  8599, 110.00000, 3.33446, 3.97386
  8600, 110.00000, 4.33882, 5.17080
  8601, 110.00000, 5.34317, 6.36774
  8602, 110.00000, 6.34753, 7.56469
  8603, 110.00000, 7.35188, 8.76163
  8604, 110.00000, 8.35624, 9.95858
  8605, 110.00000, 0.25000, 0.43301
  8606, 110.00000, 1.03125, 1.78618
  8607, 110.00000, 1.81250, 3.13934
  8608, 110.00000, 2.59375, 4.49251
  8609, 110.00000, 3.37500, 5.84567
  8610, 110.00000, 4.15625, 7.19884
  8611, 110.00000, 4.93750, 8.55200
  8612, 110.00000, 5.71875, 9.90517
  8613, 110.00000, 6.50000, 11.25833
  8614, 110.00000, 0.17101, 0.46985
  8615, 110.00000, 0.70542, 1.93812
  8616, 110.00000, 1.23982, 3.40639
  8617, 110.00000, 1.77423, 4.87466
  8618, 110.00000, 2.30864, 6.34293
  8619, 110.00000, 2.84304, 7.81119
  8620, 110.00000, 3.37745, 9.27946
  8621, 110.00000, 3.91186, 10.74773
  8622, 110.00000, 4.44626, 12.21600
  8623, 110.00000, 0.08682, 0.49240
  8624, 110.00000, 0.35815, 2.03117
  8625, 110.00000, 0.62947, 3.56993
  8626, 110.00000, 0.90080, 5.10869
  8627, 110.00000, 1.17213, 6.64745
  8628, 110.00000, 1.44345, 8.18621
  8629, 110.00000, 1.71478, 9.72498
  8630, 110.00000, 1.98610, 11.26374
  8631, 110.00000, 2.25743, 12.80250
  8632, 110.00000, 0.00000, 0.50000
  8633, 110.00000, 0.00000, 2.06250
  8634, 110.00000, 0.00000, 3.62500
  8635, 110.00000, 0.00000, 5.18750
  8636, 110.00000, 0.00000, 6.75000
  8637, 110.00000, 0.00000, 8.31250
  8638, 110.00000, 0.00000, 9.87500
  8639, 110.00000, 0.00000, 11.43750
  8640, 110.00000, 0.00000, 13.00000
  8641, 110.00000, -0.08682, 0.49240
  8642, 110.00000, -0.35815, 2.03117
  8643, 110.00000, -0.62947, 3.56993
  8644, 110.00000, -0.90080, 5.10869
  8645, 110.00000, -1.17213, 6.64745
  8646, 110.00000, -1.44345, 8.18621
  8647, 110.00000, -1.71478, 9.72498
  8648, 110.00000, -1.98610, 11.26374
  8649, 110.00000, -2.25743, 12.80250
  8650, 110.00000, -0.17101, 0.46985
  8651, 110.00000, -0.70542, 1.93812
  8652, 110.00000, -1.23982, 3.40639
  8653, 110.00000, -1.77423, 4.87466
  8654, 110.00000, -2.30864, 6.34293
  8655, 110.00000, -2.84304, 7.81119
  8656, 110.00000, -3.37745, 9.27946
  8657, 110.00000, -3.91186, 10.74773
  8658, 110.00000, -4.44626, 12.21600
  8659, 110.00000, -0.25000, 0.43301
  8660, 110.00000, -1.03125, 1.78618
  8661, 110.00000, -1.81250, 3.13934
  8662, 110.00000, -2.59375, 4.49251
  8663, 110.00000, -3.37500, 5.84567
  8664, 110.00000, -4.15625, 7.19884
  8665, 110.00000, -4.93750, 8.55200
  8666, 110.00000, -5.71875, 9.90517
  8667, 110.00000, -6.50000, 11.25833
  8668, 110.00000, -0.32139, 0.38302
  8669, 110.00000, -1.32575, 1.57997
  8670, 110.00000, -2.33011, 2.77691
  8671, 110.00000, -3.33446, 3.97386
  8672, 110.00000, -4.33882, 5.17080
  8673, 110.00000, -5.34317, 6.36774
  8674, 110.00000, -6.34753, 7.56469
  8675, 110.00000, -7.35188, 8.76163
  8676, 110.00000, -8.35624, 9.95858
  8677, 110.00000, -0.38302, 0.32139
  8678, 110.00000, -1.57997, 1.32575
  8679, 110.00000, -2.77691, 2.33011
  8680, 110.00000, -3.97386, 3.33446
  8681, 110.00000, -5.17080, 4.33882
  8682, 110.00000, -6.36774, 5.34317
  8683, 110.00000, -7.56469, 6.34753
  8684, 110.00000, -8.76163, 7.35188
  8685, 110.00000, -9.95858, 8.35624
  8686, 110.00000, -0.43301, 0.25000
  8687, 110.00000, -1.78618, 1.03125
  8688, 110.00000, -3.13934, 1.81250
  8689, 110.00000, -4.49251, 2.59375
  8690, 110.00000, -5.84567, 3.37500
  8691, 110.00000, -7.19884, 4.15625
  8692, 110.00000, -8.55200, 4.93750
  8693, 110.00000, -9.90517, 5.71875
  8694, 110.00000, -11.25833, 6.50000
  8695, 110.00000, -0.46985, 0.17101
  8696, 110.00000, -1.93812, 0.70542
  8697, 110.00000, -3.40639, 1.23982
  8698, 110.00000, -4.87466, 1.77423
  8699, 110.00000, -6.34293, 2.30864
  8700, 110.00000, -7.81119, 2.84304
  8701, 110.00000, -9.27946, 3.37745
  8702, 110.00000, -10.74773, 3.91186
  8703, 110.00000, -12.21600, 4.44626
  8704, 110.00000, -0.49240, 0.08682
  8705, 110.00000, -2.03117, 0.35815
  8706, 110.00000, -3.56993, 0.62947
  8707, 110.00000, -5.10869, 0.90080
  8708, 110.00000, -6.64745, 1.17213
  8709, 110.00000, -8.18621, 1.44345
  8710, 110.00000, -9.72498, 1.71478
  8711, 110.00000, -11.26374, 1.98610
  8712, 110.00000, -12.80250, 2.25743
  8713, 110.00000, -0.50000, 0.00000
  8714, 110.00000, -2.06250, 0.00000
  8715, 110.00000, -3.62500, 0.00000
  8716, 110.00000, -5.18750, 0.00000
  8717, 110.00000, -6.75000, 0.00000
  8718, 110.00000, -8.31250, 0.00000
  8719, 110.00000, -9.87500, 0.00000
  8720, 110.00000, -11.43750, 0.00000
  8721, 110.00000, -13.00000, 0.00000
  8722, 110.00000, -0.49240, -0.08682
  8723, 110.00000, -2.03117, -0.35815
  8724, 110.00000, -3.56993, -0.62947
  8725, 110.00000, -5.10869, -0.90080
  8726, 110.00000, -6.64745, -1.17213
  8727, 110.00000, -8.18621, -1.44345
  8728, 110.00000, -9.72498, -1.71478
  8729, 110.00000, -11.26374, -1.98610
  8730, 110.00000, -12.80250, -2.25743
  8731, 110.00000, -0.46985, -0.17101
  8732, 110.00000, -1.93812, -0.70542
  8733, 110.00000, -3.40639, -1.23982
  8734, 110.00000, -4.87466, -1.77423
  8735, 110.00000, -6.34293, -2.30864
  8736, 110.00000, -7.81119, -2.84304
  8737, 110.00000, -9.27946, -3.37745
  8738, 110.00000, -10.74773, -3.91186
  8739, 110.00000, -12.21600, -4.44626
  8740, 110.00000, -0.43301, -0.25000
  8741, 110.00000, -1.78618, -1.03125
  8742, 110.00000, -3.13934, -1.81250
  8743, 110.00000, -4.49251, -2.59375
  8744, 110.00000, -5.84567, -3.37500
  8745, 110.00000, -7.19884, -4.15625
  8746, 110.00000, -8.55200, -4.93750
  8747, 110.00000, -9.90517, -5.71875
  8748, 110.00000, -11.25833, -6.50000
  8749, 110.00000, -0.38302, -0.32139
  8750, 110.00000, -1.57997, -1.32575
  8751, 110.00000, -2.77691, -2.33011
  8752, 110.00000, -3.97386, -3.33446
  8753, 110.00000, -5.17080, -4.33882
  8754, 110.00000, -6.36774, -5.34317
  8755, 110.00000, -7.56469, -6.34753
  8756, 110.00000, -8.76163, -7.35188
  8757, 110.00000, -9.95858, -8.35624
  8758, 110.00000, -0.32139, -0.38302
  8759, 110.00000, -1.32575, -1.57997
  8760, 110.00000, -2.33011, -2.77691
  8761, 110.00000, -3.33446, -3.97386
  8762, 110.00000, -4.33882, -5.17080
  8763, 110.00000, -5.34317, -6.36774
  8764, 110.00000, -6.34753, -7.56469
  8765, 110.00000, -7.35188, -8.76163
  8766, 110.00000, -8.35624, -9.95858
  8767, 110.00000, -0.25000, -0.43301
  8768, 110.00000, -1.03125, -1.78618
  8769, 110.00000, -1.81250, -3.13934
  8770, 110.00000, -2.59375, -4.49251
  8771, 110.00000, -3.37500, -5.84567
  8772, 110.00000, -4.15625, -7.19884
  8773, 110.00000, -4.93750, -8.55200
  8774, 110.00000, -5.71875, -9.90517
  8775, 110.00000, -6.50000, -11.25833
  8776, 110.00000, -0.17101, -0.46985
  8777, 110.00000, -0.70542, -1.93812
  8778, 110.00000, -1.23982, -3.40639
  8779, 110.00000, -1.77423, -4.87466
  8780, 110.00000, -2.30864, -6.34293
  8781, 110.00000, -2.84304, -7.81119
  8782, 110.00000, -3.37745, -9.27946
  8783, 110.00000, -3.91186, -10.74773
  8784, 110.00000, -4.44626, -12.21600
  8785, 110.00000, -0.08682, -0.49240
  8786, 110.00000, -0.35815, -2.03117
  8787, 110.00000, -0.62947, -3.56993
  8788, 110.00000, -0.90080, -5.10869
  8789, 110.00000, -1.17213, -6.64745
  8790, 110.00000, -1.44345, -8.18621
  8791, 110.00000, -1.71478, -9.72498
  8792, 110.00000, -1.98610, -11.26374
  8793, 110.00000, -2.25743, -12.80250
  8794, 110.00000, -0.00000, -0.50000
  8795, 110.00000, -0.00000, -2.06250
  8796, 110.00000, -0.00000, -3.62500
  8797, 110.00000, -0.00000, -5.18750
  8798, 110.00000, -0.00000, -6.75000
  8799, 110.00000, -0.00000, -8.31250
  8800, 110.00000, -0.00000, -9.87500
  8801, 110.00000, -0.00000, -11.43750
  8802, 110.00000, -0.00000, -13.00000
  8803, 110.00000, 0.08682, -0.49240
  8804, 110.00000, 0.35815, -2.03117
  8805, 110.00000, 0.62947, -3.56993
  8806, 110.00000, 0.90080, -5.10869
  8807, 110.00000, 1.17213, -6.64745
  8808, 110.00000, 1.44345, -8.18621
  8809, 110.00000, 1.71478, -9.72498
  8810, 110.00000, 1.98610, -11.26374
  8811, 110.00000, 2.25743, -12.80250
  8812, 110.00000, 0.17101, -0.46985
  8813, 110.00000, 0.70542, -1.93812
  8814, 110.00000, 1.23982, -3.40639
  8815, 110.00000, 1.77423, -4.87466
  8816, 110.00000, 2.30864, -6.34293
  8817, 110.00000, 2.84304, -7.81119
  8818, 110.00000, 3.37745, -9.27946
  8819, 110.00000, 3.91186, -10.74773
  8820, 110.00000, 4.44626, -12.21600
  8821, 110.00000, 0.25000, -0.43301
  8822, 110.00000, 1.03125, -1.78618
  8823, 110.00000, 1.81250, -3.13934
  8824, 110.00000, 2.59375, -4.49251
  8825, 110.00000, 3.37500, -5.84567
  8826, 110.00000, 4.15625, -7.19884
  8827, 110.00000, 4.93750, -8.55200
  8828, 110.00000, 5.71875, -9.90517
  8829, 110.00000, 6.50000, -11.25833
  8830, 110.00000, 0.32139, -0.38302
  8831, 110.00000, 1.32575, -1.57997
  8832, 110.00000, 2.33011, -2.77691
  8833, 110.00000, 3.33446, -3.97386
  8834, 110.00000, 4.33882, -5.17080
  8835, 110.00000, 5.34317, -6.36774
  8836, 110.00000, 6.34753, -7.56469
  8837, 110.00000, 7.35188, -8.76163
  8838, 110.00000, 8.35624, -9.95858
  8839, 110.00000, 0.38302, -0.32139
  8840, 110.00000, 1.57997, -1.32575
  8841, 110.00000, 2.77691, -2.33011
  8842, 110.00000, 3.97386, -3.33446
  8843, 110.00000, 5.17080, -4.33882
  8844, 110.00000, 6.36774, -5.34317
  8845, 110.00000, 7.56469, -6.34753
  8846, 110.00000, 8.76163, -7.35188
  8847, 110.00000, 9.95858, -8.35624
  8848, 110.00000, 0.43301, -0.25000
  8849, 110.00000, 1.78618, -1.03125
  8850, 110.00000, 3.13934, -1.81250
  8851, 110.00000, 4.49251, -2.59375
  8852, 110.00000, 5.84567, -3.37500
  8853, 110.00000, 7.19884, -4.15625
  8854, 110.00000, 8.55200, -4.93750
  8855, 110.00000, 9.90517, -5.71875
  8856, 110.00000, 11.25833, -6.50000
  8857, 110.00000, 0.46985, -0.17101
  8858, 110.00000, 1.93812, -0.70542
  8859, 110.00000, 3.40639, -1.23982
  8860, 110.00000, 4.87466, -1.77423
  8861, 110.00000, 6.34293, -2.30864
  8862, 110.00000, 7.81119, -2.84304
  8863, 110.00000, 9.27946, -3.37745
  8864, 110.00000, 10.74773, -3.91186
  8865, 110.00000, 12.21600, -4.44626
  8866, 110.00000, 0.49240, -0.08682
  8867, 110.00000, 2.03117, -0.35815
  8868, 110.00000, 3.56993, -0.62947
  8869, 110.00000, 5.10869, -0.90080
  8870, 110.00000, 6.64745, -1.17213
  8871, 110.00000, 8.18621, -1.44345
  8872, 110.00000, 9.72498, -1.71478
  8873, 110.00000, 11.26374, -1.98610
  8874, 110.00000, 12.80250, -2.25743
  8875, 110.00000, 0.50000, -0.00000
  8876, 110.00000, 2.06250, -0.00000
  8877, 110.00000, 3.62500, -0.00000
  8878, 110.00000, 5.18750, -0.00000
  8879, 110.00000, 6.75000, -0.00000
  8880, 110.00000, 8.31250, -0.00000
  8881, 110.00000, 9.87500, -0.00000
  8882, 110.00000, 11.43750, -0.00000
  8883, 110.00000, 13.00000, -0.00000
  8884, 115.00000, 0.50000, 0.00000
  8885, 115.00000, 2.06250, 0.00000
  8886, 115.00000, 3.62500, 0.00000
  8887, 115.00000, 5.18750, 0.00000
  8888, 115.00000, 6.75000, 0.00000
  8889, 115.00000, 8.31250, 0.00000
  8890, 115.00000, 9.87500, 0.00000
  8891, 115.00000, 11.43750, 0.00000
  8892, 115.00000, 13.00000, 0.00000
  8893, 115.00000, 0.49240, 0.08682
  8894, 115.00000, 2.03117, 0.35815
  8895, 115.00000, 3.56993, 0.62947
  8896, 115.00000, 5.10869, 0.90080
  8897, 115.00000, 6.64745, 1.17213
  8898, 115.00000, 8.18621, 1.44345
  8899, 115.00000, 9.72498, 1.71478
  8900, 115.00000, 11.26374, 1.98610
  8901, 115.00000, 12.80250, 2.25743
  8902, 115.00000, 0.46985, 0.17101
  8903, 115.00000, 1.93812, 0.70542
  8904, 115.00000, 3.40639, 1.23982
  8905, 115.00000, 4.87466, 1.77423
  8906, 115.00000, 6.34293, 2.30864
  8907, 115.00000, 7.81119, 2.84304
  8908, 115.00000, 9.27946, 3.37745
  8909, 115.00000, 10.74773, 3.91186
  8910, 115.00000, 12.21600, 4.44626
  8911, 115.00000, 0.43301, 0.25000
  8912, 115.00000, 1.78618, 1.03125
  8913, 115.00000, 3.13934, 1.81250
  8914, 115.00000, 4.49251, 2.59375
  8915, 115.00000, 5.84567, 3.37500
  8916, 115.00000, 7.19884, 4.15625
  8917, 115.00000, 8.55200, 4.93750
  8918, 115.00000, 9.90517, 5.71875
  8919, 115.00000, 11.25833, 6.50000
  8920, 115.00000, 0.38302, 0.32139
  8921, 115.00000, 1.57997, 1.32575
  8922, 115.00000, 2.77691, 2.33011
  8923, 115.00000, 3.97386, 3.33446
  8924, 115.00000, 5.17080, 4.33882
  8925, 115.00000, 6.36774, 5.34317
  8926, 115.00000, 7.56469, 6.34753
  8927, 115.00000, 8.76163, 7.35188
  8928, 115.00000, 9.95858, 8.35624
  8929, 115.00000, 0.32139, 0.38302
  8930, 115.00000, 1.32575, 1.57997
  8931, 115.00000, 2.33011, 2.77691
  8932, 115.00000, 3.33446, 3.97386
  8933, 115.00000, 4.33882, 5.17080
  8934, 115.00000, 5.34317, 6.36774
  8935, 115.00000, 6.34753, 7.56469
  8936, 115.00000, 7.35188, 8.76163
  8937, 115.00000, 8.35624, 9.95858
  8938, 115.00000, 0.25000, 0.43301
  8939, 115.00000, 1.03125, 1.78618
  8940, 115.00000, 1.81250, 3.13934
  8941, 115.00000, 2.59375, 4.49251
  8942, 115.00000, 3.37500, 5.84567
  8943, 115.00000, 4.15625, 7.19884
  8944, 115.00000, 4.93750, 8.55200
  8945, 115.00000, 5.71875, 9.90517
  8946, 115.00000, 6.50000, 11.25833
  8947, 115.00000, 0.17101, 0.46985
  8948, 115.00000, 0.70542, 1.93812
  8949, 115.00000, 1.23982, 3.40639
  8950, 115.00000, 1.77423, 4.87466
  8951, 115.00000, 2.30864, 6.34293
  8952, 115.00000, 2.84304, 7.81119
  8953, 115.00000, 3.37745, 9.27946
  8954, 115.00000, 3.91186, 10.74773
  8955, 115.00000, 4.44626, 12.21600
  8956, 115.00000, 0.08682, 0.49240
  8957, 115.00000, 0.35815, 2.03117
  8958, 115.00000, 0.62947, 3.56993
  8959, 115.00000, 0.90080, 5.10869
  8960, 115.00000, 1.17213, 6.64745
  8961, 115.00000, 1.44345, 8.18621
  8962, 115.00000, 1.71478, 9.72498
  8963, 115.00000, 1.98610, 11.26374
  8964, 115.00000, 2.25743, 12.80250
  8965, 115.00000, 0.00000, 0.50000
  8966, 115.00000, 0.00000, 2.06250
  8967, 115.00000, 0.00000, 3.62500
  8968, 115.00000, 0.00000, 5.18750
  8969, 115.00000, 0.00000, 6.75000
  8970, 115.00000, 0.00000, 8.31250
  8971, 115.00000, 0.00000, 9.87500
  8972, 115.00000, 0.00000, 11.43750
  8973, 115.00000, 0.00000, 13.00000
  8974, 115.00000, -0.08682, 0.49240
  8975, 115.00000, -0.35815, 2.03117
  8976, 115.00000, -0.62947, 3.56993
  8977, 115.00000, -0.90080, 5.10869
  8978, 115.00000, -1.17213, 6.64745
  8979, 115.00000, -1.44345, 8.18621
  8980, 115.00000, -1.71478, 9.72498
  8981, 115.00000, -1.98610, 11.26374
  8982, 115.00000, -2.25743, 12.80250
  8983, 115.00000, -0.17101, 0.46985
  8984, 115.00000, -0.70542, 1.93812
  8985, 115.00000, -1.23982, 3.40639
  8986, 115.00000, -1.77423, 4.87466
  8987, 115.00000, -2.30864, 6.34293
  8988, 115.00000, -2.84304, 7.81119
  8989, 115.00000, -3.37745, 9.27946
  8990, 115.00000, -3.91186, 10.74773
  8991, 115.00000, -4.44626, 12.21600
  8992, 115.00000, -0.25000, 0.43301
  8993, 115.00000, -1.03125, 1.78618
  8994, 115.00000, -1.81250, 3.13934
  8995, 115.00000, -2.59375, 4.49251
  8996, 115.00000, -3.37500, 5.84567
  8997, 115.00000, -4.15625, 7.19884
  8998, 115.00000, -4.93750, 8.55200
  8999, 115.00000, -5.71875, 9.90517
  9000, 115.00000, -6.50000, 11.25833
  9001, 115.00000, -0.32139, 0.38302
  9002, 115.00000, -1.32575, 1.57997
  9003, 115.00000, -2.33011, 2.77691
  9004, 115.00000, -3.33446, 3.97386
  9005, 115.00000, -4.33882, 5.17080
  9006, 115.00000, -5.34317, 6.36774
  9007, 115.00000, -6.34753, 7.56469
  9008, 115.00000, -7.35188, 8.76163
  9009, 115.00000, -8.35624, 9.95858
  9010, 115.00000, -0.38302, 0.32139
  9011, 115.00000, -1.57997, 1.32575
  9012, 115.00000, -2.77691, 2.33011
  9013, 115.00000, -3.97386, 3.33446
  9014, 115.00000, -5.17080, 4.33882
  9015, 115.00000, -6.36774, 5.34317
  9016, 115.00000, -7.56469, 6.34753
  9017, 115.00000, -8.76163, 7.35188
  9018, 115.00000, -9.95858, 8.35624
  9019, 115.00000, -0.43301, 0.25000
  9020, 115.00000, -1.78618, 1.03125
  9021, 115.00000, -3.13934, 1.81250
  9022, 115.00000, -4.49251, 2.59375
  9023, 115.00000, -5.84567, 3.37500
  9024, 115.00000, -7.19884, 4.15625
  9025, 115.00000, -8.55200, 4.93750
  9026, 115.00000, -9.90517, 5.71875
  9027, 115.00000, -11.25833, 6.50000
  9028, 115.00000, -0.46985, 0.17101
  9029, 115.00000, -1.93812, 0.70542
  9030, 115.00000, -3.40639, 1.23982
  9031, 115.00000, -4.87466, 1.77423
  9032, 115.00000, -6.34293, 2.30864
  9033, 115.00000, -7.81119, 2.84304
  9034, 115.00000, -9.27946, 3.37745
  9035, 115.00000, -10.74773, 3.91186
  9036, 115.00000, -12.21600, 4.44626
  9037, 115.00000, -0.49240, 0.08682
  9038, 115.00000, -2.03117, 0.35815
  9039, 115.00000, -3.56993, 0.62947
  9040, 115.00000, -5.10869, 0.90080
  9041, 115.00000, -6.64745, 1.17213
  9042, 115.00000, -8.18621, 1.44345
  9043, 115.00000, -9.72498, 1.71478
  9044, 115.00000, -11.26374, 1.98610
  9045, 115.00000, -12.80250, 2.25743
  9046, 115.00000, -0.50000, 0.00000
  9047, 115.00000, -2.06250, 0.00000
  9048, 115.00000, -3.62500, 0.00000
  9049, 115.00000, -5.18750, 0.00000
  9050, 115.00000, -6.75000, 0.00000
  9051, 115.00000, -8.31250, 0.00000
  9052, 115.00000, -9.87500, 0.00000
  9053, 115.00000, -11.43750, 0.00000
  9054, 115.00000, -13.00000, 0.00000
  9055, 115.00000, -0.49240, -0.08682
  9056, 115.00000, -2.03117, -0.35815
  9057, 115.00000, -3.56993, -0.62947
  9058, 115.00000, -5.10869, -0.90080
  9059, 115.00000, -6.64745, -1.17213
  9060, 115.00000, -8.18621, -1.44345
  9061, 115.00000, -9.72498, -1.71478
  9062, 115.00000, -11.26374, -1.98610
  9063, 115.00000, -12.80250, -2.25743
  9064, 115.00000, -0.46985, -0.17101
  9065, 115.00000, -1.93812, -0.70542
  9066, 115.00000, -3.40639, -1.23982
  9067, 115.00000, -4.87466, -1.77423
  9068, 115.00000, -6.34293, -2.30864
  9069, 115.00000, -7.81119, -2.84304
  9070, 115.00000, -9.27946, -3.37745
  9071, 115.00000, -10.74773, -3.91186
  9072, 115.00000, -12.21600, -4.44626
  9073, 115.00000, -0.43301, -0.25000
  9074, 115.00000, -1.78618, -1.03125
  9075, 115.00000, -3.13934, -1.81250
  9076, 115.00000, -4.49251, -2.59375
  9077, 115.00000, -5.84567, -3.37500
  9078, 115.00000, -7.19884, -4.15625
  9079, 115.00000, -8.55200, -4.93750
  9080, 115.00000, -9.90517, -5.71875
  9081, 115.00000, -11.25833, -6.50000
  9082, 115.00000, -0.38302, -0.32139
  9083, 115.00000, -1.57997, -1.32575
  9084, 115.00000, -2.77691, -2.33011
  9085, 115.00000, -3.97386, -3.33446
  9086, 115.00000, -5.17080, -4.33882
  9087, 115.00000, -6.36774, -5.34317
  9088, 115.00000, -7.56469, -6.34753
  9089, 115.00000, -8.76163, -7.35188
  9090, 115.00000, -9.95858, -8.35624
  9091, 115.00000, -0.32139, -0.38302
  9092, 115.00000, -1.32575, -1.57997
  9093, 115.00000, -2.33011, -2.77691
  9094, 115.00000, -3.33446, -3.97386
  9095, 115.00000, -4.33882, -5.17080
  9096, 115.00000, -5.34317, -6.36774
  9097, 115.00000, -6.34753, -7.56469
  9098, 115.00000, -7.35188, -8.76163
  9099, 115.00000, -8.35624, -9.95858
  9100, 115.00000, -0.25000, -0.43301
  9101, 115.00000, -1.03125, -1.78618
  9102, 115.00000, -1.81250, -3.13934
  9103, 115.00000, -2.59375, -4.49251
  9104, 115.00000, -3.37500, -5.84567
  9105, 115.00000, -4.15625, -7.19884
  9106, 115.00000, -4.93750, -8.55200
  9107, 115.00000, -5.71875, -9.90517
  9108, 115.00000, -6.50000, -11.25833
  9109, 115.00000, -0.17101, -0.46985
  9110, 115.00000, -0.70542, -1.93812
  9111, 115.00000, -1.23982, -3.40639
  9112, 115.00000, -1.77423, -4.87466
  9113, 115.00000, -2.30864, -6.34293
  9114, 115.00000, -2.84304, -7.81119
  9115, 115.00000, -3.37745, -9.27946
  9116, 115.00000, -3.91186, -10.74773
  9117, 115.00000, -4.44626, -12.21600
  9118, 115.00000, -0.08682, -0.49240
  9119, 115.00000, -0.35815, -2.03117
  9120, 115.00000, -0.62947, -3.56993
  9121, 115.00000, -0.90080, -5.10869
  9122, 115.00000, -1.17213, -6.64745
  9123, 115.00000, -1.44345, -8.18621
  9124, 115.00000, -1.71478, -9.72498
  9125, 115.00000, -1.98610, -11.26374
  9126, 115.00000, -2.25743, -12.80250
  9127, 115.00000, -0.00000, -0.50000
  9128, 115.00000, -0.00000, -2.06250
  9129, 115.00000, -0.00000, -3.62500
  9130, 115.00000, -0.00000, -5.18750
  9131, 115.00000, -0.00000, -6.75000
  9132, 115.00000, -0.00000, -8.31250
  9133, 115.00000, -0.00000, -9.87500
  9134, 115.00000, -0.00000, -11.43750
  9135, 115.00000, -0.00000, -13.00000
  9136, 115.00000, 0.08682, -0.49240
  9137, 115.00000, 0.35815, -2.03117
  9138, 115.00000, 0.62947, -3.56993
  9139, 115.00000, 0.90080, -5.10869
  9140, 115.00000, 1.17213, -6.64745
  9141, 115.00000, 1.44345, -8.18621
  9142, 115.00000, 1.71478, -9.72498
  9143, 115.00000, 1.98610, -11.26374
  9144, 115.00000, 2.25743, -12.80250
  9145, 115.00000, 0.17101, -0.46985
  9146, 115.00000, 0.70542, -1.93812
  9147, 115.00000, 1.23982, -3.40639
  9148, 115.00000, 1.77423, -4.87466
  9149, 115.00000, 2.30864, -6.34293
  9150, 115.00000, 2.84304, -7.81119
  9151, 115.00000, 3.37745, -9.27946
  9152, 115.00000, 3.91186, -10.74773
  9153, 115.00000, 4.44626, -12.21600
  9154, 115.00000, 0.25000, -0.43301
  9155, 115.00000, 1.03125, -1.78618
  9156, 115.00000, 1.81250, -3.13934
  9157, 115.00000, 2.59375, -4.49251
  9158, 115.00000, 3.37500, -5.84567
  9159, 115.00000, 4.15625, -7.19884
  9160, 115.00000, 4.93750, -8.55200
  9161, 115.00000, 5.71875, -9.90517
  9162, 115.00000, 6.50000, -11.25833
  9163, 115.00000, 0.32139, -0.38302
  9164, 115.00000, 1.32575, -1.57997
  9165, 115.00000, 2.33011, -2.77691
  9166, 115.00000, 3.33446, -3.97386
  9167, 115.00000, 4.33882, -5.17080
  9168, 115.00000, 5.34317, -6.36774
  9169, 115.00000, 6.34753, -7.56469
  9170, 115.00000, 7.35188, -8.76163
  9171, 115.00000, 8.35624, -9.95858
  9172, 115.00000, 0.38302, -0.32139
  9173, 115.00000, 1.57997, -1.32575
  9174, 115.00000, 2.77691, -2.33011
  9175, 115.00000, 3.97386, -3.33446
  9176, 115.00000, 5.17080, -4.33882
  9177, 115.00000, 6.36774, -5.34317
  9178, 115.00000, 7.56469, -6.34753
  9179, 115.00000, 8.76163, -7.35188
  9180, 115.00000, 9.95858, -8.35624
  9181, 115.00000, 0.43301, -0.25000
  9182, 115.00000, 1.78618, -1.03125
  9183, 115.00000, 3.13934, -1.81250
  9184, 115.00000, 4.49251, -2.59375
  9185, 115.00000, 5.84567, -3.37500
  9186, 115.00000, 7.19884, -4.15625
  9187, 115.00000, 8.55200, -4.93750
  9188, 115.00000, 9.90517, -5.71875
  9189, 115.00000, 11.25833, -6.50000
  9190, 115.00000, 0.46985, -0.17101
  9191, 115.00000, 1.93812, -0.70542
  9192, 115.00000, 3.40639, -1.23982
  9193, 115.00000, 4.87466, -1.77423
  9194, 115.00000, 6.34293, -2.30864
  9195, 115.00000, 7.81119, -2.84304
  9196, 115.00000, 9.27946, -3.37745
  9197, 115.00000, 10.74773, -3.91186
  9198, 115.00000, 12.21600, -4.44626
  9199, 115.00000, 0.49240, -0.08682
  9200, 115.00000, 2.03117, -0.35815
  9201, 115.00000, 3.56993, -0.62947
  9202, 115.00000, 5.10869, -0.90080
  9203, 115.00000, 6.64745, -1.17213
  9204, 115.00000, 8.18621, -1.44345
  9205, 115.00000, 9.72498, -1.71478
  9206, 115.00000, 11.26374, -1.98610
  9207, 115.00000, 12.80250, -2.25743
  9208, 115.00000, 0.50000, -0.00000
  9209, 115.00000, 2.06250, -0.00000
  9210, 115.00000, 3.62500, -0.00000
  9211, 115.00000, 5.18750, -0.00000
  9212, 115.00000, 6.75000, -0.00000
  9213, 115.00000, 8.31250, -0.00000
  9214, 115.00000, 9.87500, -0.00000
  9215, 115.00000, 11.43750, -0.00000
  9216, 115.00000, 13.00000, -0.00000
  9217, 120.00000, 0.50000, 0.00000
  9218, 120.00000, 2.06250, 0.00000
  9219, 120.00000, 3.62500, 0.00000
  9220, 120.00000, 5.18750, 0.00000
  9221, 120.00000, 6.75000, 0.00000
  9222, 120.00000, 8.31250, 0.00000
  9223, 120.00000, 9.87500, 0.00000
  9224, 120.00000, 11.43750, 0.00000
  9225, 120.00000, 13.00000, 0.00000
  9226, 120.00000, 0.49240, 0.08682
  9227, 120.00000, 2.03117, 0.35815
  9228, 120.00000, 3.56993, 0.62947
  9229, 120.00000, 5.10869, 0.90080
  9230, 120.00000, 6.64745, 1.17213
  9231, 120.00000, 8.18621, 1.44345
  9232, 120.00000, 9.72498, 1.71478
  9233, 120.00000, 11.26374, 1.98610
  9234, 120.00000, 12.80250, 2.25743
  9235, 120.00000, 0.46985, 0.17101
  9236, 120.00000, 1.93812, 0.70542
  9237, 120.00000, 3.40639, 1.23982
  9238, 120.00000, 4.87466, 1.77423
  9239, 120.00000, 6.34293, 2.30864
  9240, 120.00000, 7.81119, 2.84304
  9241, 120.00000, 9.27946, 3.37745
  9242, 120.00000, 10.74773, 3.91186
  9243, 120.00000, 12.21600, 4.44626
  9244, 120.00000, 0.43301, 0.25000
  9245, 120.00000, 1.78618, 1.03125
  9246, 120.00000, 3.13934, 1.81250
  9247, 120.00000, 4.49251, 2.59375
  9248, 120.00000, 5.84567, 3.37500
  9249, 120.00000, 7.19884, 4.15625
  9250, 120.00000, 8.55200, 4.93750
  9251, 120.00000, 9.90517, 5.71875
  9252, 120.00000, 11.25833, 6.50000
  9253, 120.00000, 0.38302, 0.32139
  9254, 120.00000, 1.57997, 1.32575
  9255, 120.00000, 2.77691, 2.33011
  9256, 120.00000, 3.97386, 3.33446
  9257, 120.00000, 5.17080, 4.33882
  9258, 120.00000, 6.36774, 5.34317
  9259, 120.00000, 7.56469, 6.34753
  9260, 120.00000, 8.76163, 7.35188
  9261, 120.00000, 9.95858, 8.35624
  9262, 120.00000, 0.32139, 0.38302
  9263, 120.00000, 1.32575, 1.57997
  9264, 120.00000, 2.33011, 2.77691
  9265, 120.00000, 3.33446, 3.97386
  9266, 120.00000, 4.33882, 5.17080
  9267, 120.00000, 5.34317, 6.36774
  9268, 120.00000, 6.34753, 7.56469
  9269, 120.00000, 7.35188, 8.76163
  9270, 120.00000, 8.35624, 9.95858
  9271, 120.00000, 0.25000, 0.43301
  9272, 120.00000, 1.03125, 1.78618
  9273, 120.00000, 1.81250, 3.13934
  9274, 120.00000, 2.59375, 4.49251
  9275, 120.00000, 3.37500, 5.84567
  9276, 120.00000, 4.15625, 7.19884
  9277, 120.00000, 4.93750, 8.55200
  9278, 120.00000, 5.71875, 9.90517
  9279, 120.00000, 6.50000, 11.25833
  9280, 120.00000, 0.17101, 0.46985
  9281, 120.00000, 0.70542, 1.93812
  9282, 120.00000, 1.23982, 3.40639
  9283, 120.00000, 1.77423, 4.87466
  9284, 120.00000, 2.30864, 6.34293
  9285, 120.00000, 2.84304, 7.81119
  9286, 120.00000, 3.37745, 9.27946
  9287, 120.00000, 3.91186, 10.74773
  9288, 120.00000, 4.44626, 12.21600
  9289, 120.00000, 0.08682, 0.49240
  9290, 120.00000, 0.35815, 2.03117
  9291, 120.00000, 0.62947, 3.56993
  9292, 120.00000, 0.90080, 5.10869
  9293, 120.00000, 1.17213, 6.64745
  9294, 120.00000, 1.44345, 8.18621
  9295, 120.00000, 1.71478, 9.72498
  9296, 120.00000, 1.98610, 11.26374
  9297, 120.00000, 2.25743, 12.80250
  9298, 120.00000, 0.00000, 0.50000
  9299, 120.00000, 0.00000, 2.06250
  9300, 120.00000, 0.00000, 3.62500
  9301, 120.00000, 0.00000, 5.18750
  9302, 120.00000, 0.00000, 6.75000
  9303, 120.00000, 0.00000, 8.31250
  9304, 120.00000, 0.00000, 9.87500
  9305, 120.00000, 0.00000, 11.43750
  9306, 120.00000, 0.00000, 13.00000
  9307, 120.00000, -0.08682, 0.49240
  9308, 120.00000, -0.35815, 2.03117
  9309, 120.00000, -0.62947, 3.56993
  9310, 120.00000, -0.90080, 5.10869
  9311, 120.00000, -1.17213, 6.64745
  9312, 120.00000, -1.44345, 8.18621
  9313, 120.00000, -1.71478, 9.72498
  9314, 120.00000, -1.98610, 11.26374
  9315, 120.00000, -2.25743, 12.80250
  9316, 120.00000, -0.17101, 0.46985
  9317, 120.00000, -0.70542, 1.93812
  9318, 120.00000, -1.23982, 3.40639
  9319, 120.00000, -1.77423, 4.87466
  9320, 120.00000, -2.30864, 6.34293
  9321, 120.00000, -2.84304, 7.81119
  9322, 120.00000, -3.37745, 9.27946
  9323, 120.00000, -3.91186, 10.74773
  9324, 120.00000, -4.44626, 12.21600
  9325, 120.00000, -0.25000, 0.43301
  9326, 120.00000, -1.03125, 1.78618
  9327, 120.00000, -1.81250, 3.13934
  9328, 120.00000, -2.59375, 4.49251
  9329, 120.00000, -3.37500, 5.84567
  9330, 120.00000, -4.15625, 7.19884
  9331, 120.00000, -4.93750, 8.55200
  9332, 120.00000, -5.71875, 9.90517
  9333, 120.00000, -6.50000, 11.25833
  9334, 120.00000, -0.32139, 0.38302
  9335, 120.00000, -1.32575, 1.57997
  9336, 120.00000, -2.33011, 2.77691
  9337, 120.00000, -3.33446, 3.97386
  9338, 120.00000, -4.33882, 5.17080
  9339, 120.00000, -5.34317, 6.36774
  9340, 120.00000, -6.34753, 7.56469
  9341, 120.00000, -7.35188, 8.76163
  9342, 120.00000, -8.35624, 9.95858
  9343, 120.00000, -0.38302, 0.32139
  9344, 120.00000, -1.57997, 1.32575
  9345, 120.00000, -2.77691, 2.33011
  9346, 120.00000, -3.97386, 3.33446
  9347, 120.00000, -5.17080, 4.33882
  9348, 120.00000, -6.36774, 5.34317
  9349, 120.00000, -7.56469, 6.34753
  9350, 120.00000, -8.76163, 7.35188
  9351, 120.00000, -9.95858, 8.35624
  9352, 120.00000, -0.43301, 0.25000
  9353, 120.00000, -1.78618, 1.03125
  9354, 120.00000, -3.13934, 1.81250
  9355, 120.00000, -4.49251, 2.59375
  9356, 120.00000, -5.84567, 3.37500
  9357, 120.00000, -7.19884, 4.15625
  9358, 120.00000, -8.55200, 4.93750
  9359, 120.00000, -9.90517, 5.71875
  9360, 120.00000, -11.25833, 6.50000
  9361, 120.00000, -0.46985, 0.17101
  9362, 120.00000, -1.93812, 0.70542
  9363, 120.00000, -3.40639, 1.23982
  9364, 120.00000, -4.87466, 1.77423
  9365, 120.00000, -6.34293, 2.30864
  9366, 120.00000, -7.81119, 2.84304
  9367, 120.00000, -9.27946, 3.37745
  9368, 120.00000, -10.74773, 3.91186
  9369, 120.00000, -12.21600, 4.44626
  9370, 120.00000, -0.49240, 0.08682
  9371, 120.00000, -2.03117, 0.35815
  9372, 120.00000, -3.56993, 0.62947
  9373, 120.00000, -5.10869, 0.90080
  9374, 120.00000, -6.64745, 1.17213
  9375, 120.00000, -8.18621, 1.44345
  9376, 120.00000, -9.72498, 1.71478
  9377, 120.00000, -11.26374, 1.98610
  9378, 120.00000, -12.80250, 2.25743
  9379, 120.00000, -0.50000, 0.00000
  9380, 120.00000, -2.06250, 0.00000
  9381, 120.00000, -3.62500, 0.00000
  9382, 120.00000, -5.18750, 0.00000
  9383, 120.00000, -6.75000, 0.00000
  9384, 120.00000, -8.31250, 0.00000
  9385, 120.00000, -9.87500, 0.00000
  9386, 120.00000, -11.43750, 0.00000
  9387, 120.00000, -13.00000, 0.00000
  9388, 120.00000, -0.49240, -0.08682
  9389, 120.00000, -2.03117, -0.35815
  9390, 120.00000, -3.56993, -0.62947
  9391, 120.00000, -5.10869, -0.90080
  9392, 120.00000, -6.64745, -1.17213
  9393, 120.00000, -8.18621, -1.44345
  9394, 120.00000, -9.72498, -1.71478
  9395, 120.00000, -11.26374, -1.98610
  9396, 120.00000, -12.80250, -2.25743
  9397, 120.00000, -0.46985, -0.17101
  9398, 120.00000, -1.93812, -0.70542
  9399, 120.00000, -3.40639, -1.23982
  9400, 120.00000, -4.87466, -1.77423
  9401, 120.00000, -6.34293, -2.30864
  9402, 120.00000, -7.81119, -2.84304
  9403, 120.00000, -9.27946, -3.37745
  9404, 120.00000, -10.74773, -3.91186
  9405, 120.00000, -12.21600, -4.44626
  9406, 120.00000, -0.43301, -0.25000
  9407, 120.00000, -1.78618, -1.03125
  9408, 120.00000, -3.13934, -1.81250
  9409, 120.00000, -4.49251, -2.59375
  9410, 120.00000, -5.84567, -3.37500
  9411, 120.00000, -7.19884, -4.15625
  9412, 120.00000, -8.55200, -4.93750
  9413, 120.00000, -9.90517, -5.71875
  9414, 120.00000, -11.25833, -6.50000
  9415, 120.00000, -0.38302, -0.32139
  9416, 120.00000, -1.57997, -1.32575
  9417, 120.00000, -2.77691, -2.33011
  9418, 120.00000, -3.97386, -3.33446
  9419, 120.00000, -5.17080, -4.33882
  9420, 120.00000, -6.36774, -5.34317
  9421, 120.00000, -7.56469, -6.34753
  9422, 120.00000, -8.76163, -7.35188
  9423, 120.00000, -9.95858, -8.35624
  9424, 120.00000, -0.32139, -0.38302
  9425, 120.00000, -1.32575, -1.57997
  9426, 120.00000, -2.33011, -2.77691
  9427, 120.00000, -3.33446, -3.97386
  9428, 120.00000, -4.33882, -5.17080
  9429, 120.00000, -5.34317, -6.36774
  9430, 120.00000, -6.34753, -7.56469
  9431, 120.00000, -7.35188, -8.76163
  9432, 120.00000, -8.35624, -9.95858
  9433, 120.00000, -0.25000, -0.43301
  9434, 120.00000, -1.03125, -1.78618
  9435, 120.00000, -1.81250, -3.13934
  9436, 120.00000, -2.59375, -4.49251
  9437, 120.00000, -3.37500, -5.84567
  9438, 120.00000, -4.15625, -7.19884
  9439, 120.00000, -4.93750, -8.55200
  9440, 120.00000, -5.71875, -9.90517
  9441, 120.00000, -6.50000, -11.25833
  9442, 120.00000, -0.17101, -0.46985
  9443, 120.00000, -0.70542, -1.93812
  9444, 120.00000, -1.23982, -3.40639
  9445, 120.00000, -1.77423, -4.87466
  9446, 120.00000, -2.30864, -6.34293
  9447, 120.00000, -2.84304, -7.81119
  9448, 120.00000, -3.37745, -9.27946
  9449, 120.00000, -3.91186, -10.74773
  9450, 120.00000, -4.44626, -12.21600
  9451, 120.00000, -0.08682, -0.49240
  9452, 120.00000, -0.35815, -2.03117
  9453, 120.00000, -0.62947, -3.56993
  9454, 120.00000, -0.90080, -5.10869
  9455, 120.00000, -1.17213, -6.64745
  9456, 120.00000, -1.44345, -8.18621
  9457, 120.00000, -1.71478, -9.72498
  9458, 120.00000, -1.98610, -11.26374
  9459, 120.00000, -2.25743, -12.80250
  9460, 120.00000, -0.00000, -0.50000
  9461, 120.00000, -0.00000, -2.06250
  9462, 120.00000, -0.00000, -3.62500
  9463, 120.00000, -0.00000, -5.18750
  9464, 120.00000, -0.00000, -6.75000
  9465, 120.00000, -0.00000, -8.31250
  9466, 120.00000, -0.00000, -9.87500
  9467, 120.00000, -0.00000, -11.43750
  9468, 120.00000, -0.00000, -13.00000
  9469, 120.00000, 0.08682, -0.49240
  9470, 120.00000, 0.35815, -2.03117
  9471, 120.00000, 0.62947, -3.56993
  9472, 120.00000, 0.90080, -5.10869
  9473, 120.00000, 1.17213, -6.64745
  9474, 120.00000, 1.44345, -8.18621
  9475, 120.00000, 1.71478, -9.72498
  9476, 120.00000, 1.98610, -11.26374
  9477, 120.00000, 2.25743, -12.80250
  9478, 120.00000, 0.17101, -0.46985
  9479, 120.00000, 0.70542, -1.93812
  9480, 120.00000, 1.23982, -3.40639
  9481, 120.00000, 1.77423, -4.87466
  9482, 120.00000, 2.30864, -6.34293
  9483, 120.00000, 2.84304, -7.81119
  9484, 120.00000, 3.37745, -9.27946
  9485, 120.00000, 3.91186, -10.74773
  9486, 120.00000, 4.44626, -12.21600
  9487, 120.00000, 0.25000, -0.43301
  9488, 120.00000, 1.03125, -1.78618
  9489, 120.00000, 1.81250, -3.13934
  9490, 120.00000, 2.59375, -4.49251
  9491, 120.00000, 3.37500, -5.84567
  9492, 120.00000, 4.15625, -7.19884
  9493, 120.00000, 4.93750, -8.55200
  9494, 120.00000, 5.71875, -9.90517
  9495, 120.00000, 6.50000, -11.25833
  9496, 120.00000, 0.32139, -0.38302
  9497, 120.00000, 1.32575, -1.57997
  9498, 120.00000, 2.33011, -2.77691
  9499, 120.00000, 3.33446, -3.97386
  9500, 120.00000, 4.33882, -5.17080
  9501, 120.00000, 5.34317, -6.36774
  9502, 120.00000, 6.34753, -7.56469
  9503, 120.00000, 7.35188, -8.76163
  9504, 120.00000, 8.35624, -9.95858
  9505, 120.00000, 0.38302, -0.32139
  9506, 120.00000, 1.57997, -1.32575
  9507, 120.00000, 2.77691, -2.33011
  9508, 120.00000, 3.97386, -3.33446
  9509, 120.00000, 5.17080, -4.33882
  9510, 120.00000, 6.36774, -5.34317
  9511, 120.00000, 7.56469, -6.34753
  9512, 120.00000, 8.76163, -7.35188
  9513, 120.00000, 9.95858, -8.35624
  9514, 120.00000, 0.43301, -0.25000
  9515, 120.00000, 1.78618, -1.03125
  9516, 120.00000, 3.13934, -1.81250
  9517, 120.00000, 4.49251, -2.59375
  9518, 120.00000, 5.84567, -3.37500
  9519, 120.00000, 7.19884, -4.15625
  9520, 120.00000, 8.55200, -4.93750
  9521, 120.00000, 9.90517, -5.71875
  9522, 120.00000, 11.25833, -6.50000
  9523, 120.00000, 0.46985, -0.17101
  9524, 120.00000, 1.93812, -0.70542
  9525, 120.00000, 3.40639, -1.23982
  9526, 120.00000, 4.87466, -1.77423
  9527, 120.00000, 6.34293, -2.30864
  9528, 120.00000, 7.81119, -2.84304
  9529, 120.00000, 9.27946, -3.37745
  9530, 120.00000, 10.74773, -3.91186
  9531, 120.00000, 12.21600, -4.44626
  9532, 120.00000, 0.49240, -0.08682
  9533, 120.00000, 2.03117, -0.35815
  9534, 120.00000, 3.56993, -0.62947
  9535, 120.00000, 5.10869, -0.90080
  9536, 120.00000, 6.64745, -1.17213
  9537, 120.00000, 8.18621, -1.44345
  9538, 120.00000, 9.72498, -1.71478
  9539, 120.00000, 11.26374, -1.98610
  9540, 120.00000, 12.80250, -2.25743
  9541, 120.00000, 0.50000, -0.00000
  9542, 120.00000, 2.06250, -0.00000
  9543, 120.00000, 3.62500, -0.00000
  9544, 120.00000, 5.18750, -0.00000
  9545, 120.00000, 6.75000, -0.00000
  9546, 120.00000, 8.31250, -0.00000
  9547, 120.00000, 9.87500, -0.00000
  9548, 120.00000, 11.43750, -0.00000
  9549, 120.00000, 13.00000, -0.00000
  9550, 125.00000, 0.50000, 0.00000
  9551, 125.00000, 2.06250, 0.00000
  9552, 125.00000, 3.62500, 0.00000
  9553, 125.00000, 5.18750, 0.00000
  9554, 125.00000, 6.75000, 0.00000
  9555, 125.00000, 8.31250, 0.00000
  9556, 125.00000, 9.87500, 0.00000
  9557, 125.00000, 11.43750, 0.00000
  9558, 125.00000, 13.00000, 0.00000
  9559, 125.00000, 0.49240, 0.08682
  9560, 125.00000, 2.03117, 0.35815
  9561, 125.00000, 3.56993, 0.62947
  9562, 125.00000, 5.10869, 0.90080
  9563, 125.00000, 6.64745, 1.17213
  9564, 125.00000, 8.18621, 1.44345
  9565, 125.00000, 9.72498, 1.71478
  9566, 125.00000, 11.26374, 1.98610
  9567, 125.00000, 12.80250, 2.25743
  9568, 125.00000, 0.46985, 0.17101
  9569, 125.00000, 1.93812, 0.70542
  9570, 125.00000, 3.40639, 1.23982
  9571, 125.00000, 4.87466, 1.77423
  9572, 125.00000, 6.34293, 2.30864
  9573, 125.00000, 7.81119, 2.84304
  9574, 125.00000, 9.27946, 3.37745
  9575, 125.00000, 10.74773, 3.91186
  9576, 125.00000, 12.21600, 4.44626
  9577, 125.00000, 0.43301, 0.25000
  9578, 125.00000, 1.78618, 1.03125
  9579, 125.00000, 3.13934, 1.81250
  9580, 125.00000, 4.49251, 2.59375
  9581, 125.00000, 5.84567, 3.37500
  9582, 125.00000, 7.19884, 4.15625
  9583, 125.00000, 8.55200, 4.93750
  9584, 125.00000, 9.90517, 5.71875
  9585, 125.00000, 11.25833, 6.50000
  9586, 125.00000, 0.38302, 0.32139
  9587, 125.00000, 1.57997, 1.32575
  9588, 125.00000, 2.77691, 2.33011
  9589, 125.00000, 3.97386, 3.33446
  9590, 125.00000, 5.17080, 4.33882
  9591, 125.00000, 6.36774, 5.34317
  9592, 125.00000, 7.56469, 6.34753
  9593, 125.00000, 8.76163, 7.35188
  9594, 125.00000, 9.95858, 8.35624
  9595, 125.00000, 0.32139, 0.38302
  9596, 125.00000, 1.32575, 1.57997
  9597, 125.00000, 2.33011, 2.77691
  9598, 125.00000, 3.33446, 3.97386
  9599, 125.00000, 4.33882, 5.17080
  9600, 125.00000, 5.34317, 6.36774
  9601, 125.00000, 6.34753, 7.56469
  9602, 125.00000, 7.35188, 8.76163
  9603, 125.00000, 8.35624, 9.95858
  9604, 125.00000, 0.25000, 0.43301
  9605, 125.00000, 1.03125, 1.78618
  9606, 125.00000, 1.81250, 3.13934
  9607, 125.00000, 2.59375, 4.49251
  9608, 125.00000, 3.37500, 5.84567
  9609, 125.00000, 4.15625, 7.19884
  9610, 125.00000, 4.93750, 8.55200
  9611, 125.00000, 5.71875, 9.90517
  9612, 125.00000, 6.50000, 11.25833
  9613, 125.00000, 0.17101, 0.46985
  9614, 125.00000, 0.70542, 1.93812
  9615, 125.00000, 1.23982, 3.40639
  9616, 125.00000, 1.77423, 4.87466
  9617, 125.00000, 2.30864, 6.34293
  9618, 125.00000, 2.84304, 7.81119
  9619, 125.00000, 3.37745, 9.27946
  9620, 125.00000, 3.91186, 10.74773
  9621, 125.00000, 4.44626, 12.21600
  9622, 125.00000, 0.08682, 0.49240
  9623, 125.00000, 0.35815, 2.03117
  9624, 125.00000, 0.62947, 3.56993
  9625, 125.00000, 0.90080, 5.10869
  9626, 125.00000, 1.17213, 6.64745
  9627, 125.00000, 1.44345, 8.18621
  9628, 125.00000, 1.71478, 9.72498
  9629, 125.00000, 1.98610, 11.26374
  9630, 125.00000, 2.25743, 12.80250
  9631, 125.00000, 0.00000, 0.50000
  9632, 125.00000, 0.00000, 2.06250
  9633, 125.00000, 0.00000, 3.62500
  9634, 125.00000, 0.00000, 5.18750
  9635, 125.00000, 0.00000, 6.75000
  9636, 125.00000, 0.00000, 8.31250
  9637, 125.00000, 0.00000, 9.87500
  9638, 125.00000, 0.00000, 11.43750
  9639, 125.00000, 0.00000, 13.00000
  9640, 125.00000, -0.08682, 0.49240
  9641, 125.00000, -0.35815, 2.03117
  9642, 125.00000, -0.62947, 3.56993
  9643, 125.00000, -0.90080, 5.10869
  9644, 125.00000, -1.17213, 6.64745
  9645, 125.00000, -1.44345, 8.18621
  9646, 125.00000, -1.71478, 9.72498
  9647, 125.00000, -1.98610, 11.26374
  9648, 125.00000, -2.25743, 12.80250
  9649, 125.00000, -0.17101, 0.46985
  9650, 125.00000, -0.70542, 1.93812
  9651, 125.00000, -1.23982, 3.40639
  9652, 125.00000, -1.77423, 4.87466
  9653, 125.00000, -2.30864, 6.34293
  9654, 125.00000, -2.84304, 7.81119
  9655, 125.00000, -3.37745, 9.27946
  9656, 125.00000, -3.91186, 10.74773
  9657, 125.00000, -4.44626, 12.21600
  9658, 125.00000, -0.25000, 0.43301
  9659, 125.00000, -1.03125, 1.78618
  9660, 125.00000, -1.81250, 3.13934
  9661, 125.00000, -2.59375, 4.49251
  9662, 125.00000, -3.37500, 5.84567
  9663, 125.00000, -4.15625, 7.19884
  9664, 125.00000, -4.93750, 8.55200
  9665, 125.00000, -5.71875, 9.90517
  9666, 125.00000, -6.50000, 11.25833
  9667, 125.00000, -0.32139, 0.38302
  9668, 125.00000, -1.32575, 1.57997
  9669, 125.00000, -2.33011, 2.77691
  9670, 125.00000, -3.33446, 3.97386
  9671, 125.00000, -4.33882, 5.17080
  9672, 125.00000, -5.34317, 6.36774
  9673, 125.00000, -6.34753, 7.56469
  9674, 125.00000, -7.35188, 8.76163
  9675, 125.00000, -8.35624, 9.95858
  9676, 125.00000, -0.38302, 0.32139
  9677, 125.00000, -1.57997, 1.32575
  9678, 125.00000, -2.77691, 2.33011
  9679, 125.00000, -3.97386, 3.33446
  9680, 125.00000, -5.17080, 4.33882
  9681, 125.00000, -6.36774, 5.34317
  9682, 125.00000, -7.56469, 6.34753
  9683, 125.00000, -8.76163, 7.35188
  9684, 125.00000, -9.95858, 8.35624
  9685, 125.00000, -0.43301, 0.25000
  9686, 125.00000, -1.78618, 1.03125
  9687, 125.00000, -3.13934, 1.81250
  9688, 125.00000, -4.49251, 2.59375
  9689, 125.00000, -5.84567, 3.37500
  9690, 125.00000, -7.19884, 4.15625
  9691, 125.00000, -8.55200, 4.93750
  9692, 125.00000, -9.90517, 5.71875
  9693, 125.00000, -11.25833, 6.50000
  9694, 125.00000, -0.46985, 0.17101
  9695, 125.00000, -1.93812, 0.70542
  9696, 125.00000, -3.40639, 1.23982
  9697, 125.00000, -4.87466, 1.77423
  9698, 125.00000, -6.34293, 2.30864
  9699, 125.00000, -7.81119, 2.84304
  9700, 125.00000, -9.27946, 3.37745
  9701, 125.00000, -10.74773, 3.91186
  9702, 125.00000, -12.21600, 4.44626
  9703, 125.00000, -0.49240, 0.08682
  9704, 125.00000, -2.03117, 0.35815
  9705, 125.00000, -3.56993, 0.62947
  9706, 125.00000, -5.10869, 0.90080
  9707, 125.00000, -6.64745, 1.17213
  9708, 125.00000, -8.18621, 1.44345
  9709, 125.00000, -9.72498, 1.71478
  9710, 125.00000, -11.26374, 1.98610
  9711, 125.00000, -12.80250, 2.25743
  9712, 125.00000, -0.50000, 0.00000
  9713, 125.00000, -2.06250, 0.00000
  9714, 125.00000, -3.62500, 0.00000
  9715, 125.00000, -5.18750, 0.00000
  9716, 125.00000, -6.75000, 0.00000
  9717, 125.00000, -8.31250, 0.00000
  9718, 125.00000, -9.87500, 0.00000
  9719, 125.00000, -11.43750, 0.00000
  9720, 125.00000, -13.00000, 0.00000
  9721, 125.00000, -0.49240, -0.08682
  9722, 125.00000, -2.03117, -0.35815
  9723, 125.00000, -3.56993, -0.62947
  9724, 125.00000, -5.10869, -0.90080
  9725, 125.00000, -6.64745, -1.17213
  9726, 125.00000, -8.18621, -1.44345
  9727, 125.00000, -9.72498, -1.71478
  9728, 125.00000, -11.26374, -1.98610
  9729, 125.00000, -12.80250, -2.25743
  9730, 125.00000, -0.46985, -0.17101
  9731, 125.00000, -1.93812, -0.70542
  9732, 125.00000, -3.40639, -1.23982
  9733, 125.00000, -4.87466, -1.77423
  9734, 125.00000, -6.34293, -2.30864
  9735, 125.00000, -7.81119, -2.84304
  9736, 125.00000, -9.27946, -3.37745
  9737, 125.00000, -10.74773, -3.91186
  9738, 125.00000, -12.21600, -4.44626
  9739, 125.00000, -0.43301, -0.25000
  9740, 125.00000, -1.78618, -1.03125
  9741, 125.00000, -3.13934, -1.81250
  9742, 125.00000, -4.49251, -2.59375
  9743, 125.00000, -5.84567, -3.37500
  9744, 125.00000, -7.19884, -4.15625
  9745, 125.00000, -8.55200, -4.93750
  9746, 125.00000, -9.90517, -5.71875
  9747, 125.00000, -11.25833, -6.50000
  9748, 125.00000, -0.38302, -0.32139
  9749, 125.00000, -1.57997, -1.32575
  9750, 125.00000, -2.77691, -2.33011
  9751, 125.00000, -3.97386, -3.33446
  9752, 125.00000, -5.17080, -4.33882
  9753, 125.00000, -6.36774, -5.34317
  9754, 125.00000, -7.56469, -6.34753
  9755, 125.00000, -8.76163, -7.35188
  9756, 125.00000, -9.95858, -8.35624
  9757, 125.00000, -0.32139, -0.38302
  9758, 125.00000, -1.32575, -1.57997
  9759, 125.00000, -2.33011, -2.77691
  9760, 125.00000, -3.33446, -3.97386
  9761, 125.00000, -4.33882, -5.17080
  9762, 125.00000, -5.34317, -6.36774
  9763, 125.00000, -6.34753, -7.56469
  9764, 125.00000, -7.35188, -8.76163
  9765, 125.00000, -8.35624, -9.95858
  9766, 125.00000, -0.25000, -0.43301
  9767, 125.00000, -1.03125, -1.78618
  9768, 125.00000, -1.81250, -3.13934
  9769, 125.00000, -2.59375, -4.49251
  9770, 125.00000, -3.37500, -5.84567
  9771, 125.00000, -4.15625, -7.19884
  9772, 125.00000, -4.93750, -8.55200
  9773, 125.00000, -5.71875, -9.90517
  9774, 125.00000, -6.50000, -11.25833
  9775, 125.00000, -0.17101, -0.46985
  9776, 125.00000, -0.70542, -1.93812
  9777, 125.00000, -1.23982, -3.40639
  9778, 125.00000, -1.77423, -4.87466
  9779, 125.00000, -2.30864, -6.34293
  9780, 125.00000, -2.84304, -7.81119
  9781, 125.00000, -3.37745, -9.27946
  9782, 125.00000, -3.91186, -10.74773
  9783, 125.00000, -4.44626, -12.21600
  9784, 125.00000, -0.08682, -0.49240
  9785, 125.00000, -0.35815, -2.03117
  9786, 125.00000, -0.62947, -3.56993
  9787, 125.00000, -0.90080, -5.10869
  9788, 125.00000, -1.17213, -6.64745
  9789, 125.00000, -1.44345, -8.18621
  9790, 125.00000, -1.71478, -9.72498
  9791, 125.00000, -1.98610, -11.26374
  9792, 125.00000, -2.25743, -12.80250
  9793, 125.00000, -0.00000, -0.50000
  9794, 125.00000, -0.00000, -2.06250
  9795, 125.00000, -0.00000, -3.62500
  9796, 125.00000, -0.00000, -5.18750
  9797, 125.00000, -0.00000, -6.75000
  9798, 125.00000, -0.00000, -8.31250
  9799, 125.00000, -0.00000, -9.87500
  9800, 125.00000, -0.00000, -11.43750
  9801, 125.00000, -0.00000, -13.00000
  9802, 125.00000, 0.08682, -0.49240
  9803, 125.00000, 0.35815, -2.03117
  9804, 125.00000, 0.62947, -3.56993
  9805, 125.00000, 0.90080, -5.10869
  9806, 125.00000, 1.17213, -6.64745
  9807, 125.00000, 1.44345, -8.18621
  9808, 125.00000, 1.71478, -9.72498
  9809, 125.00000, 1.98610, -11.26374
  9810, 125.00000, 2.25743, -12.80250
  9811, 125.00000, 0.17101, -0.46985
  9812, 125.00000, 0.70542, -1.93812
  9813, 125.00000, 1.23982, -3.40639
  9814, 125.00000, 1.77423, -4.87466
  9815, 125.00000, 2.30864, -6.34293
  9816, 125.00000, 2.84304, -7.81119
  9817, 125.00000, 3.37745, -9.27946
  9818, 125.00000, 3.91186, -10.74773
  9819, 125.00000, 4.44626, -12.21600
  9820, 125.00000, 0.25000, -0.43301
  9821, 125.00000, 1.03125, -1.78618
  9822, 125.00000, 1.81250, -3.13934
  9823, 125.00000, 2.59375, -4.49251
  9824, 125.00000, 3.37500, -5.84567
  9825, 125.00000, 4.15625, -7.19884
  9826, 125.00000, 4.93750, -8.55200
  9827, 125.00000, 5.71875, -9.90517
  9828, 125.00000, 6.50000, -11.25833
  9829, 125.00000, 0.32139, -0.38302
  9830, 125.00000, 1.32575, -1.57997
  9831, 125.00000, 2.33011, -2.77691
  9832, 125.00000, 3.33446, -3.97386
  9833, 125.00000, 4.33882, -5.17080
  9834, 125.00000, 5.34317, -6.36774
  9835, 125.00000, 6.34753, -7.56469
  9836, 125.00000, 7.35188, -8.76163
  9837, 125.00000, 8.35624, -9.95858
  9838, 125.00000, 0.38302, -0.32139
  9839, 125.00000, 1.57997, -1.32575
  9840, 125.00000, 2.77691, -2.33011
  9841, 125.00000, 3.97386, -3.33446
  9842, 125.00000, 5.17080, -4.33882
  9843, 125.00000, 6.36774, -5.34317
  9844, 125.00000, 7.56469, -6.34753
  9845, 125.00000, 8.76163, -7.35188
  9846, 125.00000, 9.95858, -8.35624
  9847, 125.00000, 0.43301, -0.25000
  9848, 125.00000, 1.78618, -1.03125
  9849, 125.00000, 3.13934, -1.81250
  9850, 125.00000, 4.49251, -2.59375
  9851, 125.00000, 5.84567, -3.37500
  9852, 125.00000, 7.19884, -4.15625
  9853, 125.00000, 8.55200, -4.93750
  9854, 125.00000, 9.90517, -5.71875
  9855, 125.00000, 11.25833, -6.50000
  9856, 125.00000, 0.46985, -0.17101
  9857, 125.00000, 1.93812, -0.70542
  9858, 125.00000, 3.40639, -1.23982
  9859, 125.00000, 4.87466, -1.77423
  9860, 125.00000, 6.34293, -2.30864
  9861, 125.00000, 7.81119, -2.84304
  9862, 125.00000, 9.27946, -3.37745
  9863, 125.00000, 10.74773, -3.91186
  9864, 125.00000, 12.21600, -4.44626
  9865, 125.00000, 0.49240, -0.08682
  9866, 125.00000, 2.03117, -0.35815
  9867, 125.00000, 3.56993, -0.62947
  9868, 125.00000, 5.10869, -0.90080
  9869, 125.00000, 6.64745, -1.17213
  9870, 125.00000, 8.18621, -1.44345
  9871, 125.00000, 9.72498, -1.71478
  9872, 125.00000, 11.26374, -1.98610
  9873, 125.00000, 12.80250, -2.25743
  9874, 125.00000, 0.50000, -0.00000
  9875, 125.00000, 2.06250, -0.00000
  9876, 125.00000, 3.62500, -0.00000
  9877, 125.00000, 5.18750, -0.00000
  9878, 125.00000, 6.75000, -0.00000
  9879, 125.00000, 8.31250, -0.00000
  9880, 125.00000, 9.87500, -0.00000
  9881, 125.00000, 11.43750, -0.00000
  9882, 125.00000, 13.00000, -0.00000
  9883, 130.00000, 0.50000, 0.00000
  9884, 130.00000, 2.06250, 0.00000
  9885, 130.00000, 3.62500, 0.00000
  9886, 130.00000, 5.18750, 0.00000
  9887, 130.00000, 6.75000, 0.00000
  9888, 130.00000, 8.31250, 0.00000
  9889, 130.00000, 9.87500, 0.00000
  9890, 130.00000, 11.43750, 0.00000
  9891, 130.00000, 13.00000, 0.00000
  9892, 130.00000, 0.49240, 0.08682
  9893, 130.00000, 2.03117, 0.35815
  9894, 130.00000, 3.56993, 0.62947
  9895, 130.00000, 5.10869, 0.90080
  9896, 130.00000, 6.64745, 1.17213
  9897, 130.00000, 8.18621, 1.44345
  9898, 130.00000, 9.72498, 1.71478
  9899, 130.00000, 11.26374, 1.98610
  9900, 130.00000, 12.80250, 2.25743
  9901, 130.00000, 0.46985, 0.17101
  9902, 130.00000, 1.93812, 0.70542
  9903, 130.00000, 3.40639, 1.23982
  9904, 130.00000, 4.87466, 1.77423
  9905, 130.00000, 6.34293, 2.30864
  9906, 130.00000, 7.81119, 2.84304
  9907, 130.00000, 9.27946, 3.37745
  9908, 130.00000, 10.74773, 3.91186
  9909, 130.00000, 12.21600, 4.44626
  9910, 130.00000, 0.43301, 0.25000
  9911, 130.00000, 1.78618, 1.03125
  9912, 130.00000, 3.13934, 1.81250
  9913, 130.00000, 4.49251, 2.59375
  9914, 130.00000, 5.84567, 3.37500
  9915, 130.00000, 7.19884, 4.15625
  9916, 130.00000, 8.55200, 4.93750
  9917, 130.00000, 9.90517, 5.71875
  9918, 130.00000, 11.25833, 6.50000
  9919, 130.00000, 0.38302, 0.32139
  9920, 130.00000, 1.57997, 1.32575
  9921, 130.00000, 2.77691, 2.33011
  9922, 130.00000, 3.97386, 3.33446
  9923, 130.00000, 5.17080, 4.33882
  9924, 130.00000, 6.36774, 5.34317
  9925, 130.00000, 7.56469, 6.34753
  9926, 130.00000, 8.76163, 7.35188
  9927, 130.00000, 9.95858, 8.35624
  9928, 130.00000, 0.32139, 0.38302
  9929, 130.00000, 1.32575, 1.57997
  9930, 130.00000, 2.33011, 2.77691
  9931, 130.00000, 3.33446, 3.97386
  9932, 130.00000, 4.33882, 5.17080
  9933, 130.00000, 5.34317, 6.36774
  9934, 130.00000, 6.34753, 7.56469
  9935, 130.00000, 7.35188, 8.76163
  9936, 130.00000, 8.35624, 9.95858
  9937, 130.00000, 0.25000, 0.43301
  9938, 130.00000, 1.03125, 1.78618
  9939, 130.00000, 1.81250, 3.13934
  9940, 130.00000, 2.59375, 4.49251
  9941, 130.00000, 3.37500, 5.84567
  9942, 130.00000, 4.15625, 7.19884
  9943, 130.00000, 4.93750, 8.55200
  9944, 130.00000, 5.71875, 9.90517
  9945, 130.00000, 6.50000, 11.25833
  9946, 130.00000, 0.17101, 0.46985
  9947, 130.00000, 0.70542, 1.93812
  9948, 130.00000, 1.23982, 3.40639
  9949, 130.00000, 1.77423, 4.87466
  9950, 130.00000, 2.30864, 6.34293
  9951, 130.00000, 2.84304, 7.81119
  9952, 130.00000, 3.37745, 9.27946
  9953, 130.00000, 3.91186, 10.74773
  9954, 130.00000, 4.44626, 12.21600
  9955, 130.00000, 0.08682, 0.49240
  9956, 130.00000, 0.35815, 2.03117
  9957, 130.00000, 0.62947, 3.56993
  9958, 130.00000, 0.90080, 5.10869
  9959, 130.00000, 1.17213, 6.64745
  9960, 130.00000, 1.44345, 8.18621
  9961, 130.00000, 1.71478, 9.72498
  9962, 130.00000, 1.98610, 11.26374
  9963, 130.00000, 2.25743, 12.80250
  9964, 130.00000, 0.00000, 0.50000
  9965, 130.00000, 0.00000, 2.06250
  9966, 130.00000, 0.00000, 3.62500
  9967, 130.00000, 0.00000, 5.18750
  9968, 130.00000, 0.00000, 6.75000
  9969, 130.00000, 0.00000, 8.31250
  9970, 130.00000, 0.00000, 9.87500
  9971, 130.00000, 0.00000, 11.43750
  9972, 130.00000, 0.00000, 13.00000
  9973, 130.00000, -0.08682, 0.49240
  9974, 130.00000, -0.35815, 2.03117
  9975, 130.00000, -0.62947, 3.56993
  9976, 130.00000, -0.90080, 5.10869
  9977, 130.00000, -1.17213, 6.64745
  9978, 130.00000, -1.44345, 8.18621
  9979, 130.00000, -1.71478, 9.72498
  9980, 130.00000, -1.98610, 11.26374
  9981, 130.00000, -2.25743, 12.80250
  9982, 130.00000, -0.17101, 0.46985
  9983, 130.00000, -0.70542, 1.93812
  9984, 130.00000, -1.23982, 3.40639
  9985, 130.00000, -1.77423, 4.87466
  9986, 130.00000, -2.30864, 6.34293
  9987, 130.00000, -2.84304, 7.81119
  9988, 130.00000, -3.37745, 9.27946
  9989, 130.00000, -3.91186, 10.74773
  9990, 130.00000, -4.44626, 12.21600
  9991, 130.00000, -0.25000, 0.43301
  9992, 130.00000, -1.03125, 1.78618
  9993, 130.00000, -1.81250, 3.13934
  9994, 130.00000, -2.59375, 4.49251
  9995, 130.00000, -3.37500, 5.84567
  9996, 130.00000, -4.15625, 7.19884
  9997, 130.00000, -4.93750, 8.55200
  9998, 130.00000, -5.71875, 9.90517
  9999, 130.00000, -6.50000, 11.25833
  10000, 130.00000, -0.32139, 0.38302
  10001, 130.00000, -1.32575, 1.57997
  10002, 130.00000, -2.33011, 2.77691
  10003, 130.00000, -3.33446, 3.97386
  10004, 130.00000, -4.33882, 5.17080
  10005, 130.00000, -5.34317, 6.36774
  10006, 130.00000, -6.34753, 7.56469
  10007, 130.00000, -7.35188, 8.76163
  10008, 130.00000, -8.35624, 9.95858
  10009, 130.00000, -0.38302, 0.32139
  10010, 130.00000, -1.57997, 1.32575
  10011, 130.00000, -2.77691, 2.33011
  10012, 130.00000, -3.97386, 3.33446
  10013, 130.00000, -5.17080, 4.33882
  10014, 130.00000, -6.36774, 5.34317
  10015, 130.00000, -7.56469, 6.34753
  10016, 130.00000, -8.76163, 7.35188
  10017, 130.00000, -9.95858, 8.35624
  10018, 130.00000, -0.43301, 0.25000
  10019, 130.00000, -1.78618, 1.03125
  10020, 130.00000, -3.13934, 1.81250
  10021, 130.00000, -4.49251, 2.59375
  10022, 130.00000, -5.84567, 3.37500
  10023, 130.00000, -7.19884, 4.15625
  10024, 130.00000, -8.55200, 4.93750
  10025, 130.00000, -9.90517, 5.71875
  10026, 130.00000, -11.25833, 6.50000
  10027, 130.00000, -0.46985, 0.17101
  10028, 130.00000, -1.93812, 0.70542
  10029, 130.00000, -3.40639, 1.23982
  10030, 130.00000, -4.87466, 1.77423
  10031, 130.00000, -6.34293, 2.30864
  10032, 130.00000, -7.81119, 2.84304
  10033, 130.00000, -9.27946, 3.37745
  10034, 130.00000, -10.74773, 3.91186
  10035, 130.00000, -12.21600, 4.44626
  10036, 130.00000, -0.49240, 0.08682
  10037, 130.00000, -2.03117, 0.35815
  10038, 130.00000, -3.56993, 0.62947
  10039, 130.00000, -5.10869, 0.90080
  10040, 130.00000, -6.64745, 1.17213
  10041, 130.00000, -8.18621, 1.44345
  10042, 130.00000, -9.72498, 1.71478
  10043, 130.00000, -11.26374, 1.98610
  10044, 130.00000, -12.80250, 2.25743
  10045, 130.00000, -0.50000, 0.00000
  10046, 130.00000, -2.06250, 0.00000
  10047, 130.00000, -3.62500, 0.00000
  10048, 130.00000, -5.18750, 0.00000
  10049, 130.00000, -6.75000, 0.00000
  10050, 130.00000, -8.31250, 0.00000
  10051, 130.00000, -9.87500, 0.00000
  10052, 130.00000, -11.43750, 0.00000
  10053, 130.00000, -13.00000, 0.00000
  10054, 130.00000, -0.49240, -0.08682
  10055, 130.00000, -2.03117, -0.35815
  10056, 130.00000, -3.56993, -0.62947
  10057, 130.00000, -5.10869, -0.90080
  10058, 130.00000, -6.64745, -1.17213
  10059, 130.00000, -8.18621, -1.44345
  10060, 130.00000, -9.72498, -1.71478
  10061, 130.00000, -11.26374, -1.98610
  10062, 130.00000, -12.80250, -2.25743
  10063, 130.00000, -0.46985, -0.17101
  10064, 130.00000, -1.93812, -0.70542
  10065, 130.00000, -3.40639, -1.23982
  10066, 130.00000, -4.87466, -1.77423
  10067, 130.00000, -6.34293, -2.30864
  10068, 130.00000, -7.81119, -2.84304
  10069, 130.00000, -9.27946, -3.37745
  10070, 130.00000, -10.74773, -3.91186
  10071, 130.00000, -12.21600, -4.44626
  10072, 130.00000, -0.43301, -0.25000
  10073, 130.00000, -1.78618, -1.03125
  10074, 130.00000, -3.13934, -1.81250
  10075, 130.00000, -4.49251, -2.59375
  10076, 130.00000, -5.84567, -3.37500
  10077, 130.00000, -7.19884, -4.15625
  10078, 130.00000, -8.55200, -4.93750
  10079, 130.00000, -9.90517, -5.71875
  10080, 130.00000, -11.25833, -6.50000
  10081, 130.00000, -0.38302, -0.32139
  10082, 130.00000, -1.57997, -1.32575
  10083, 130.00000, -2.77691, -2.33011
  10084, 130.00000, -3.97386, -3.33446
  10085, 130.00000, -5.17080, -4.33882
  10086, 130.00000, -6.36774, -5.34317
  10087, 130.00000, -7.56469, -6.34753
  10088, 130.00000, -8.76163, -7.35188
  10089, 130.00000, -9.95858, -8.35624
  10090, 130.00000, -0.32139, -0.38302
  10091, 130.00000, -1.32575, -1.57997
  10092, 130.00000, -2.33011, -2.77691
  10093, 130.00000, -3.33446, -3.97386
  10094, 130.00000, -4.33882, -5.17080
  10095, 130.00000, -5.34317, -6.36774
  10096, 130.00000, -6.34753, -7.56469
  10097, 130.00000, -7.35188, -8.76163
  10098, 130.00000, -8.35624, -9.95858
  10099, 130.00000, -0.25000, -0.43301
  10100, 130.00000, -1.03125, -1.78618
  10101, 130.00000, -1.81250, -3.13934
  10102, 130.00000, -2.59375, -4.49251
  10103, 130.00000, -3.37500, -5.84567
  10104, 130.00000, -4.15625, -7.19884
  10105, 130.00000, -4.93750, -8.55200
  10106, 130.00000, -5.71875, -9.90517
  10107, 130.00000, -6.50000, -11.25833
  10108, 130.00000, -0.17101, -0.46985
  10109, 130.00000, -0.70542, -1.93812
  10110, 130.00000, -1.23982, -3.40639
  10111, 130.00000, -1.77423, -4.87466
  10112, 130.00000, -2.30864, -6.34293
  10113, 130.00000, -2.84304, -7.81119
  10114, 130.00000, -3.37745, -9.27946
  10115, 130.00000, -3.91186, -10.74773
  10116, 130.00000, -4.44626, -12.21600
  10117, 130.00000, -0.08682, -0.49240
  10118, 130.00000, -0.35815, -2.03117
  10119, 130.00000, -0.62947, -3.56993
  10120, 130.00000, -0.90080, -5.10869
  10121, 130.00000, -1.17213, -6.64745
  10122, 130.00000, -1.44345, -8.18621
  10123, 130.00000, -1.71478, -9.72498
  10124, 130.00000, -1.98610, -11.26374
  10125, 130.00000, -2.25743, -12.80250
  10126, 130.00000, -0.00000, -0.50000
  10127, 130.00000, -0.00000, -2.06250
  10128, 130.00000, -0.00000, -3.62500
  10129, 130.00000, -0.00000, -5.18750
  10130, 130.00000, -0.00000, -6.75000
  10131, 130.00000, -0.00000, -8.31250
  10132, 130.00000, -0.00000, -9.87500
  10133, 130.00000, -0.00000, -11.43750
  10134, 130.00000, -0.00000, -13.00000
  10135, 130.00000, 0.08682, -0.49240
  10136, 130.00000, 0.35815, -2.03117
  10137, 130.00000, 0.62947, -3.56993
  10138, 130.00000, 0.90080, -5.10869
  10139, 130.00000, 1.17213, -6.64745
  10140, 130.00000, 1.44345, -8.18621
  10141, 130.00000, 1.71478, -9.72498
  10142, 130.00000, 1.98610, -11.26374
  10143, 130.00000, 2.25743, -12.80250
  10144, 130.00000, 0.17101, -0.46985
  10145, 130.00000, 0.70542, -1.93812
  10146, 130.00000, 1.23982, -3.40639
  10147, 130.00000, 1.77423, -4.87466
  10148, 130.00000, 2.30864, -6.34293
  10149, 130.00000, 2.84304, -7.81119
  10150, 130.00000, 3.37745, -9.27946
  10151, 130.00000, 3.91186, -10.74773
  10152, 130.00000, 4.44626, -12.21600
  10153, 130.00000, 0.25000, -0.43301
  10154, 130.00000, 1.03125, -1.78618
  10155, 130.00000, 1.81250, -3.13934
  10156, 130.00000, 2.59375, -4.49251
  10157, 130.00000, 3.37500, -5.84567
  10158, 130.00000, 4.15625, -7.19884
  10159, 130.00000, 4.93750, -8.55200
  10160, 130.00000, 5.71875, -9.90517
  10161, 130.00000, 6.50000, -11.25833
  10162, 130.00000, 0.32139, -0.38302
  10163, 130.00000, 1.32575, -1.57997
  10164, 130.00000, 2.33011, -2.77691
  10165, 130.00000, 3.33446, -3.97386
  10166, 130.00000, 4.33882, -5.17080
  10167, 130.00000, 5.34317, -6.36774
  10168, 130.00000, 6.34753, -7.56469
  10169, 130.00000, 7.35188, -8.76163
  10170, 130.00000, 8.35624, -9.95858
  10171, 130.00000, 0.38302, -0.32139
  10172, 130.00000, 1.57997, -1.32575
  10173, 130.00000, 2.77691, -2.33011
  10174, 130.00000, 3.97386, -3.33446
  10175, 130.00000, 5.17080, -4.33882
  10176, 130.00000, 6.36774, -5.34317
  10177, 130.00000, 7.56469, -6.34753
  10178, 130.00000, 8.76163, -7.35188
  10179, 130.00000, 9.95858, -8.35624
  10180, 130.00000, 0.43301, -0.25000
  10181, 130.00000, 1.78618, -1.03125
  10182, 130.00000, 3.13934, -1.81250
  10183, 130.00000, 4.49251, -2.59375
  10184, 130.00000, 5.84567, -3.37500
  10185, 130.00000, 7.19884, -4.15625
  10186, 130.00000, 8.55200, -4.93750
  10187, 130.00000, 9.90517, -5.71875
  10188, 130.00000, 11.25833, -6.50000
  10189, 130.00000, 0.46985, -0.17101
  10190, 130.00000, 1.93812, -0.70542
  10191, 130.00000, 3.40639, -1.23982
  10192, 130.00000, 4.87466, -1.77423
  10193, 130.00000, 6.34293, -2.30864
  10194, 130.00000, 7.81119, -2.84304
  10195, 130.00000, 9.27946, -3.37745
  10196, 130.00000, 10.74773, -3.91186
  10197, 130.00000, 12.21600, -4.44626
  10198, 130.00000, 0.49240, -0.08682
  10199, 130.00000, 2.03117, -0.35815
  10200, 130.00000, 3.56993, -0.62947
  10201, 130.00000, 5.10869, -0.90080
  10202, 130.00000, 6.64745, -1.17213
  10203, 130.00000, 8.18621, -1.44345
  10204, 130.00000, 9.72498, -1.71478
  10205, 130.00000, 11.26374, -1.98610
  10206, 130.00000, 12.80250, -2.25743
  10207, 130.00000, 0.50000, -0.00000
  10208, 130.00000, 2.06250, -0.00000
  10209, 130.00000, 3.62500, -0.00000
  10210, 130.00000, 5.18750, -0.00000
  10211, 130.00000, 6.75000, -0.00000
  10212, 130.00000, 8.31250, -0.00000
  10213, 130.00000, 9.87500, -0.00000
  10214, 130.00000, 11.43750, -0.00000
  10215, 130.00000, 13.00000, -0.00000
  10216, 135.00000, 0.50000, 0.00000
  10217, 135.00000, 2.06250, 0.00000
  10218, 135.00000, 3.62500, 0.00000
  10219, 135.00000, 5.18750, 0.00000
  10220, 135.00000, 6.75000, 0.00000
  10221, 135.00000, 8.31250, 0.00000
  10222, 135.00000, 9.87500, 0.00000
  10223, 135.00000, 11.43750, 0.00000
  10224, 135.00000, 13.00000, 0.00000
  10225, 135.00000, 0.49240, 0.08682
  10226, 135.00000, 2.03117, 0.35815
  10227, 135.00000, 3.56993, 0.62947
  10228, 135.00000, 5.10869, 0.90080
  10229, 135.00000, 6.64745, 1.17213
  10230, 135.00000, 8.18621, 1.44345
  10231, 135.00000, 9.72498, 1.71478
  10232, 135.00000, 11.26374, 1.98610
  10233, 135.00000, 12.80250, 2.25743
  10234, 135.00000, 0.46985, 0.17101
  10235, 135.00000, 1.93812, 0.70542
  10236, 135.00000, 3.40639, 1.23982
  10237, 135.00000, 4.87466, 1.77423
  10238, 135.00000, 6.34293, 2.30864
  10239, 135.00000, 7.81119, 2.84304
  10240, 135.00000, 9.27946, 3.37745
  10241, 135.00000, 10.74773, 3.91186
  10242, 135.00000, 12.21600, 4.44626
  10243, 135.00000, 0.43301, 0.25000
  10244, 135.00000, 1.78618, 1.03125
  10245, 135.00000, 3.13934, 1.81250
  10246, 135.00000, 4.49251, 2.59375
  10247, 135.00000, 5.84567, 3.37500
  10248, 135.00000, 7.19884, 4.15625
  10249, 135.00000, 8.55200, 4.93750
  10250, 135.00000, 9.90517, 5.71875
  10251, 135.00000, 11.25833, 6.50000
  10252, 135.00000, 0.38302, 0.32139
  10253, 135.00000, 1.57997, 1.32575
  10254, 135.00000, 2.77691, 2.33011
  10255, 135.00000, 3.97386, 3.33446
  10256, 135.00000, 5.17080, 4.33882
  10257, 135.00000, 6.36774, 5.34317
  10258, 135.00000, 7.56469, 6.34753
  10259, 135.00000, 8.76163, 7.35188
  10260, 135.00000, 9.95858, 8.35624
  10261, 135.00000, 0.32139, 0.38302
  10262, 135.00000, 1.32575, 1.57997
  10263, 135.00000, 2.33011, 2.77691
  10264, 135.00000, 3.33446, 3.97386
  10265, 135.00000, 4.33882, 5.17080
  10266, 135.00000, 5.34317, 6.36774
  10267, 135.00000, 6.34753, 7.56469
  10268, 135.00000, 7.35188, 8.76163
  10269, 135.00000, 8.35624, 9.95858
  10270, 135.00000, 0.25000, 0.43301
  10271, 135.00000, 1.03125, 1.78618
  10272, 135.00000, 1.81250, 3.13934
  10273, 135.00000, 2.59375, 4.49251
  10274, 135.00000, 3.37500, 5.84567
  10275, 135.00000, 4.15625, 7.19884
  10276, 135.00000, 4.93750, 8.55200
  10277, 135.00000, 5.71875, 9.90517
  10278, 135.00000, 6.50000, 11.25833
  10279, 135.00000, 0.17101, 0.46985
  10280, 135.00000, 0.70542, 1.93812
  10281, 135.00000, 1.23982, 3.40639
  10282, 135.00000, 1.77423, 4.87466
  10283, 135.00000, 2.30864, 6.34293
  10284, 135.00000, 2.84304, 7.81119
  10285, 135.00000, 3.37745, 9.27946
  10286, 135.00000, 3.91186, 10.74773
  10287, 135.00000, 4.44626, 12.21600
  10288, 135.00000, 0.08682, 0.49240
  10289, 135.00000, 0.35815, 2.03117
  10290, 135.00000, 0.62947, 3.56993
  10291, 135.00000, 0.90080, 5.10869
  10292, 135.00000, 1.17213, 6.64745
  10293, 135.00000, 1.44345, 8.18621
  10294, 135.00000, 1.71478, 9.72498
  10295, 135.00000, 1.98610, 11.26374
  10296, 135.00000, 2.25743, 12.80250
  10297, 135.00000, 0.00000, 0.50000
  10298, 135.00000, 0.00000, 2.06250
  10299, 135.00000, 0.00000, 3.62500
  10300, 135.00000, 0.00000, 5.18750
  10301, 135.00000, 0.00000, 6.75000
  10302, 135.00000, 0.00000, 8.31250
  10303, 135.00000, 0.00000, 9.87500
  10304, 135.00000, 0.00000, 11.43750
  10305, 135.00000, 0.00000, 13.00000
  10306, 135.00000, -0.08682, 0.49240
  10307, 135.00000, -0.35815, 2.03117
  10308, 135.00000, -0.62947, 3.56993
  10309, 135.00000, -0.90080, 5.10869
  10310, 135.00000, -1.17213, 6.64745
  10311, 135.00000, -1.44345, 8.18621
  10312, 135.00000, -1.71478, 9.72498
  10313, 135.00000, -1.98610, 11.26374
  10314, 135.00000, -2.25743, 12.80250
  10315, 135.00000, -0.17101, 0.46985
  10316, 135.00000, -0.70542, 1.93812
  10317, 135.00000, -1.23982, 3.40639
  10318, 135.00000, -1.77423, 4.87466
  10319, 135.00000, -2.30864, 6.34293
  10320, 135.00000, -2.84304, 7.81119
  10321, 135.00000, -3.37745, 9.27946
  10322, 135.00000, -3.91186, 10.74773
  10323, 135.00000, -4.44626, 12.21600
  10324, 135.00000, -0.25000, 0.43301
  10325, 135.00000, -1.03125, 1.78618
  10326, 135.00000, -1.81250, 3.13934
  10327, 135.00000, -2.59375, 4.49251
  10328, 135.00000, -3.37500, 5.84567
  10329, 135.00000, -4.15625, 7.19884
  10330, 135.00000, -4.93750, 8.55200
  10331, 135.00000, -5.71875, 9.90517
  10332, 135.00000, -6.50000, 11.25833
  10333, 135.00000, -0.32139, 0.38302
  10334, 135.00000, -1.32575, 1.57997
  10335, 135.00000, -2.33011, 2.77691
  10336, 135.00000, -3.33446, 3.97386
  10337, 135.00000, -4.33882, 5.17080
  10338, 135.00000, -5.34317, 6.36774
  10339, 135.00000, -6.34753, 7.56469
  10340, 135.00000, -7.35188, 8.76163
  10341, 135.00000, -8.35624, 9.95858
  10342, 135.00000, -0.38302, 0.32139
  10343, 135.00000, -1.57997, 1.32575
  10344, 135.00000, -2.77691, 2.33011
  10345, 135.00000, -3.97386, 3.33446
  10346, 135.00000, -5.17080, 4.33882
  10347, 135.00000, -6.36774, 5.34317
  10348, 135.00000, -7.56469, 6.34753
  10349, 135.00000, -8.76163, 7.35188
  10350, 135.00000, -9.95858, 8.35624
  10351, 135.00000, -0.43301, 0.25000
  10352, 135.00000, -1.78618, 1.03125
  10353, 135.00000, -3.13934, 1.81250
  10354, 135.00000, -4.49251, 2.59375
  10355, 135.00000, -5.84567, 3.37500
  10356, 135.00000, -7.19884, 4.15625
  10357, 135.00000, -8.55200, 4.93750
  10358, 135.00000, -9.90517, 5.71875
  10359, 135.00000, -11.25833, 6.50000
  10360, 135.00000, -0.46985, 0.17101
  10361, 135.00000, -1.93812, 0.70542
  10362, 135.00000, -3.40639, 1.23982
  10363, 135.00000, -4.87466, 1.77423
  10364, 135.00000, -6.34293, 2.30864
  10365, 135.00000, -7.81119, 2.84304
  10366, 135.00000, -9.27946, 3.37745
  10367, 135.00000, -10.74773, 3.91186
  10368, 135.00000, -12.21600, 4.44626
  10369, 135.00000, -0.49240, 0.08682
  10370, 135.00000, -2.03117, 0.35815
  10371, 135.00000, -3.56993, 0.62947
  10372, 135.00000, -5.10869, 0.90080
  10373, 135.00000, -6.64745, 1.17213
  10374, 135.00000, -8.18621, 1.44345
  10375, 135.00000, -9.72498, 1.71478
  10376, 135.00000, -11.26374, 1.98610
  10377, 135.00000, -12.80250, 2.25743
  10378, 135.00000, -0.50000, 0.00000
  10379, 135.00000, -2.06250, 0.00000
  10380, 135.00000, -3.62500, 0.00000
  10381, 135.00000, -5.18750, 0.00000
  10382, 135.00000, -6.75000, 0.00000
  10383, 135.00000, -8.31250, 0.00000
  10384, 135.00000, -9.87500, 0.00000
  10385, 135.00000, -11.43750, 0.00000
  10386, 135.00000, -13.00000, 0.00000
  10387, 135.00000, -0.49240, -0.08682
  10388, 135.00000, -2.03117, -0.35815
  10389, 135.00000, -3.56993, -0.62947
  10390, 135.00000, -5.10869, -0.90080
  10391, 135.00000, -6.64745, -1.17213
  10392, 135.00000, -8.18621, -1.44345
  10393, 135.00000, -9.72498, -1.71478
  10394, 135.00000, -11.26374, -1.98610
  10395, 135.00000, -12.80250, -2.25743
  10396, 135.00000, -0.46985, -0.17101
  10397, 135.00000, -1.93812, -0.70542
  10398, 135.00000, -3.40639, -1.23982
  10399, 135.00000, -4.87466, -1.77423
  10400, 135.00000, -6.34293, -2.30864
  10401, 135.00000, -7.81119, -2.84304
  10402, 135.00000, -9.27946, -3.37745
  10403, 135.00000, -10.74773, -3.91186
  10404, 135.00000, -12.21600, -4.44626
  10405, 135.00000, -0.43301, -0.25000
  10406, 135.00000, -1.78618, -1.03125
  10407, 135.00000, -3.13934, -1.81250
  10408, 135.00000, -4.49251, -2.59375
  10409, 135.00000, -5.84567, -3.37500
  10410, 135.00000, -7.19884, -4.15625
  10411, 135.00000, -8.55200, -4.93750
  10412, 135.00000, -9.90517, -5.71875
  10413, 135.00000, -11.25833, -6.50000
  10414, 135.00000, -0.38302, -0.32139
  10415, 135.00000, -1.57997, -1.32575
  10416, 135.00000, -2.77691, -2.33011
  10417, 135.00000, -3.97386, -3.33446
  10418, 135.00000, -5.17080, -4.33882
  10419, 135.00000, -6.36774, -5.34317
  10420, 135.00000, -7.56469, -6.34753
  10421, 135.00000, -8.76163, -7.35188
  10422, 135.00000, -9.95858, -8.35624
  10423, 135.00000, -0.32139, -0.38302
  10424, 135.00000, -1.32575, -1.57997
  10425, 135.00000, -2.33011, -2.77691
  10426, 135.00000, -3.33446, -3.97386
  10427, 135.00000, -4.33882, -5.17080
  10428, 135.00000, -5.34317, -6.36774
  10429, 135.00000, -6.34753, -7.56469
  10430, 135.00000, -7.35188, -8.76163
  10431, 135.00000, -8.35624, -9.95858
  10432, 135.00000, -0.25000, -0.43301
  10433, 135.00000, -1.03125, -1.78618
  10434, 135.00000, -1.81250, -3.13934
  10435, 135.00000, -2.59375, -4.49251
  10436, 135.00000, -3.37500, -5.84567
  10437, 135.00000, -4.15625, -7.19884
  10438, 135.00000, -4.93750, -8.55200
  10439, 135.00000, -5.71875, -9.90517
  10440, 135.00000, -6.50000, -11.25833
  10441, 135.00000, -0.17101, -0.46985
  10442, 135.00000, -0.70542, -1.93812
  10443, 135.00000, -1.23982, -3.40639
  10444, 135.00000, -1.77423, -4.87466
  10445, 135.00000, -2.30864, -6.34293
  10446, 135.00000, -2.84304, -7.81119
  10447, 135.00000, -3.37745, -9.27946
  10448, 135.00000, -3.91186, -10.74773
  10449, 135.00000, -4.44626, -12.21600
  10450, 135.00000, -0.08682, -0.49240
  10451, 135.00000, -0.35815, -2.03117
  10452, 135.00000, -0.62947, -3.56993
  10453, 135.00000, -0.90080, -5.10869
  10454, 135.00000, -1.17213, -6.64745
  10455, 135.00000, -1.44345, -8.18621
  10456, 135.00000, -1.71478, -9.72498
  10457, 135.00000, -1.98610, -11.26374
  10458, 135.00000, -2.25743, -12.80250
  10459, 135.00000, -0.00000, -0.50000
  10460, 135.00000, -0.00000, -2.06250
  10461, 135.00000, -0.00000, -3.62500
  10462, 135.00000, -0.00000, -5.18750
  10463, 135.00000, -0.00000, -6.75000
  10464, 135.00000, -0.00000, -8.31250
  10465, 135.00000, -0.00000, -9.87500
  10466, 135.00000, -0.00000, -11.43750
  10467, 135.00000, -0.00000, -13.00000
  10468, 135.00000, 0.08682, -0.49240
  10469, 135.00000, 0.35815, -2.03117
  10470, 135.00000, 0.62947, -3.56993
  10471, 135.00000, 0.90080, -5.10869
  10472, 135.00000, 1.17213, -6.64745
  10473, 135.00000, 1.44345, -8.18621
  10474, 135.00000, 1.71478, -9.72498
  10475, 135.00000, 1.98610, -11.26374
  10476, 135.00000, 2.25743, -12.80250
  10477, 135.00000, 0.17101, -0.46985
  10478, 135.00000, 0.70542, -1.93812
  10479, 135.00000, 1.23982, -3.40639
  10480, 135.00000, 1.77423, -4.87466
  10481, 135.00000, 2.30864, -6.34293
  10482, 135.00000, 2.84304, -7.81119
  10483, 135.00000, 3.37745, -9.27946
  10484, 135.00000, 3.91186, -10.74773
  10485, 135.00000, 4.44626, -12.21600
  10486, 135.00000, 0.25000, -0.43301
  10487, 135.00000, 1.03125, -1.78618
  10488, 135.00000, 1.81250, -3.13934
  10489, 135.00000, 2.59375, -4.49251
  10490, 135.00000, 3.37500, -5.84567
  10491, 135.00000, 4.15625, -7.19884
  10492, 135.00000, 4.93750, -8.55200
  10493, 135.00000, 5.71875, -9.90517
  10494, 135.00000, 6.50000, -11.25833
  10495, 135.00000, 0.32139, -0.38302
  10496, 135.00000, 1.32575, -1.57997
  10497, 135.00000, 2.33011, -2.77691
  10498, 135.00000, 3.33446, -3.97386
  10499, 135.00000, 4.33882, -5.17080
  10500, 135.00000, 5.34317, -6.36774
  10501, 135.00000, 6.34753, -7.56469
  10502, 135.00000, 7.35188, -8.76163
  10503, 135.00000, 8.35624, -9.95858
  10504, 135.00000, 0.38302, -0.32139
  10505, 135.00000, 1.57997, -1.32575
  10506, 135.00000, 2.77691, -2.33011
  10507, 135.00000, 3.97386, -3.33446
  10508, 135.00000, 5.17080, -4.33882
  10509, 135.00000, 6.36774, -5.34317
  10510, 135.00000, 7.56469, -6.34753
  10511, 135.00000, 8.76163, -7.35188
  10512, 135.00000, 9.95858, -8.35624
  10513, 135.00000, 0.43301, -0.25000
  10514, 135.00000, 1.78618, -1.03125
  10515, 135.00000, 3.13934, -1.81250
  10516, 135.00000, 4.49251, -2.59375
  10517, 135.00000, 5.84567, -3.37500
  10518, 135.00000, 7.19884, -4.15625
  10519, 135.00000, 8.55200, -4.93750
  10520, 135.00000, 9.90517, -5.71875
  10521, 135.00000, 11.25833, -6.50000
  10522, 135.00000, 0.46985, -0.17101
  10523, 135.00000, 1.93812, -0.70542
  10524, 135.00000, 3.40639, -1.23982
  10525, 135.00000, 4.87466, -1.77423
  10526, 135.00000, 6.34293, -2.30864
  10527, 135.00000, 7.81119, -2.84304
  10528, 135.00000, 9.27946, -3.37745
  10529, 135.00000, 10.74773, -3.91186
  10530, 135.00000, 12.21600, -4.44626
  10531, 135.00000, 0.49240, -0.08682
  10532, 135.00000, 2.03117, -0.35815
  10533, 135.00000, 3.56993, -0.62947
  10534, 135.00000, 5.10869, -0.90080
  10535, 135.00000, 6.64745, -1.17213
  10536, 135.00000, 8.18621, -1.44345
  10537, 135.00000, 9.72498, -1.71478
  10538, 135.00000, 11.26374, -1.98610
  10539, 135.00000, 12.80250, -2.25743
  10540, 135.00000, 0.50000, -0.00000
  10541, 135.00000, 2.06250, -0.00000
  10542, 135.00000, 3.62500, -0.00000
  10543, 135.00000, 5.18750, -0.00000
  10544, 135.00000, 6.75000, -0.00000
  10545, 135.00000, 8.31250, -0.00000
  10546, 135.00000, 9.87500, -0.00000
  10547, 135.00000, 11.43750, -0.00000
  10548, 135.00000, 13.00000, -0.00000
  10549, 140.00000, 0.50000, 0.00000
  10550, 140.00000, 2.06250, 0.00000
  10551, 140.00000, 3.62500, 0.00000
  10552, 140.00000, 5.18750, 0.00000
  10553, 140.00000, 6.75000, 0.00000
  10554, 140.00000, 8.31250, 0.00000
  10555, 140.00000, 9.87500, 0.00000
  10556, 140.00000, 11.43750, 0.00000
  10557, 140.00000, 13.00000, 0.00000
  10558, 140.00000, 0.49240, 0.08682
  10559, 140.00000, 2.03117, 0.35815
  10560, 140.00000, 3.56993, 0.62947
  10561, 140.00000, 5.10869, 0.90080
  10562, 140.00000, 6.64745, 1.17213
  10563, 140.00000, 8.18621, 1.44345
  10564, 140.00000, 9.72498, 1.71478
  10565, 140.00000, 11.26374, 1.98610
  10566, 140.00000, 12.80250, 2.25743
  10567, 140.00000, 0.46985, 0.17101
  10568, 140.00000, 1.93812, 0.70542
  10569, 140.00000, 3.40639, 1.23982
  10570, 140.00000, 4.87466, 1.77423
  10571, 140.00000, 6.34293, 2.30864
  10572, 140.00000, 7.81119, 2.84304
  10573, 140.00000, 9.27946, 3.37745
  10574, 140.00000, 10.74773, 3.91186
  10575, 140.00000, 12.21600, 4.44626
  10576, 140.00000, 0.43301, 0.25000
  10577, 140.00000, 1.78618, 1.03125
  10578, 140.00000, 3.13934, 1.81250
  10579, 140.00000, 4.49251, 2.59375
  10580, 140.00000, 5.84567, 3.37500
  10581, 140.00000, 7.19884, 4.15625
  10582, 140.00000, 8.55200, 4.93750
  10583, 140.00000, 9.90517, 5.71875
  10584, 140.00000, 11.25833, 6.50000
  10585, 140.00000, 0.38302, 0.32139
  10586, 140.00000, 1.57997, 1.32575
  10587, 140.00000, 2.77691, 2.33011
  10588, 140.00000, 3.97386, 3.33446
  10589, 140.00000, 5.17080, 4.33882
  10590, 140.00000, 6.36774, 5.34317
  10591, 140.00000, 7.56469, 6.34753
  10592, 140.00000, 8.76163, 7.35188
  10593, 140.00000, 9.95858, 8.35624
  10594, 140.00000, 0.32139, 0.38302
  10595, 140.00000, 1.32575, 1.57997
  10596, 140.00000, 2.33011, 2.77691
  10597, 140.00000, 3.33446, 3.97386
  10598, 140.00000, 4.33882, 5.17080
  10599, 140.00000, 5.34317, 6.36774
  10600, 140.00000, 6.34753, 7.56469
  10601, 140.00000, 7.35188, 8.76163
  10602, 140.00000, 8.35624, 9.95858
  10603, 140.00000, 0.25000, 0.43301
  10604, 140.00000, 1.03125, 1.78618
  10605, 140.00000, 1.81250, 3.13934
  10606, 140.00000, 2.59375, 4.49251
  10607, 140.00000, 3.37500, 5.84567
  10608, 140.00000, 4.15625, 7.19884
  10609, 140.00000, 4.93750, 8.55200
  10610, 140.00000, 5.71875, 9.90517
  10611, 140.00000, 6.50000, 11.25833
  10612, 140.00000, 0.17101, 0.46985
  10613, 140.00000, 0.70542, 1.93812
  10614, 140.00000, 1.23982, 3.40639
  10615, 140.00000, 1.77423, 4.87466
  10616, 140.00000, 2.30864, 6.34293
  10617, 140.00000, 2.84304, 7.81119
  10618, 140.00000, 3.37745, 9.27946
  10619, 140.00000, 3.91186, 10.74773
  10620, 140.00000, 4.44626, 12.21600
  10621, 140.00000, 0.08682, 0.49240
  10622, 140.00000, 0.35815, 2.03117
  10623, 140.00000, 0.62947, 3.56993
  10624, 140.00000, 0.90080, 5.10869
  10625, 140.00000, 1.17213, 6.64745
  10626, 140.00000, 1.44345, 8.18621
  10627, 140.00000, 1.71478, 9.72498
  10628, 140.00000, 1.98610, 11.26374
  10629, 140.00000, 2.25743, 12.80250
  10630, 140.00000, 0.00000, 0.50000
  10631, 140.00000, 0.00000, 2.06250
  10632, 140.00000, 0.00000, 3.62500
  10633, 140.00000, 0.00000, 5.18750
  10634, 140.00000, 0.00000, 6.75000
  10635, 140.00000, 0.00000, 8.31250
  10636, 140.00000, 0.00000, 9.87500
  10637, 140.00000, 0.00000, 11.43750
  10638, 140.00000, 0.00000, 13.00000
  10639, 140.00000, -0.08682, 0.49240
  10640, 140.00000, -0.35815, 2.03117
  10641, 140.00000, -0.62947, 3.56993
  10642, 140.00000, -0.90080, 5.10869
  10643, 140.00000, -1.17213, 6.64745
  10644, 140.00000, -1.44345, 8.18621
  10645, 140.00000, -1.71478, 9.72498
  10646, 140.00000, -1.98610, 11.26374
  10647, 140.00000, -2.25743, 12.80250
  10648, 140.00000, -0.17101, 0.46985
  10649, 140.00000, -0.70542, 1.93812
  10650, 140.00000, -1.23982, 3.40639
  10651, 140.00000, -1.77423, 4.87466
  10652, 140.00000, -2.30864, 6.34293
  10653, 140.00000, -2.84304, 7.81119
  10654, 140.00000, -3.37745, 9.27946
  10655, 140.00000, -3.91186, 10.74773
  10656, 140.00000, -4.44626, 12.21600
  10657, 140.00000, -0.25000, 0.43301
  10658, 140.00000, -1.03125, 1.78618
  10659, 140.00000, -1.81250, 3.13934
  10660, 140.00000, -2.59375, 4.49251
  10661, 140.00000, -3.37500, 5.84567
  10662, 140.00000, -4.15625, 7.19884
  10663, 140.00000, -4.93750, 8.55200
  10664, 140.00000, -5.71875, 9.90517
  10665, 140.00000, -6.50000, 11.25833
  10666, 140.00000, -0.32139, 0.38302
  10667, 140.00000, -1.32575, 1.57997
  10668, 140.00000, -2.33011, 2.77691
  10669, 140.00000, -3.33446, 3.97386
  10670, 140.00000, -4.33882, 5.17080
  10671, 140.00000, -5.34317, 6.36774
  10672, 140.00000, -6.34753, 7.56469
  10673, 140.00000, -7.35188, 8.76163
  10674, 140.00000, -8.35624, 9.95858
  10675, 140.00000, -0.38302, 0.32139
  10676, 140.00000, -1.57997, 1.32575
  10677, 140.00000, -2.77691, 2.33011
  10678, 140.00000, -3.97386, 3.33446
  10679, 140.00000, -5.17080, 4.33882
  10680, 140.00000, -6.36774, 5.34317
  10681, 140.00000, -7.56469, 6.34753
  10682, 140.00000, -8.76163, 7.35188
  10683, 140.00000, -9.95858, 8.35624
  10684, 140.00000, -0.43301, 0.25000
  10685, 140.00000, -1.78618, 1.03125
  10686, 140.00000, -3.13934, 1.81250
  10687, 140.00000, -4.49251, 2.59375
  10688, 140.00000, -5.84567, 3.37500
  10689, 140.00000, -7.19884, 4.15625
  10690, 140.00000, -8.55200, 4.93750
  10691, 140.00000, -9.90517, 5.71875
  10692, 140.00000, -11.25833, 6.50000
  10693, 140.00000, -0.46985, 0.17101
  10694, 140.00000, -1.93812, 0.70542
  10695, 140.00000, -3.40639, 1.23982
  10696, 140.00000, -4.87466, 1.77423
  10697, 140.00000, -6.34293, 2.30864
  10698, 140.00000, -7.81119, 2.84304
  10699, 140.00000, -9.27946, 3.37745
  10700, 140.00000, -10.74773, 3.91186
  10701, 140.00000, -12.21600, 4.44626
  10702, 140.00000, -0.49240, 0.08682
  10703, 140.00000, -2.03117, 0.35815
  10704, 140.00000, -3.56993, 0.62947
  10705, 140.00000, -5.10869, 0.90080
  10706, 140.00000, -6.64745, 1.17213
  10707, 140.00000, -8.18621, 1.44345
  10708, 140.00000, -9.72498, 1.71478
  10709, 140.00000, -11.26374, 1.98610
  10710, 140.00000, -12.80250, 2.25743
  10711, 140.00000, -0.50000, 0.00000
  10712, 140.00000, -2.06250, 0.00000
  10713, 140.00000, -3.62500, 0.00000
  10714, 140.00000, -5.18750, 0.00000
  10715, 140.00000, -6.75000, 0.00000
  10716, 140.00000, -8.31250, 0.00000
  10717, 140.00000, -9.87500, 0.00000
  10718, 140.00000, -11.43750, 0.00000
  10719, 140.00000, -13.00000, 0.00000
  10720, 140.00000, -0.49240, -0.08682
  10721, 140.00000, -2.03117, -0.35815
  10722, 140.00000, -3.56993, -0.62947
  10723, 140.00000, -5.10869, -0.90080
  10724, 140.00000, -6.64745, -1.17213
  10725, 140.00000, -8.18621, -1.44345
  10726, 140.00000, -9.72498, -1.71478
  10727, 140.00000, -11.26374, -1.98610
  10728, 140.00000, -12.80250, -2.25743
  10729, 140.00000, -0.46985, -0.17101
  10730, 140.00000, -1.93812, -0.70542
  10731, 140.00000, -3.40639, -1.23982
  10732, 140.00000, -4.87466, -1.77423
  10733, 140.00000, -6.34293, -2.30864
  10734, 140.00000, -7.81119, -2.84304
  10735, 140.00000, -9.27946, -3.37745
  10736, 140.00000, -10.74773, -3.91186
  10737, 140.00000, -12.21600, -4.44626
  10738, 140.00000, -0.43301, -0.25000
  10739, 140.00000, -1.78618, -1.03125
  10740, 140.00000, -3.13934, -1.81250
  10741, 140.00000, -4.49251, -2.59375
  10742, 140.00000, -5.84567, -3.37500
  10743, 140.00000, -7.19884, -4.15625
  10744, 140.00000, -8.55200, -4.93750
  10745, 140.00000, -9.90517, -5.71875
  10746, 140.00000, -11.25833, -6.50000
  10747, 140.00000, -0.38302, -0.32139
  10748, 140.00000, -1.57997, -1.32575
  10749, 140.00000, -2.77691, -2.33011
  10750, 140.00000, -3.97386, -3.33446
  10751, 140.00000, -5.17080, -4.33882
  10752, 140.00000, -6.36774, -5.34317
  10753, 140.00000, -7.56469, -6.34753
  10754, 140.00000, -8.76163, -7.35188
  10755, 140.00000, -9.95858, -8.35624
  10756, 140.00000, -0.32139, -0.38302
  10757, 140.00000, -1.32575, -1.57997
  10758, 140.00000, -2.33011, -2.77691
  10759, 140.00000, -3.33446, -3.97386
  10760, 140.00000, -4.33882, -5.17080
  10761, 140.00000, -5.34317, -6.36774
  10762, 140.00000, -6.34753, -7.56469
  10763, 140.00000, -7.35188, -8.76163
  10764, 140.00000, -8.35624, -9.95858
  10765, 140.00000, -0.25000, -0.43301
  10766, 140.00000, -1.03125, -1.78618
  10767, 140.00000, -1.81250, -3.13934
  10768, 140.00000, -2.59375, -4.49251
  10769, 140.00000, -3.37500, -5.84567
  10770, 140.00000, -4.15625, -7.19884
  10771, 140.00000, -4.93750, -8.55200
  10772, 140.00000, -5.71875, -9.90517
  10773, 140.00000, -6.50000, -11.25833
  10774, 140.00000, -0.17101, -0.46985
  10775, 140.00000, -0.70542, -1.93812
  10776, 140.00000, -1.23982, -3.40639
  10777, 140.00000, -1.77423, -4.87466
  10778, 140.00000, -2.30864, -6.34293
  10779, 140.00000, -2.84304, -7.81119
  10780, 140.00000, -3.37745, -9.27946
  10781, 140.00000, -3.91186, -10.74773
  10782, 140.00000, -4.44626, -12.21600
  10783, 140.00000, -0.08682, -0.49240
  10784, 140.00000, -0.35815, -2.03117
  10785, 140.00000, -0.62947, -3.56993
  10786, 140.00000, -0.90080, -5.10869
  10787, 140.00000, -1.17213, -6.64745
  10788, 140.00000, -1.44345, -8.18621
  10789, 140.00000, -1.71478, -9.72498
  10790, 140.00000, -1.98610, -11.26374
  10791, 140.00000, -2.25743, -12.80250
  10792, 140.00000, -0.00000, -0.50000
  10793, 140.00000, -0.00000, -2.06250
  10794, 140.00000, -0.00000, -3.62500
  10795, 140.00000, -0.00000, -5.18750
  10796, 140.00000, -0.00000, -6.75000
  10797, 140.00000, -0.00000, -8.31250
  10798, 140.00000, -0.00000, -9.87500
  10799, 140.00000, -0.00000, -11.43750
  10800, 140.00000, -0.00000, -13.00000
  10801, 140.00000, 0.08682, -0.49240
  10802, 140.00000, 0.35815, -2.03117
  10803, 140.00000, 0.62947, -3.56993
  10804, 140.00000, 0.90080, -5.10869
  10805, 140.00000, 1.17213, -6.64745
  10806, 140.00000, 1.44345, -8.18621
  10807, 140.00000, 1.71478, -9.72498
  10808, 140.00000, 1.98610, -11.26374
  10809, 140.00000, 2.25743, -12.80250
  10810, 140.00000, 0.17101, -0.46985
  10811, 140.00000, 0.70542, -1.93812
  10812, 140.00000, 1.23982, -3.40639
  10813, 140.00000, 1.77423, -4.87466
  10814, 140.00000, 2.30864, -6.34293
  10815, 140.00000, 2.84304, -7.81119
  10816, 140.00000, 3.37745, -9.27946
  10817, 140.00000, 3.91186, -10.74773
  10818, 140.00000, 4.44626, -12.21600
  10819, 140.00000, 0.25000, -0.43301
  10820, 140.00000, 1.03125, -1.78618
  10821, 140.00000, 1.81250, -3.13934
  10822, 140.00000, 2.59375, -4.49251
  10823, 140.00000, 3.37500, -5.84567
  10824, 140.00000, 4.15625, -7.19884
  10825, 140.00000, 4.93750, -8.55200
  10826, 140.00000, 5.71875, -9.90517
  10827, 140.00000, 6.50000, -11.25833
  10828, 140.00000, 0.32139, -0.38302
  10829, 140.00000, 1.32575, -1.57997
  10830, 140.00000, 2.33011, -2.77691
  10831, 140.00000, 3.33446, -3.97386
  10832, 140.00000, 4.33882, -5.17080
  10833, 140.00000, 5.34317, -6.36774
  10834, 140.00000, 6.34753, -7.56469
  10835, 140.00000, 7.35188, -8.76163
  10836, 140.00000, 8.35624, -9.95858
  10837, 140.00000, 0.38302, -0.32139
  10838, 140.00000, 1.57997, -1.32575
  10839, 140.00000, 2.77691, -2.33011
  10840, 140.00000, 3.97386, -3.33446
  10841, 140.00000, 5.17080, -4.33882
  10842, 140.00000, 6.36774, -5.34317
  10843, 140.00000, 7.56469, -6.34753
  10844, 140.00000, 8.76163, -7.35188
  10845, 140.00000, 9.95858, -8.35624
  10846, 140.00000, 0.43301, -0.25000
  10847, 140.00000, 1.78618, -1.03125
  10848, 140.00000, 3.13934, -1.81250
  10849, 140.00000, 4.49251, -2.59375
  10850, 140.00000, 5.84567, -3.37500
  10851, 140.00000, 7.19884, -4.15625
  10852, 140.00000, 8.55200, -4.93750
  10853, 140.00000, 9.90517, -5.71875
  10854, 140.00000, 11.25833, -6.50000
  10855, 140.00000, 0.46985, -0.17101
  10856, 140.00000, 1.93812, -0.70542
  10857, 140.00000, 3.40639, -1.23982
  10858, 140.00000, 4.87466, -1.77423
  10859, 140.00000, 6.34293, -2.30864
  10860, 140.00000, 7.81119, -2.84304
  10861, 140.00000, 9.27946, -3.37745
  10862, 140.00000, 10.74773, -3.91186
  10863, 140.00000, 12.21600, -4.44626
  10864, 140.00000, 0.49240, -0.08682
  10865, 140.00000, 2.03117, -0.35815
  10866, 140.00000, 3.56993, -0.62947
  10867, 140.00000, 5.10869, -0.90080
  10868, 140.00000, 6.64745, -1.17213
  10869, 140.00000, 8.18621, -1.44345
  10870, 140.00000, 9.72498, -1.71478
  10871, 140.00000, 11.26374, -1.98610
  10872, 140.00000, 12.80250, -2.25743
  10873, 140.00000, 0.50000, -0.00000
  10874, 140.00000, 2.06250, -0.00000
  10875, 140.00000, 3.62500, -0.00000
  10876, 140.00000, 5.18750, -0.00000
  10877, 140.00000, 6.75000, -0.00000
  10878, 140.00000, 8.31250, -0.00000
  10879, 140.00000, 9.87500, -0.00000
  10880, 140.00000, 11.43750, -0.00000
  10881, 140.00000, 13.00000, -0.00000
  10882, 145.00000, 0.50000, 0.00000
  10883, 145.00000, 2.06250, 0.00000
  10884, 145.00000, 3.62500, 0.00000
  10885, 145.00000, 5.18750, 0.00000
  10886, 145.00000, 6.75000, 0.00000
  10887, 145.00000, 8.31250, 0.00000
  10888, 145.00000, 9.87500, 0.00000
  10889, 145.00000, 11.43750, 0.00000
  10890, 145.00000, 13.00000, 0.00000
  10891, 145.00000, 0.49240, 0.08682
  10892, 145.00000, 2.03117, 0.35815
  10893, 145.00000, 3.56993, 0.62947
  10894, 145.00000, 5.10869, 0.90080
  10895, 145.00000, 6.64745, 1.17213
  10896, 145.00000, 8.18621, 1.44345
  10897, 145.00000, 9.72498, 1.71478
  10898, 145.00000, 11.26374, 1.98610
  10899, 145.00000, 12.80250, 2.25743
  10900, 145.00000, 0.46985, 0.17101
  10901, 145.00000, 1.93812, 0.70542
  10902, 145.00000, 3.40639, 1.23982
  10903, 145.00000, 4.87466, 1.77423
  10904, 145.00000, 6.34293, 2.30864
  10905, 145.00000, 7.81119, 2.84304
  10906, 145.00000, 9.27946, 3.37745
  10907, 145.00000, 10.74773, 3.91186
  10908, 145.00000, 12.21600, 4.44626
  10909, 145.00000, 0.43301, 0.25000
  10910, 145.00000, 1.78618, 1.03125
  10911, 145.00000, 3.13934, 1.81250
  10912, 145.00000, 4.49251, 2.59375
  10913, 145.00000, 5.84567, 3.37500
  10914, 145.00000, 7.19884, 4.15625
  10915, 145.00000, 8.55200, 4.93750
  10916, 145.00000, 9.90517, 5.71875
  10917, 145.00000, 11.25833, 6.50000
  10918, 145.00000, 0.38302, 0.32139
  10919, 145.00000, 1.57997, 1.32575
  10920, 145.00000, 2.77691, 2.33011
  10921, 145.00000, 3.97386, 3.33446
  10922, 145.00000, 5.17080, 4.33882
  10923, 145.00000, 6.36774, 5.34317
  10924, 145.00000, 7.56469, 6.34753
  10925, 145.00000, 8.76163, 7.35188
  10926, 145.00000, 9.95858, 8.35624
  10927, 145.00000, 0.32139, 0.38302
  10928, 145.00000, 1.32575, 1.57997
  10929, 145.00000, 2.33011, 2.77691
  10930, 145.00000, 3.33446, 3.97386
  10931, 145.00000, 4.33882, 5.17080
  10932, 145.00000, 5.34317, 6.36774
  10933, 145.00000, 6.34753, 7.56469
  10934, 145.00000, 7.35188, 8.76163
  10935, 145.00000, 8.35624, 9.95858
  10936, 145.00000, 0.25000, 0.43301
  10937, 145.00000, 1.03125, 1.78618
  10938, 145.00000, 1.81250, 3.13934
  10939, 145.00000, 2.59375, 4.49251
  10940, 145.00000, 3.37500, 5.84567
  10941, 145.00000, 4.15625, 7.19884
  10942, 145.00000, 4.93750, 8.55200
  10943, 145.00000, 5.71875, 9.90517
  10944, 145.00000, 6.50000, 11.25833
  10945, 145.00000, 0.17101, 0.46985
  10946, 145.00000, 0.70542, 1.93812
  10947, 145.00000, 1.23982, 3.40639
  10948, 145.00000, 1.77423, 4.87466
  10949, 145.00000, 2.30864, 6.34293
  10950, 145.00000, 2.84304, 7.81119
  10951, 145.00000, 3.37745, 9.27946
  10952, 145.00000, 3.91186, 10.74773
  10953, 145.00000, 4.44626, 12.21600
  10954, 145.00000, 0.08682, 0.49240
  10955, 145.00000, 0.35815, 2.03117
  10956, 145.00000, 0.62947, 3.56993
  10957, 145.00000, 0.90080, 5.10869
  10958, 145.00000, 1.17213, 6.64745
  10959, 145.00000, 1.44345, 8.18621
  10960, 145.00000, 1.71478, 9.72498
  10961, 145.00000, 1.98610, 11.26374
  10962, 145.00000, 2.25743, 12.80250
  10963, 145.00000, 0.00000, 0.50000
  10964, 145.00000, 0.00000, 2.06250
  10965, 145.00000, 0.00000, 3.62500
  10966, 145.00000, 0.00000, 5.18750
  10967, 145.00000, 0.00000, 6.75000
  10968, 145.00000, 0.00000, 8.31250
  10969, 145.00000, 0.00000, 9.87500
  10970, 145.00000, 0.00000, 11.43750
  10971, 145.00000, 0.00000, 13.00000
  10972, 145.00000, -0.08682, 0.49240
  10973, 145.00000, -0.35815, 2.03117
  10974, 145.00000, -0.62947, 3.56993
  10975, 145.00000, -0.90080, 5.10869
  10976, 145.00000, -1.17213, 6.64745
  10977, 145.00000, -1.44345, 8.18621
  10978, 145.00000, -1.71478, 9.72498
  10979, 145.00000, -1.98610, 11.26374
  10980, 145.00000, -2.25743, 12.80250
  10981, 145.00000, -0.17101, 0.46985
  10982, 145.00000, -0.70542, 1.93812
  10983, 145.00000, -1.23982, 3.40639
  10984, 145.00000, -1.77423, 4.87466
  10985, 145.00000, -2.30864, 6.34293
  10986, 145.00000, -2.84304, 7.81119
  10987, 145.00000, -3.37745, 9.27946
  10988, 145.00000, -3.91186, 10.74773
  10989, 145.00000, -4.44626, 12.21600
  10990, 145.00000, -0.25000, 0.43301
  10991, 145.00000, -1.03125, 1.78618
  10992, 145.00000, -1.81250, 3.13934
  10993, 145.00000, -2.59375, 4.49251
  10994, 145.00000, -3.37500, 5.84567
  10995, 145.00000, -4.15625, 7.19884
  10996, 145.00000, -4.93750, 8.55200
  10997, 145.00000, -5.71875, 9.90517
  10998, 145.00000, -6.50000, 11.25833
  10999, 145.00000, -0.32139, 0.38302
  11000, 145.00000, -1.32575, 1.57997
  11001, 145.00000, -2.33011, 2.77691
  11002, 145.00000, -3.33446, 3.97386
  11003, 145.00000, -4.33882, 5.17080
  11004, 145.00000, -5.34317, 6.36774
  11005, 145.00000, -6.34753, 7.56469
  11006, 145.00000, -7.35188, 8.76163
  11007, 145.00000, -8.35624, 9.95858
  11008, 145.00000, -0.38302, 0.32139
  11009, 145.00000, -1.57997, 1.32575
  11010, 145.00000, -2.77691, 2.33011
  11011, 145.00000, -3.97386, 3.33446
  11012, 145.00000, -5.17080, 4.33882
  11013, 145.00000, -6.36774, 5.34317
  11014, 145.00000, -7.56469, 6.34753
  11015, 145.00000, -8.76163, 7.35188
  11016, 145.00000, -9.95858, 8.35624
  11017, 145.00000, -0.43301, 0.25000
  11018, 145.00000, -1.78618, 1.03125
  11019, 145.00000, -3.13934, 1.81250
  11020, 145.00000, -4.49251, 2.59375
  11021, 145.00000, -5.84567, 3.37500
  11022, 145.00000, -7.19884, 4.15625
  11023, 145.00000, -8.55200, 4.93750
  11024, 145.00000, -9.90517, 5.71875
  11025, 145.00000, -11.25833, 6.50000
  11026, 145.00000, -0.46985, 0.17101
  11027, 145.00000, -1.93812, 0.70542
  11028, 145.00000, -3.40639, 1.23982
  11029, 145.00000, -4.87466, 1.77423
  11030, 145.00000, -6.34293, 2.30864
  11031, 145.00000, -7.81119, 2.84304
  11032, 145.00000, -9.27946, 3.37745
  11033, 145.00000, -10.74773, 3.91186
  11034, 145.00000, -12.21600, 4.44626
  11035, 145.00000, -0.49240, 0.08682
  11036, 145.00000, -2.03117, 0.35815
  11037, 145.00000, -3.56993, 0.62947
  11038, 145.00000, -5.10869, 0.90080
  11039, 145.00000, -6.64745, 1.17213
  11040, 145.00000, -8.18621, 1.44345
  11041, 145.00000, -9.72498, 1.71478
  11042, 145.00000, -11.26374, 1.98610
  11043, 145.00000, -12.80250, 2.25743
  11044, 145.00000, -0.50000, 0.00000
  11045, 145.00000, -2.06250, 0.00000
  11046, 145.00000, -3.62500, 0.00000
  11047, 145.00000, -5.18750, 0.00000
  11048, 145.00000, -6.75000, 0.00000
  11049, 145.00000, -8.31250, 0.00000
  11050, 145.00000, -9.87500, 0.00000
  11051, 145.00000, -11.43750, 0.00000
  11052, 145.00000, -13.00000, 0.00000
  11053, 145.00000, -0.49240, -0.08682
  11054, 145.00000, -2.03117, -0.35815
  11055, 145.00000, -3.56993, -0.62947
  11056, 145.00000, -5.10869, -0.90080
  11057, 145.00000, -6.64745, -1.17213
  11058, 145.00000, -8.18621, -1.44345
  11059, 145.00000, -9.72498, -1.71478
  11060, 145.00000, -11.26374, -1.98610
  11061, 145.00000, -12.80250, -2.25743
  11062, 145.00000, -0.46985, -0.17101
  11063, 145.00000, -1.93812, -0.70542
  11064, 145.00000, -3.40639, -1.23982
  11065, 145.00000, -4.87466, -1.77423
  11066, 145.00000, -6.34293, -2.30864
  11067, 145.00000, -7.81119, -2.84304
  11068, 145.00000, -9.27946, -3.37745
  11069, 145.00000, -10.74773, -3.91186
  11070, 145.00000, -12.21600, -4.44626
  11071, 145.00000, -0.43301, -0.25000
  11072, 145.00000, -1.78618, -1.03125
  11073, 145.00000, -3.13934, -1.81250
  11074, 145.00000, -4.49251, -2.59375
  11075, 145.00000, -5.84567, -3.37500
  11076, 145.00000, -7.19884, -4.15625
  11077, 145.00000, -8.55200, -4.93750
  11078, 145.00000, -9.90517, -5.71875
  11079, 145.00000, -11.25833, -6.50000
  11080, 145.00000, -0.38302, -0.32139
  11081, 145.00000, -1.57997, -1.32575
  11082, 145.00000, -2.77691, -2.33011
  11083, 145.00000, -3.97386, -3.33446
  11084, 145.00000, -5.17080, -4.33882
  11085, 145.00000, -6.36774, -5.34317
  11086, 145.00000, -7.56469, -6.34753
  11087, 145.00000, -8.76163, -7.35188
  11088, 145.00000, -9.95858, -8.35624
  11089, 145.00000, -0.32139, -0.38302
  11090, 145.00000, -1.32575, -1.57997
  11091, 145.00000, -2.33011, -2.77691
  11092, 145.00000, -3.33446, -3.97386
  11093, 145.00000, -4.33882, -5.17080
  11094, 145.00000, -5.34317, -6.36774
  11095, 145.00000, -6.34753, -7.56469
  11096, 145.00000, -7.35188, -8.76163
  11097, 145.00000, -8.35624, -9.95858
  11098, 145.00000, -0.25000, -0.43301
  11099, 145.00000, -1.03125, -1.78618
  11100, 145.00000, -1.81250, -3.13934
  11101, 145.00000, -2.59375, -4.49251
  11102, 145.00000, -3.37500, -5.84567
  11103, 145.00000, -4.15625, -7.19884
  11104, 145.00000, -4.93750, -8.55200
  11105, 145.00000, -5.71875, -9.90517
  11106, 145.00000, -6.50000, -11.25833
  11107, 145.00000, -0.17101, -0.46985
  11108, 145.00000, -0.70542, -1.93812
  11109, 145.00000, -1.23982, -3.40639
  11110, 145.00000, -1.77423, -4.87466
  11111, 145.00000, -2.30864, -6.34293
  11112, 145.00000, -2.84304, -7.81119
  11113, 145.00000, -3.37745, -9.27946
  11114, 145.00000, -3.91186, -10.74773
  11115, 145.00000, -4.44626, -12.21600
  11116, 145.00000, -0.08682, -0.49240
  11117, 145.00000, -0.35815, -2.03117
  11118, 145.00000, -0.62947, -3.56993
  11119, 145.00000, -0.90080, -5.10869
  11120, 145.00000, -1.17213, -6.64745
  11121, 145.00000, -1.44345, -8.18621
  11122, 145.00000, -1.71478, -9.72498
  11123, 145.00000, -1.98610, -11.26374
  11124, 145.00000, -2.25743, -12.80250
  11125, 145.00000, -0.00000, -0.50000
  11126, 145.00000, -0.00000, -2.06250
  11127, 145.00000, -0.00000, -3.62500
  11128, 145.00000, -0.00000, -5.18750
  11129, 145.00000, -0.00000, -6.75000
  11130, 145.00000, -0.00000, -8.31250
  11131, 145.00000, -0.00000, -9.87500
  11132, 145.00000, -0.00000, -11.43750
  11133, 145.00000, -0.00000, -13.00000
  11134, 145.00000, 0.08682, -0.49240
  11135, 145.00000, 0.35815, -2.03117
  11136, 145.00000, 0.62947, -3.56993
  11137, 145.00000, 0.90080, -5.10869
  11138, 145.00000, 1.17213, -6.64745
  11139, 145.00000, 1.44345, -8.18621
  11140, 145.00000, 1.71478, -9.72498
  11141, 145.00000, 1.98610, -11.26374
  11142, 145.00000, 2.25743, -12.80250
  11143, 145.00000, 0.17101, -0.46985
  11144, 145.00000, 0.70542, -1.93812
  11145, 145.00000, 1.23982, -3.40639
  11146, 145.00000, 1.77423, -4.87466
  11147, 145.00000, 2.30864, -6.34293
  11148, 145.00000, 2.84304, -7.81119
  11149, 145.00000, 3.37745, -9.27946
  11150, 145.00000, 3.91186, -10.74773
  11151, 145.00000, 4.44626, -12.21600
  11152, 145.00000, 0.25000, -0.43301
  11153, 145.00000, 1.03125, -1.78618
  11154, 145.00000, 1.81250, -3.13934
  11155, 145.00000, 2.59375, -4.49251
  11156, 145.00000, 3.37500, -5.84567
  11157, 145.00000, 4.15625, -7.19884
  11158, 145.00000, 4.93750, -8.55200
  11159, 145.00000, 5.71875, -9.90517
  11160, 145.00000, 6.50000, -11.25833
  11161, 145.00000, 0.32139, -0.38302
  11162, 145.00000, 1.32575, -1.57997
  11163, 145.00000, 2.33011, -2.77691
  11164, 145.00000, 3.33446, -3.97386
  11165, 145.00000, 4.33882, -5.17080
  11166, 145.00000, 5.34317, -6.36774
  11167, 145.00000, 6.34753, -7.56469
  11168, 145.00000, 7.35188, -8.76163
  11169, 145.00000, 8.35624, -9.95858
  11170, 145.00000, 0.38302, -0.32139
  11171, 145.00000, 1.57997, -1.32575
  11172, 145.00000, 2.77691, -2.33011
  11173, 145.00000, 3.97386, -3.33446
  11174, 145.00000, 5.17080, -4.33882
  11175, 145.00000, 6.36774, -5.34317
  11176, 145.00000, 7.56469, -6.34753
  11177, 145.00000, 8.76163, -7.35188
  11178, 145.00000, 9.95858, -8.35624
  11179, 145.00000, 0.43301, -0.25000
  11180, 145.00000, 1.78618, -1.03125
  11181, 145.00000, 3.13934, -1.81250
  11182, 145.00000, 4.49251, -2.59375
  11183, 145.00000, 5.84567, -3.37500
  11184, 145.00000, 7.19884, -4.15625
  11185, 145.00000, 8.55200, -4.93750
  11186, 145.00000, 9.90517, -5.71875
  11187, 145.00000, 11.25833, -6.50000
  11188, 145.00000, 0.46985, -0.17101
  11189, 145.00000, 1.93812, -0.70542
  11190, 145.00000, 3.40639, -1.23982
  11191, 145.00000, 4.87466, -1.77423
  11192, 145.00000, 6.34293, -2.30864
  11193, 145.00000, 7.81119, -2.84304
  11194, 145.00000, 9.27946, -3.37745
  11195, 145.00000, 10.74773, -3.91186
  11196, 145.00000, 12.21600, -4.44626
  11197, 145.00000, 0.49240, -0.08682
  11198, 145.00000, 2.03117, -0.35815
  11199, 145.00000, 3.56993, -0.62947
  11200, 145.00000, 5.10869, -0.90080
  11201, 145.00000, 6.64745, -1.17213
  11202, 145.00000, 8.18621, -1.44345
  11203, 145.00000, 9.72498, -1.71478
  11204, 145.00000, 11.26374, -1.98610
  11205, 145.00000, 12.80250, -2.25743
  11206, 145.00000, 0.50000, -0.00000
  11207, 145.00000, 2.06250, -0.00000
  11208, 145.00000, 3.62500, -0.00000
  11209, 145.00000, 5.18750, -0.00000
  11210, 145.00000, 6.75000, -0.00000
  11211, 145.00000, 8.31250, -0.00000
  11212, 145.00000, 9.87500, -0.00000
  11213, 145.00000, 11.43750, -0.00000
  11214, 145.00000, 13.00000, -0.00000
  11215, 150.00000, 0.50000, 0.00000
  11216, 150.00000, 2.06250, 0.00000
  11217, 150.00000, 3.62500, 0.00000
  11218, 150.00000, 5.18750, 0.00000
  11219, 150.00000, 6.75000, 0.00000
  11220, 150.00000, 8.31250, 0.00000
  11221, 150.00000, 9.87500, 0.00000
  11222, 150.00000, 11.43750, 0.00000
  11223, 150.00000, 13.00000, 0.00000
  11224, 150.00000, 0.49240, 0.08682
  11225, 150.00000, 2.03117, 0.35815
  11226, 150.00000, 3.56993, 0.62947
  11227, 150.00000, 5.10869, 0.90080
  11228, 150.00000, 6.64745, 1.17213
  11229, 150.00000, 8.18621, 1.44345
  11230, 150.00000, 9.72498, 1.71478
  11231, 150.00000, 11.26374, 1.98610
  11232, 150.00000, 12.80250, 2.25743
  11233, 150.00000, 0.46985, 0.17101
  11234, 150.00000, 1.93812, 0.70542
  11235, 150.00000, 3.40639, 1.23982
  11236, 150.00000, 4.87466, 1.77423
  11237, 150.00000, 6.34293, 2.30864
  11238, 150.00000, 7.81119, 2.84304
  11239, 150.00000, 9.27946, 3.37745
  11240, 150.00000, 10.74773, 3.91186
  11241, 150.00000, 12.21600, 4.44626
  11242, 150.00000, 0.43301, 0.25000
  11243, 150.00000, 1.78618, 1.03125
  11244, 150.00000, 3.13934, 1.81250
  11245, 150.00000, 4.49251, 2.59375
  11246, 150.00000, 5.84567, 3.37500
  11247, 150.00000, 7.19884, 4.15625
  11248, 150.00000, 8.55200, 4.93750
  11249, 150.00000, 9.90517, 5.71875
  11250, 150.00000, 11.25833, 6.50000
  11251, 150.00000, 0.38302, 0.32139
  11252, 150.00000, 1.57997, 1.32575
  11253, 150.00000, 2.77691, 2.33011
  11254, 150.00000, 3.97386, 3.33446
  11255, 150.00000, 5.17080, 4.33882
  11256, 150.00000, 6.36774, 5.34317
  11257, 150.00000, 7.56469, 6.34753
  11258, 150.00000, 8.76163, 7.35188
  11259, 150.00000, 9.95858, 8.35624
  11260, 150.00000, 0.32139, 0.38302
  11261, 150.00000, 1.32575, 1.57997
  11262, 150.00000, 2.33011, 2.77691
  11263, 150.00000, 3.33446, 3.97386
  11264, 150.00000, 4.33882, 5.17080
  11265, 150.00000, 5.34317, 6.36774
  11266, 150.00000, 6.34753, 7.56469
  11267, 150.00000, 7.35188, 8.76163
  11268, 150.00000, 8.35624, 9.95858
  11269, 150.00000, 0.25000, 0.43301
  11270, 150.00000, 1.03125, 1.78618
  11271, 150.00000, 1.81250, 3.13934
  11272, 150.00000, 2.59375, 4.49251
  11273, 150.00000, 3.37500, 5.84567
  11274, 150.00000, 4.15625, 7.19884
  11275, 150.00000, 4.93750, 8.55200
  11276, 150.00000, 5.71875, 9.90517
  11277, 150.00000, 6.50000, 11.25833
  11278, 150.00000, 0.17101, 0.46985
  11279, 150.00000, 0.70542, 1.93812
  11280, 150.00000, 1.23982, 3.40639
  11281, 150.00000, 1.77423, 4.87466
  11282, 150.00000, 2.30864, 6.34293
  11283, 150.00000, 2.84304, 7.81119
  11284, 150.00000, 3.37745, 9.27946
  11285, 150.00000, 3.91186, 10.74773
  11286, 150.00000, 4.44626, 12.21600
  11287, 150.00000, 0.08682, 0.49240
  11288, 150.00000, 0.35815, 2.03117
  11289, 150.00000, 0.62947, 3.56993
  11290, 150.00000, 0.90080, 5.10869
  11291, 150.00000, 1.17213, 6.64745
  11292, 150.00000, 1.44345, 8.18621
  11293, 150.00000, 1.71478, 9.72498
  11294, 150.00000, 1.98610, 11.26374
  11295, 150.00000, 2.25743, 12.80250
  11296, 150.00000, 0.00000, 0.50000
  11297, 150.00000, 0.00000, 2.06250
  11298, 150.00000, 0.00000, 3.62500
  11299, 150.00000, 0.00000, 5.18750
  11300, 150.00000, 0.00000, 6.75000
  11301, 150.00000, 0.00000, 8.31250
  11302, 150.00000, 0.00000, 9.87500
  11303, 150.00000, 0.00000, 11.43750
  11304, 150.00000, 0.00000, 13.00000
  11305, 150.00000, -0.08682, 0.49240
  11306, 150.00000, -0.35815, 2.03117
  11307, 150.00000, -0.62947, 3.56993
  11308, 150.00000, -0.90080, 5.10869
  11309, 150.00000, -1.17213, 6.64745
  11310, 150.00000, -1.44345, 8.18621
  11311, 150.00000, -1.71478, 9.72498
  11312, 150.00000, -1.98610, 11.26374
  11313, 150.00000, -2.25743, 12.80250
  11314, 150.00000, -0.17101, 0.46985
  11315, 150.00000, -0.70542, 1.93812
  11316, 150.00000, -1.23982, 3.40639
  11317, 150.00000, -1.77423, 4.87466
  11318, 150.00000, -2.30864, 6.34293
  11319, 150.00000, -2.84304, 7.81119
  11320, 150.00000, -3.37745, 9.27946
  11321, 150.00000, -3.91186, 10.74773
  11322, 150.00000, -4.44626, 12.21600
  11323, 150.00000, -0.25000, 0.43301
  11324, 150.00000, -1.03125, 1.78618
  11325, 150.00000, -1.81250, 3.13934
  11326, 150.00000, -2.59375, 4.49251
  11327, 150.00000, -3.37500, 5.84567
  11328, 150.00000, -4.15625, 7.19884
  11329, 150.00000, -4.93750, 8.55200
  11330, 150.00000, -5.71875, 9.90517
  11331, 150.00000, -6.50000, 11.25833
  11332, 150.00000, -0.32139, 0.38302
  11333, 150.00000, -1.32575, 1.57997
  11334, 150.00000, -2.33011, 2.77691
  11335, 150.00000, -3.33446, 3.97386
  11336, 150.00000, -4.33882, 5.17080
  11337, 150.00000, -5.34317, 6.36774
  11338, 150.00000, -6.34753, 7.56469
  11339, 150.00000, -7.35188, 8.76163
  11340, 150.00000, -8.35624, 9.95858
  11341, 150.00000, -0.38302, 0.32139
  11342, 150.00000, -1.57997, 1.32575
  11343, 150.00000, -2.77691, 2.33011
  11344, 150.00000, -3.97386, 3.33446
  11345, 150.00000, -5.17080, 4.33882
  11346, 150.00000, -6.36774, 5.34317
  11347, 150.00000, -7.56469, 6.34753
  11348, 150.00000, -8.76163, 7.35188
  11349, 150.00000, -9.95858, 8.35624
  11350, 150.00000, -0.43301, 0.25000
  11351, 150.00000, -1.78618, 1.03125
  11352, 150.00000, -3.13934, 1.81250
  11353, 150.00000, -4.49251, 2.59375
  11354, 150.00000, -5.84567, 3.37500
  11355, 150.00000, -7.19884, 4.15625
  11356, 150.00000, -8.55200, 4.93750
  11357, 150.00000, -9.90517, 5.71875
  11358, 150.00000, -11.25833, 6.50000
  11359, 150.00000, -0.46985, 0.17101
  11360, 150.00000, -1.93812, 0.70542
  11361, 150.00000, -3.40639, 1.23982
  11362, 150.00000, -4.87466, 1.77423
  11363, 150.00000, -6.34293, 2.30864
  11364, 150.00000, -7.81119, 2.84304
  11365, 150.00000, -9.27946, 3.37745
  11366, 150.00000, -10.74773, 3.91186
  11367, 150.00000, -12.21600, 4.44626
  11368, 150.00000, -0.49240, 0.08682
  11369, 150.00000, -2.03117, 0.35815
  11370, 150.00000, -3.56993, 0.62947
  11371, 150.00000, -5.10869, 0.90080
  11372, 150.00000, -6.64745, 1.17213
  11373, 150.00000, -8.18621, 1.44345
  11374, 150.00000, -9.72498, 1.71478
  11375, 150.00000, -11.26374, 1.98610
  11376, 150.00000, -12.80250, 2.25743
  11377, 150.00000, -0.50000, 0.00000
  11378, 150.00000, -2.06250, 0.00000
  11379, 150.00000, -3.62500, 0.00000
  11380, 150.00000, -5.18750, 0.00000
  11381, 150.00000, -6.75000, 0.00000
  11382, 150.00000, -8.31250, 0.00000
  11383, 150.00000, -9.87500, 0.00000
  11384, 150.00000, -11.43750, 0.00000
  11385, 150.00000, -13.00000, 0.00000
  11386, 150.00000, -0.49240, -0.08682
  11387, 150.00000, -2.03117, -0.35815
  11388, 150.00000, -3.56993, -0.62947
  11389, 150.00000, -5.10869, -0.90080
  11390, 150.00000, -6.64745, -1.17213
  11391, 150.00000, -8.18621, -1.44345
  11392, 150.00000, -9.72498, -1.71478
  11393, 150.00000, -11.26374, -1.98610
  11394, 150.00000, -12.80250, -2.25743
  11395, 150.00000, -0.46985, -0.17101
  11396, 150.00000, -1.93812, -0.70542
  11397, 150.00000, -3.40639, -1.23982
  11398, 150.00000, -4.87466, -1.77423
  11399, 150.00000, -6.34293, -2.30864
  11400, 150.00000, -7.81119, -2.84304
  11401, 150.00000, -9.27946, -3.37745
  11402, 150.00000, -10.74773, -3.91186
  11403, 150.00000, -12.21600, -4.44626
  11404, 150.00000, -0.43301, -0.25000
  11405, 150.00000, -1.78618, -1.03125
  11406, 150.00000, -3.13934, -1.81250
  11407, 150.00000, -4.49251, -2.59375
  11408, 150.00000, -5.84567, -3.37500
  11409, 150.00000, -7.19884, -4.15625
  11410, 150.00000, -8.55200, -4.93750
  11411, 150.00000, -9.90517, -5.71875
  11412, 150.00000, -11.25833, -6.50000
  11413, 150.00000, -0.38302, -0.32139
  11414, 150.00000, -1.57997, -1.32575
  11415, 150.00000, -2.77691, -2.33011
  11416, 150.00000, -3.97386, -3.33446
  11417, 150.00000, -5.17080, -4.33882
  11418, 150.00000, -6.36774, -5.34317
  11419, 150.00000, -7.56469, -6.34753
  11420, 150.00000, -8.76163, -7.35188
  11421, 150.00000, -9.95858, -8.35624
  11422, 150.00000, -0.32139, -0.38302
  11423, 150.00000, -1.32575, -1.57997
  11424, 150.00000, -2.33011, -2.77691
  11425, 150.00000, -3.33446, -3.97386
  11426, 150.00000, -4.33882, -5.17080
  11427, 150.00000, -5.34317, -6.36774
  11428, 150.00000, -6.34753, -7.56469
  11429, 150.00000, -7.35188, -8.76163
  11430, 150.00000, -8.35624, -9.95858
  11431, 150.00000, -0.25000, -0.43301
  11432, 150.00000, -1.03125, -1.78618
  11433, 150.00000, -1.81250, -3.13934
  11434, 150.00000, -2.59375, -4.49251
  11435, 150.00000, -3.37500, -5.84567
  11436, 150.00000, -4.15625, -7.19884
  11437, 150.00000, -4.93750, -8.55200
  11438, 150.00000, -5.71875, -9.90517
  11439, 150.00000, -6.50000, -11.25833
  11440, 150.00000, -0.17101, -0.46985
  11441, 150.00000, -0.70542, -1.93812
  11442, 150.00000, -1.23982, -3.40639
  11443, 150.00000, -1.77423, -4.87466
  11444, 150.00000, -2.30864, -6.34293
  11445, 150.00000, -2.84304, -7.81119
  11446, 150.00000, -3.37745, -9.27946
  11447, 150.00000, -3.91186, -10.74773
  11448, 150.00000, -4.44626, -12.21600
  11449, 150.00000, -0.08682, -0.49240
  11450, 150.00000, -0.35815, -2.03117
  11451, 150.00000, -0.62947, -3.56993
  11452, 150.00000, -0.90080, -5.10869
  11453, 150.00000, -1.17213, -6.64745
  11454, 150.00000, -1.44345, -8.18621
  11455, 150.00000, -1.71478, -9.72498
  11456, 150.00000, -1.98610, -11.26374
  11457, 150.00000, -2.25743, -12.80250
  11458, 150.00000, -0.00000, -0.50000
  11459, 150.00000, -0.00000, -2.06250
  11460, 150.00000, -0.00000, -3.62500
  11461, 150.00000, -0.00000, -5.18750
  11462, 150.00000, -0.00000, -6.75000
  11463, 150.00000, -0.00000, -8.31250
  11464, 150.00000, -0.00000, -9.87500
  11465, 150.00000, -0.00000, -11.43750
  11466, 150.00000, -0.00000, -13.00000
  11467, 150.00000, 0.08682, -0.49240
  11468, 150.00000, 0.35815, -2.03117
  11469, 150.00000, 0.62947, -3.56993
  11470, 150.00000, 0.90080, -5.10869
  11471, 150.00000, 1.17213, -6.64745
  11472, 150.00000, 1.44345, -8.18621
  11473, 150.00000, 1.71478, -9.72498
  11474, 150.00000, 1.98610, -11.26374
  11475, 150.00000, 2.25743, -12.80250
  11476, 150.00000, 0.17101, -0.46985
  11477, 150.00000, 0.70542, -1.93812
  11478, 150.00000, 1.23982, -3.40639
  11479, 150.00000, 1.77423, -4.87466
  11480, 150.00000, 2.30864, -6.34293
  11481, 150.00000, 2.84304, -7.81119
  11482, 150.00000, 3.37745, -9.27946
  11483, 150.00000, 3.91186, -10.74773
  11484, 150.00000, 4.44626, -12.21600
  11485, 150.00000, 0.25000, -0.43301
  11486, 150.00000, 1.03125, -1.78618
  11487, 150.00000, 1.81250, -3.13934
  11488, 150.00000, 2.59375, -4.49251
  11489, 150.00000, 3.37500, -5.84567
  11490, 150.00000, 4.15625, -7.19884
  11491, 150.00000, 4.93750, -8.55200
  11492, 150.00000, 5.71875, -9.90517
  11493, 150.00000, 6.50000, -11.25833
  11494, 150.00000, 0.32139, -0.38302
  11495, 150.00000, 1.32575, -1.57997
  11496, 150.00000, 2.33011, -2.77691
  11497, 150.00000, 3.33446, -3.97386
  11498, 150.00000, 4.33882, -5.17080
  11499, 150.00000, 5.34317, -6.36774
  11500, 150.00000, 6.34753, -7.56469
  11501, 150.00000, 7.35188, -8.76163
  11502, 150.00000, 8.35624, -9.95858
  11503, 150.00000, 0.38302, -0.32139
  11504, 150.00000, 1.57997, -1.32575
  11505, 150.00000, 2.77691, -2.33011
  11506, 150.00000, 3.97386, -3.33446
  11507, 150.00000, 5.17080, -4.33882
  11508, 150.00000, 6.36774, -5.34317
  11509, 150.00000, 7.56469, -6.34753
  11510, 150.00000, 8.76163, -7.35188
  11511, 150.00000, 9.95858, -8.35624
  11512, 150.00000, 0.43301, -0.25000
  11513, 150.00000, 1.78618, -1.03125
  11514, 150.00000, 3.13934, -1.81250
  11515, 150.00000, 4.49251, -2.59375
  11516, 150.00000, 5.84567, -3.37500
  11517, 150.00000, 7.19884, -4.15625
  11518, 150.00000, 8.55200, -4.93750
  11519, 150.00000, 9.90517, -5.71875
  11520, 150.00000, 11.25833, -6.50000
  11521, 150.00000, 0.46985, -0.17101
  11522, 150.00000, 1.93812, -0.70542
  11523, 150.00000, 3.40639, -1.23982
  11524, 150.00000, 4.87466, -1.77423
  11525, 150.00000, 6.34293, -2.30864
  11526, 150.00000, 7.81119, -2.84304
  11527, 150.00000, 9.27946, -3.37745
  11528, 150.00000, 10.74773, -3.91186
  11529, 150.00000, 12.21600, -4.44626
  11530, 150.00000, 0.49240, -0.08682
  11531, 150.00000, 2.03117, -0.35815
  11532, 150.00000, 3.56993, -0.62947
  11533, 150.00000, 5.10869, -0.90080
  11534, 150.00000, 6.64745, -1.17213
  11535, 150.00000, 8.18621, -1.44345
  11536, 150.00000, 9.72498, -1.71478
  11537, 150.00000, 11.26374, -1.98610
  11538, 150.00000, 12.80250, -2.25743
  11539, 150.00000, 0.50000, -0.00000
  11540, 150.00000, 2.06250, -0.00000
  11541, 150.00000, 3.62500, -0.00000
  11542, 150.00000, 5.18750, -0.00000
  11543, 150.00000, 6.75000, -0.00000
  11544, 150.00000, 8.31250, -0.00000
  11545, 150.00000, 9.87500, -0.00000
  11546, 150.00000, 11.43750, -0.00000
  11547, 150.00000, 13.00000, -0.00000
  11548, 155.00000, 0.50000, 0.00000
  11549, 155.00000, 2.06250, 0.00000
  11550, 155.00000, 3.62500, 0.00000
  11551, 155.00000, 5.18750, 0.00000
  11552, 155.00000, 6.75000, 0.00000
  11553, 155.00000, 8.31250, 0.00000
  11554, 155.00000, 9.87500, 0.00000
  11555, 155.00000, 11.43750, 0.00000
  11556, 155.00000, 13.00000, 0.00000
  11557, 155.00000, 0.49240, 0.08682
  11558, 155.00000, 2.03117, 0.35815
  11559, 155.00000, 3.56993, 0.62947
  11560, 155.00000, 5.10869, 0.90080
  11561, 155.00000, 6.64745, 1.17213
  11562, 155.00000, 8.18621, 1.44345
  11563, 155.00000, 9.72498, 1.71478
  11564, 155.00000, 11.26374, 1.98610
  11565, 155.00000, 12.80250, 2.25743
  11566, 155.00000, 0.46985, 0.17101
  11567, 155.00000, 1.93812, 0.70542
  11568, 155.00000, 3.40639, 1.23982
  11569, 155.00000, 4.87466, 1.77423
  11570, 155.00000, 6.34293, 2.30864
  11571, 155.00000, 7.81119, 2.84304
  11572, 155.00000, 9.27946, 3.37745
  11573, 155.00000, 10.74773, 3.91186
  11574, 155.00000, 12.21600, 4.44626
  11575, 155.00000, 0.43301, 0.25000
  11576, 155.00000, 1.78618, 1.03125
  11577, 155.00000, 3.13934, 1.81250
  11578, 155.00000, 4.49251, 2.59375
  11579, 155.00000, 5.84567, 3.37500
  11580, 155.00000, 7.19884, 4.15625
  11581, 155.00000, 8.55200, 4.93750
  11582, 155.00000, 9.90517, 5.71875
  11583, 155.00000, 11.25833, 6.50000
  11584, 155.00000, 0.38302, 0.32139
  11585, 155.00000, 1.57997, 1.32575
  11586, 155.00000, 2.77691, 2.33011
  11587, 155.00000, 3.97386, 3.33446
  11588, 155.00000, 5.17080, 4.33882
  11589, 155.00000, 6.36774, 5.34317
  11590, 155.00000, 7.56469, 6.34753
  11591, 155.00000, 8.76163, 7.35188
  11592, 155.00000, 9.95858, 8.35624
  11593, 155.00000, 0.32139, 0.38302
  11594, 155.00000, 1.32575, 1.57997
  11595, 155.00000, 2.33011, 2.77691
  11596, 155.00000, 3.33446, 3.97386
  11597, 155.00000, 4.33882, 5.17080
  11598, 155.00000, 5.34317, 6.36774
  11599, 155.00000, 6.34753, 7.56469
  11600, 155.00000, 7.35188, 8.76163
  11601, 155.00000, 8.35624, 9.95858
  11602, 155.00000, 0.25000, 0.43301
  11603, 155.00000, 1.03125, 1.78618
  11604, 155.00000, 1.81250, 3.13934
  11605, 155.00000, 2.59375, 4.49251
  11606, 155.00000, 3.37500, 5.84567
  11607, 155.00000, 4.15625, 7.19884
  11608, 155.00000, 4.93750, 8.55200
  11609, 155.00000, 5.71875, 9.90517
  11610, 155.00000, 6.50000, 11.25833
  11611, 155.00000, 0.17101, 0.46985
  11612, 155.00000, 0.70542, 1.93812
  11613, 155.00000, 1.23982, 3.40639
  11614, 155.00000, 1.77423, 4.87466
  11615, 155.00000, 2.30864, 6.34293
  11616, 155.00000, 2.84304, 7.81119
  11617, 155.00000, 3.37745, 9.27946
  11618, 155.00000, 3.91186, 10.74773
  11619, 155.00000, 4.44626, 12.21600
  11620, 155.00000, 0.08682, 0.49240
  11621, 155.00000, 0.35815, 2.03117
  11622, 155.00000, 0.62947, 3.56993
  11623, 155.00000, 0.90080, 5.10869
  11624, 155.00000, 1.17213, 6.64745
  11625, 155.00000, 1.44345, 8.18621
  11626, 155.00000, 1.71478, 9.72498
  11627, 155.00000, 1.98610, 11.26374
  11628, 155.00000, 2.25743, 12.80250
  11629, 155.00000, 0.00000, 0.50000
  11630, 155.00000, 0.00000, 2.06250
  11631, 155.00000, 0.00000, 3.62500
  11632, 155.00000, 0.00000, 5.18750
  11633, 155.00000, 0.00000, 6.75000
  11634, 155.00000, 0.00000, 8.31250
  11635, 155.00000, 0.00000, 9.87500
  11636, 155.00000, 0.00000, 11.43750
  11637, 155.00000, 0.00000, 13.00000
  11638, 155.00000, -0.08682, 0.49240
  11639, 155.00000, -0.35815, 2.03117
  11640, 155.00000, -0.62947, 3.56993
  11641, 155.00000, -0.90080, 5.10869
  11642, 155.00000, -1.17213, 6.64745
  11643, 155.00000, -1.44345, 8.18621
  11644, 155.00000, -1.71478, 9.72498
  11645, 155.00000, -1.98610, 11.26374
  11646, 155.00000, -2.25743, 12.80250
  11647, 155.00000, -0.17101, 0.46985
  11648, 155.00000, -0.70542, 1.93812
  11649, 155.00000, -1.23982, 3.40639
  11650, 155.00000, -1.77423, 4.87466
  11651, 155.00000, -2.30864, 6.34293
  11652, 155.00000, -2.84304, 7.81119
  11653, 155.00000, -3.37745, 9.27946
  11654, 155.00000, -3.91186, 10.74773
  11655, 155.00000, -4.44626, 12.21600
  11656, 155.00000, -0.25000, 0.43301
  11657, 155.00000, -1.03125, 1.78618
  11658, 155.00000, -1.81250, 3.13934
  11659, 155.00000, -2.59375, 4.49251
  11660, 155.00000, -3.37500, 5.84567
  11661, 155.00000, -4.15625, 7.19884
  11662, 155.00000, -4.93750, 8.55200
  11663, 155.00000, -5.71875, 9.90517
  11664, 155.00000, -6.50000, 11.25833
  11665, 155.00000, -0.32139, 0.38302
  11666, 155.00000, -1.32575, 1.57997
  11667, 155.00000, -2.33011, 2.77691
  11668, 155.00000, -3.33446, 3.97386
  11669, 155.00000, -4.33882, 5.17080
  11670, 155.00000, -5.34317, 6.36774
  11671, 155.00000, -6.34753, 7.56469
  11672, 155.00000, -7.35188, 8.76163
  11673, 155.00000, -8.35624, 9.95858
  11674, 155.00000, -0.38302, 0.32139
  11675, 155.00000, -1.57997, 1.32575
  11676, 155.00000, -2.77691, 2.33011
  11677, 155.00000, -3.97386, 3.33446
  11678, 155.00000, -5.17080, 4.33882
  11679, 155.00000, -6.36774, 5.34317
  11680, 155.00000, -7.56469, 6.34753
  11681, 155.00000, -8.76163, 7.35188
  11682, 155.00000, -9.95858, 8.35624
  11683, 155.00000, -0.43301, 0.25000
  11684, 155.00000, -1.78618, 1.03125
  11685, 155.00000, -3.13934, 1.81250
  11686, 155.00000, -4.49251, 2.59375
  11687, 155.00000, -5.84567, 3.37500
  11688, 155.00000, -7.19884, 4.15625
  11689, 155.00000, -8.55200, 4.93750
  11690, 155.00000, -9.90517, 5.71875
  11691, 155.00000, -11.25833, 6.50000
  11692, 155.00000, -0.46985, 0.17101
  11693, 155.00000, -1.93812, 0.70542
  11694, 155.00000, -3.40639, 1.23982
  11695, 155.00000, -4.87466, 1.77423
  11696, 155.00000, -6.34293, 2.30864
  11697, 155.00000, -7.81119, 2.84304
  11698, 155.00000, -9.27946, 3.37745
  11699, 155.00000, -10.74773, 3.91186
  11700, 155.00000, -12.21600, 4.44626
  11701, 155.00000, -0.49240, 0.08682
  11702, 155.00000, -2.03117, 0.35815
  11703, 155.00000, -3.56993, 0.62947
  11704, 155.00000, -5.10869, 0.90080
  11705, 155.00000, -6.64745, 1.17213
  11706, 155.00000, -8.18621, 1.44345
  11707, 155.00000, -9.72498, 1.71478
  11708, 155.00000, -11.26374, 1.98610
  11709, 155.00000, -12.80250, 2.25743
  11710, 155.00000, -0.50000, 0.00000
  11711, 155.00000, -2.06250, 0.00000
  11712, 155.00000, -3.62500, 0.00000
  11713, 155.00000, -5.18750, 0.00000
  11714, 155.00000, -6.75000, 0.00000
  11715, 155.00000, -8.31250, 0.00000
  11716, 155.00000, -9.87500, 0.00000
  11717, 155.00000, -11.43750, 0.00000
  11718, 155.00000, -13.00000, 0.00000
  11719, 155.00000, -0.49240, -0.08682
  11720, 155.00000, -2.03117, -0.35815
  11721, 155.00000, -3.56993, -0.62947
  11722, 155.00000, -5.10869, -0.90080
  11723, 155.00000, -6.64745, -1.17213
  11724, 155.00000, -8.18621, -1.44345
  11725, 155.00000, -9.72498, -1.71478
  11726, 155.00000, -11.26374, -1.98610
  11727, 155.00000, -12.80250, -2.25743
  11728, 155.00000, -0.46985, -0.17101
  11729, 155.00000, -1.93812, -0.70542
  11730, 155.00000, -3.40639, -1.23982
  11731, 155.00000, -4.87466, -1.77423
  11732, 155.00000, -6.34293, -2.30864
  11733, 155.00000, -7.81119, -2.84304
  11734, 155.00000, -9.27946, -3.37745
  11735, 155.00000, -10.74773, -3.91186
  11736, 155.00000, -12.21600, -4.44626
  11737, 155.00000, -0.43301, -0.25000
  11738, 155.00000, -1.78618, -1.03125
  11739, 155.00000, -3.13934, -1.81250
  11740, 155.00000, -4.49251, -2.59375
  11741, 155.00000, -5.84567, -3.37500
  11742, 155.00000, -7.19884, -4.15625
  11743, 155.00000, -8.55200, -4.93750
  11744, 155.00000, -9.90517, -5.71875
  11745, 155.00000, -11.25833, -6.50000
  11746, 155.00000, -0.38302, -0.32139
  11747, 155.00000, -1.57997, -1.32575
  11748, 155.00000, -2.77691, -2.33011
  11749, 155.00000, -3.97386, -3.33446
  11750, 155.00000, -5.17080, -4.33882
  11751, 155.00000, -6.36774, -5.34317
  11752, 155.00000, -7.56469, -6.34753
  11753, 155.00000, -8.76163, -7.35188
  11754, 155.00000, -9.95858, -8.35624
  11755, 155.00000, -0.32139, -0.38302
  11756, 155.00000, -1.32575, -1.57997
  11757, 155.00000, -2.33011, -2.77691
  11758, 155.00000, -3.33446, -3.97386
  11759, 155.00000, -4.33882, -5.17080
  11760, 155.00000, -5.34317, -6.36774
  11761, 155.00000, -6.34753, -7.56469
  11762, 155.00000, -7.35188, -8.76163
  11763, 155.00000, -8.35624, -9.95858
  11764, 155.00000, -0.25000, -0.43301
  11765, 155.00000, -1.03125, -1.78618
  11766, 155.00000, -1.81250, -3.13934
  11767, 155.00000, -2.59375, -4.49251
  11768, 155.00000, -3.37500, -5.84567
  11769, 155.00000, -4.15625, -7.19884
  11770, 155.00000, -4.93750, -8.55200
  11771, 155.00000, -5.71875, -9.90517
  11772, 155.00000, -6.50000, -11.25833
  11773, 155.00000, -0.17101, -0.46985
  11774, 155.00000, -0.70542, -1.93812
  11775, 155.00000, -1.23982, -3.40639
  11776, 155.00000, -1.77423, -4.87466
  11777, 155.00000, -2.30864, -6.34293
  11778, 155.00000, -2.84304, -7.81119
  11779, 155.00000, -3.37745, -9.27946
  11780, 155.00000, -3.91186, -10.74773
  11781, 155.00000, -4.44626, -12.21600
  11782, 155.00000, -0.08682, -0.49240
  11783, 155.00000, -0.35815, -2.03117
  11784, 155.00000, -0.62947, -3.56993
  11785, 155.00000, -0.90080, -5.10869
  11786, 155.00000, -1.17213, -6.64745
  11787, 155.00000, -1.44345, -8.18621
  11788, 155.00000, -1.71478, -9.72498
  11789, 155.00000, -1.98610, -11.26374
  11790, 155.00000, -2.25743, -12.80250
  11791, 155.00000, -0.00000, -0.50000
  11792, 155.00000, -0.00000, -2.06250
  11793, 155.00000, -0.00000, -3.62500
  11794, 155.00000, -0.00000, -5.18750
  11795, 155.00000, -0.00000, -6.75000
  11796, 155.00000, -0.00000, -8.31250
  11797, 155.00000, -0.00000, -9.87500
  11798, 155.00000, -0.00000, -11.43750
  11799, 155.00000, -0.00000, -13.00000
  11800, 155.00000, 0.08682, -0.49240
  11801, 155.00000, 0.35815, -2.03117
  11802, 155.00000, 0.62947, -3.56993
  11803, 155.00000, 0.90080, -5.10869
  11804, 155.00000, 1.17213, -6.64745
  11805, 155.00000, 1.44345, -8.18621
  11806, 155.00000, 1.71478, -9.72498
  11807, 155.00000, 1.98610, -11.26374
  11808, 155.00000, 2.25743, -12.80250
  11809, 155.00000, 0.17101, -0.46985
  11810, 155.00000, 0.70542, -1.93812
  11811, 155.00000, 1.23982, -3.40639
  11812, 155.00000, 1.77423, -4.87466
  11813, 155.00000, 2.30864, -6.34293
  11814, 155.00000, 2.84304, -7.81119
  11815, 155.00000, 3.37745, -9.27946
  11816, 155.00000, 3.91186, -10.74773
  11817, 155.00000, 4.44626, -12.21600
  11818, 155.00000, 0.25000, -0.43301
  11819, 155.00000, 1.03125, -1.78618
  11820, 155.00000, 1.81250, -3.13934
  11821, 155.00000, 2.59375, -4.49251
  11822, 155.00000, 3.37500, -5.84567
  11823, 155.00000, 4.15625, -7.19884
  11824, 155.00000, 4.93750, -8.55200
  11825, 155.00000, 5.71875, -9.90517
  11826, 155.00000, 6.50000, -11.25833
  11827, 155.00000, 0.32139, -0.38302
  11828, 155.00000, 1.32575, -1.57997
  11829, 155.00000, 2.33011, -2.77691
  11830, 155.00000, 3.33446, -3.97386
  11831, 155.00000, 4.33882, -5.17080
  11832, 155.00000, 5.34317, -6.36774
  11833, 155.00000, 6.34753, -7.56469
  11834, 155.00000, 7.35188, -8.76163
  11835, 155.00000, 8.35624, -9.95858
  11836, 155.00000, 0.38302, -0.32139
  11837, 155.00000, 1.57997, -1.32575
  11838, 155.00000, 2.77691, -2.33011
  11839, 155.00000, 3.97386, -3.33446
  11840, 155.00000, 5.17080, -4.33882
  11841, 155.00000, 6.36774, -5.34317
  11842, 155.00000, 7.56469, -6.34753
  11843, 155.00000, 8.76163, -7.35188
  11844, 155.00000, 9.95858, -8.35624
  11845, 155.00000, 0.43301, -0.25000
  11846, 155.00000, 1.78618, -1.03125
  11847, 155.00000, 3.13934, -1.81250
  11848, 155.00000, 4.49251, -2.59375
  11849, 155.00000, 5.84567, -3.37500
  11850, 155.00000, 7.19884, -4.15625
  11851, 155.00000, 8.55200, -4.93750
  11852, 155.00000, 9.90517, -5.71875
  11853, 155.00000, 11.25833, -6.50000
  11854, 155.00000, 0.46985, -0.17101
  11855, 155.00000, 1.93812, -0.70542
  11856, 155.00000, 3.40639, -1.23982
  11857, 155.00000, 4.87466, -1.77423
  11858, 155.00000, 6.34293, -2.30864
  11859, 155.00000, 7.81119, -2.84304
  11860, 155.00000, 9.27946, -3.37745
  11861, 155.00000, 10.74773, -3.91186
  11862, 155.00000, 12.21600, -4.44626
  11863, 155.00000, 0.49240, -0.08682
  11864, 155.00000, 2.03117, -0.35815
  11865, 155.00000, 3.56993, -0.62947
  11866, 155.00000, 5.10869, -0.90080
  11867, 155.00000, 6.64745, -1.17213
  11868, 155.00000, 8.18621, -1.44345
  11869, 155.00000, 9.72498, -1.71478
  11870, 155.00000, 11.26374, -1.98610
  11871, 155.00000, 12.80250, -2.25743
  11872, 155.00000, 0.50000, -0.00000
  11873, 155.00000, 2.06250, -0.00000
  11874, 155.00000, 3.62500, -0.00000
  11875, 155.00000, 5.18750, -0.00000
  11876, 155.00000, 6.75000, -0.00000
  11877, 155.00000, 8.31250, -0.00000
  11878, 155.00000, 9.87500, -0.00000
  11879, 155.00000, 11.43750, -0.00000
  11880, 155.00000, 13.00000, -0.00000
  11881, 160.00000, 0.50000, 0.00000
  11882, 160.00000, 2.06250, 0.00000
  11883, 160.00000, 3.62500, 0.00000
  11884, 160.00000, 5.18750, 0.00000
  11885, 160.00000, 6.75000, 0.00000
  11886, 160.00000, 8.31250, 0.00000
  11887, 160.00000, 9.87500, 0.00000
  11888, 160.00000, 11.43750, 0.00000
  11889, 160.00000, 13.00000, 0.00000
  11890, 160.00000, 0.49240, 0.08682
  11891, 160.00000, 2.03117, 0.35815
  11892, 160.00000, 3.56993, 0.62947
  11893, 160.00000, 5.10869, 0.90080
  11894, 160.00000, 6.64745, 1.17213
  11895, 160.00000, 8.18621, 1.44345
  11896, 160.00000, 9.72498, 1.71478
  11897, 160.00000, 11.26374, 1.98610
  11898, 160.00000, 12.80250, 2.25743
  11899, 160.00000, 0.46985, 0.17101
  11900, 160.00000, 1.93812, 0.70542
  11901, 160.00000, 3.40639, 1.23982
  11902, 160.00000, 4.87466, 1.77423
  11903, 160.00000, 6.34293, 2.30864
  11904, 160.00000, 7.81119, 2.84304
  11905, 160.00000, 9.27946, 3.37745
  11906, 160.00000, 10.74773, 3.91186
  11907, 160.00000, 12.21600, 4.44626
  11908, 160.00000, 0.43301, 0.25000
  11909, 160.00000, 1.78618, 1.03125
  11910, 160.00000, 3.13934, 1.81250
  11911, 160.00000, 4.49251, 2.59375
  11912, 160.00000, 5.84567, 3.37500
  11913, 160.00000, 7.19884, 4.15625
  11914, 160.00000, 8.55200, 4.93750
  11915, 160.00000, 9.90517, 5.71875
  11916, 160.00000, 11.25833, 6.50000
  11917, 160.00000, 0.38302, 0.32139
  11918, 160.00000, 1.57997, 1.32575
  11919, 160.00000, 2.77691, 2.33011
  11920, 160.00000, 3.97386, 3.33446
  11921, 160.00000, 5.17080, 4.33882
  11922, 160.00000, 6.36774, 5.34317
  11923, 160.00000, 7.56469, 6.34753
  11924, 160.00000, 8.76163, 7.35188
  11925, 160.00000, 9.95858, 8.35624
  11926, 160.00000, 0.32139, 0.38302
  11927, 160.00000, 1.32575, 1.57997
  11928, 160.00000, 2.33011, 2.77691
  11929, 160.00000, 3.33446, 3.97386
  11930, 160.00000, 4.33882, 5.17080
  11931, 160.00000, 5.34317, 6.36774
  11932, 160.00000, 6.34753, 7.56469
  11933, 160.00000, 7.35188, 8.76163
  11934, 160.00000, 8.35624, 9.95858
  11935, 160.00000, 0.25000, 0.43301
  11936, 160.00000, 1.03125, 1.78618
  11937, 160.00000, 1.81250, 3.13934
  11938, 160.00000, 2.59375, 4.49251
  11939, 160.00000, 3.37500, 5.84567
  11940, 160.00000, 4.15625, 7.19884
  11941, 160.00000, 4.93750, 8.55200
  11942, 160.00000, 5.71875, 9.90517
  11943, 160.00000, 6.50000, 11.25833
  11944, 160.00000, 0.17101, 0.46985
  11945, 160.00000, 0.70542, 1.93812
  11946, 160.00000, 1.23982, 3.40639
  11947, 160.00000, 1.77423, 4.87466
  11948, 160.00000, 2.30864, 6.34293
  11949, 160.00000, 2.84304, 7.81119
  11950, 160.00000, 3.37745, 9.27946
  11951, 160.00000, 3.91186, 10.74773
  11952, 160.00000, 4.44626, 12.21600
  11953, 160.00000, 0.08682, 0.49240
  11954, 160.00000, 0.35815, 2.03117
  11955, 160.00000, 0.62947, 3.56993
  11956, 160.00000, 0.90080, 5.10869
  11957, 160.00000, 1.17213, 6.64745
  11958, 160.00000, 1.44345, 8.18621
  11959, 160.00000, 1.71478, 9.72498
  11960, 160.00000, 1.98610, 11.26374
  11961, 160.00000, 2.25743, 12.80250
  11962, 160.00000, 0.00000, 0.50000
  11963, 160.00000, 0.00000, 2.06250
  11964, 160.00000, 0.00000, 3.62500
  11965, 160.00000, 0.00000, 5.18750
  11966, 160.00000, 0.00000, 6.75000
  11967, 160.00000, 0.00000, 8.31250
  11968, 160.00000, 0.00000, 9.87500
  11969, 160.00000, 0.00000, 11.43750
  11970, 160.00000, 0.00000, 13.00000
  11971, 160.00000, -0.08682, 0.49240
  11972, 160.00000, -0.35815, 2.03117
  11973, 160.00000, -0.62947, 3.56993
  11974, 160.00000, -0.90080, 5.10869
  11975, 160.00000, -1.17213, 6.64745
  11976, 160.00000, -1.44345, 8.18621
  11977, 160.00000, -1.71478, 9.72498
  11978, 160.00000, -1.98610, 11.26374
  11979, 160.00000, -2.25743, 12.80250
  11980, 160.00000, -0.17101, 0.46985
  11981, 160.00000, -0.70542, 1.93812
  11982, 160.00000, -1.23982, 3.40639
  11983, 160.00000, -1.77423, 4.87466
  11984, 160.00000, -2.30864, 6.34293
  11985, 160.00000, -2.84304, 7.81119
  11986, 160.00000, -3.37745, 9.27946
  11987, 160.00000, -3.91186, 10.74773
  11988, 160.00000, -4.44626, 12.21600
  11989, 160.00000, -0.25000, 0.43301
  11990, 160.00000, -1.03125, 1.78618
  11991, 160.00000, -1.81250, 3.13934
  11992, 160.00000, -2.59375, 4.49251
  11993, 160.00000, -3.37500, 5.84567
  11994, 160.00000, -4.15625, 7.19884
  11995, 160.00000, -4.93750, 8.55200
  11996, 160.00000, -5.71875, 9.90517
  11997, 160.00000, -6.50000, 11.25833
  11998, 160.00000, -0.32139, 0.38302
  11999, 160.00000, -1.32575, 1.57997
  12000, 160.00000, -2.33011, 2.77691
  12001, 160.00000, -3.33446, 3.97386
  12002, 160.00000, -4.33882, 5.17080
  12003, 160.00000, -5.34317, 6.36774
  12004, 160.00000, -6.34753, 7.56469
  12005, 160.00000, -7.35188, 8.76163
  12006, 160.00000, -8.35624, 9.95858
  12007, 160.00000, -0.38302, 0.32139
  12008, 160.00000, -1.57997, 1.32575
  12009, 160.00000, -2.77691, 2.33011
  12010, 160.00000, -3.97386, 3.33446
  12011, 160.00000, -5.17080, 4.33882
  12012, 160.00000, -6.36774, 5.34317
  12013, 160.00000, -7.56469, 6.34753
  12014, 160.00000, -8.76163, 7.35188
  12015, 160.00000, -9.95858, 8.35624
  12016, 160.00000, -0.43301, 0.25000
  12017, 160.00000, -1.78618, 1.03125
  12018, 160.00000, -3.13934, 1.81250
  12019, 160.00000, -4.49251, 2.59375
  12020, 160.00000, -5.84567, 3.37500
  12021, 160.00000, -7.19884, 4.15625
  12022, 160.00000, -8.55200, 4.93750
  12023, 160.00000, -9.90517, 5.71875
  12024, 160.00000, -11.25833, 6.50000
  12025, 160.00000, -0.46985, 0.17101
  12026, 160.00000, -1.93812, 0.70542
  12027, 160.00000, -3.40639, 1.23982
  12028, 160.00000, -4.87466, 1.77423
  12029, 160.00000, -6.34293, 2.30864
  12030, 160.00000, -7.81119, 2.84304
  12031, 160.00000, -9.27946, 3.37745
  12032, 160.00000, -10.74773, 3.91186
  12033, 160.00000, -12.21600, 4.44626
  12034, 160.00000, -0.49240, 0.08682
  12035, 160.00000, -2.03117, 0.35815
  12036, 160.00000, -3.56993, 0.62947
  12037, 160.00000, -5.10869, 0.90080
  12038, 160.00000, -6.64745, 1.17213
  12039, 160.00000, -8.18621, 1.44345
  12040, 160.00000, -9.72498, 1.71478
  12041, 160.00000, -11.26374, 1.98610
  12042, 160.00000, -12.80250, 2.25743
  12043, 160.00000, -0.50000, 0.00000
  12044, 160.00000, -2.06250, 0.00000
  12045, 160.00000, -3.62500, 0.00000
  12046, 160.00000, -5.18750, 0.00000
  12047, 160.00000, -6.75000, 0.00000
  12048, 160.00000, -8.31250, 0.00000
  12049, 160.00000, -9.87500, 0.00000
  12050, 160.00000, -11.43750, 0.00000
  12051, 160.00000, -13.00000, 0.00000
  12052, 160.00000, -0.49240, -0.08682
  12053, 160.00000, -2.03117, -0.35815
  12054, 160.00000, -3.56993, -0.62947
  12055, 160.00000, -5.10869, -0.90080
  12056, 160.00000, -6.64745, -1.17213
  12057, 160.00000, -8.18621, -1.44345
  12058, 160.00000, -9.72498, -1.71478
  12059, 160.00000, -11.26374, -1.98610
  12060, 160.00000, -12.80250, -2.25743
  12061, 160.00000, -0.46985, -0.17101
  12062, 160.00000, -1.93812, -0.70542
  12063, 160.00000, -3.40639, -1.23982
  12064, 160.00000, -4.87466, -1.77423
  12065, 160.00000, -6.34293, -2.30864
  12066, 160.00000, -7.81119, -2.84304
  12067, 160.00000, -9.27946, -3.37745
  12068, 160.00000, -10.74773, -3.91186
  12069, 160.00000, -12.21600, -4.44626
  12070, 160.00000, -0.43301, -0.25000
  12071, 160.00000, -1.78618, -1.03125
  12072, 160.00000, -3.13934, -1.81250
  12073, 160.00000, -4.49251, -2.59375
  12074, 160.00000, -5.84567, -3.37500
  12075, 160.00000, -7.19884, -4.15625
  12076, 160.00000, -8.55200, -4.93750
  12077, 160.00000, -9.90517, -5.71875
  12078, 160.00000, -11.25833, -6.50000
  12079, 160.00000, -0.38302, -0.32139
  12080, 160.00000, -1.57997, -1.32575
  12081, 160.00000, -2.77691, -2.33011
  12082, 160.00000, -3.97386, -3.33446
  12083, 160.00000, -5.17080, -4.33882
  12084, 160.00000, -6.36774, -5.34317
  12085, 160.00000, -7.56469, -6.34753
  12086, 160.00000, -8.76163, -7.35188
  12087, 160.00000, -9.95858, -8.35624
  12088, 160.00000, -0.32139, -0.38302
  12089, 160.00000, -1.32575, -1.57997
  12090, 160.00000, -2.33011, -2.77691
  12091, 160.00000, -3.33446, -3.97386
  12092, 160.00000, -4.33882, -5.17080
  12093, 160.00000, -5.34317, -6.36774
  12094, 160.00000, -6.34753, -7.56469
  12095, 160.00000, -7.35188, -8.76163
  12096, 160.00000, -8.35624, -9.95858
  12097, 160.00000, -0.25000, -0.43301
  12098, 160.00000, -1.03125, -1.78618
  12099, 160.00000, -1.81250, -3.13934
  12100, 160.00000, -2.59375, -4.49251
  12101, 160.00000, -3.37500, -5.84567
  12102, 160.00000, -4.15625, -7.19884
  12103, 160.00000, -4.93750, -8.55200
  12104, 160.00000, -5.71875, -9.90517
  12105, 160.00000, -6.50000, -11.25833
  12106, 160.00000, -0.17101, -0.46985
  12107, 160.00000, -0.70542, -1.93812
  12108, 160.00000, -1.23982, -3.40639
  12109, 160.00000, -1.77423, -4.87466
  12110, 160.00000, -2.30864, -6.34293
  12111, 160.00000, -2.84304, -7.81119
  12112, 160.00000, -3.37745, -9.27946
  12113, 160.00000, -3.91186, -10.74773
  12114, 160.00000, -4.44626, -12.21600
  12115, 160.00000, -0.08682, -0.49240
  12116, 160.00000, -0.35815, -2.03117
  12117, 160.00000, -0.62947, -3.56993
  12118, 160.00000, -0.90080, -5.10869
  12119, 160.00000, -1.17213, -6.64745
  12120, 160.00000, -1.44345, -8.18621
  12121, 160.00000, -1.71478, -9.72498
  12122, 160.00000, -1.98610, -11.26374
  12123, 160.00000, -2.25743, -12.80250
  12124, 160.00000, -0.00000, -0.50000
  12125, 160.00000, -0.00000, -2.06250
  12126, 160.00000, -0.00000, -3.62500
  12127, 160.00000, -0.00000, -5.18750
  12128, 160.00000, -0.00000, -6.75000
  12129, 160.00000, -0.00000, -8.31250
  12130, 160.00000, -0.00000, -9.87500
  12131, 160.00000, -0.00000, -11.43750
  12132, 160.00000, -0.00000, -13.00000
  12133, 160.00000, 0.08682, -0.49240
  12134, 160.00000, 0.35815, -2.03117
  12135, 160.00000, 0.62947, -3.56993
  12136, 160.00000, 0.90080, -5.10869
  12137, 160.00000, 1.17213, -6.64745
  12138, 160.00000, 1.44345, -8.18621
  12139, 160.00000, 1.71478, -9.72498
  12140, 160.00000, 1.98610, -11.26374
  12141, 160.00000, 2.25743, -12.80250
  12142, 160.00000, 0.17101, -0.46985
  12143, 160.00000, 0.70542, -1.93812
  12144, 160.00000, 1.23982, -3.40639
  12145, 160.00000, 1.77423, -4.87466
  12146, 160.00000, 2.30864, -6.34293
  12147, 160.00000, 2.84304, -7.81119
  12148, 160.00000, 3.37745, -9.27946
  12149, 160.00000, 3.91186, -10.74773
  12150, 160.00000, 4.44626, -12.21600
  12151, 160.00000, 0.25000, -0.43301
  12152, 160.00000, 1.03125, -1.78618
  12153, 160.00000, 1.81250, -3.13934
  12154, 160.00000, 2.59375, -4.49251
  12155, 160.00000, 3.37500, -5.84567
  12156, 160.00000, 4.15625, -7.19884
  12157, 160.00000, 4.93750, -8.55200
  12158, 160.00000, 5.71875, -9.90517
  12159, 160.00000, 6.50000, -11.25833
  12160, 160.00000, 0.32139, -0.38302
  12161, 160.00000, 1.32575, -1.57997
  12162, 160.00000, 2.33011, -2.77691
  12163, 160.00000, 3.33446, -3.97386
  12164, 160.00000, 4.33882, -5.17080
  12165, 160.00000, 5.34317, -6.36774
  12166, 160.00000, 6.34753, -7.56469
  12167, 160.00000, 7.35188, -8.76163
  12168, 160.00000, 8.35624, -9.95858
  12169, 160.00000, 0.38302, -0.32139
  12170, 160.00000, 1.57997, -1.32575
  12171, 160.00000, 2.77691, -2.33011
  12172, 160.00000, 3.97386, -3.33446
  12173, 160.00000, 5.17080, -4.33882
  12174, 160.00000, 6.36774, -5.34317
  12175, 160.00000, 7.56469, -6.34753
  12176, 160.00000, 8.76163, -7.35188
  12177, 160.00000, 9.95858, -8.35624
  12178, 160.00000, 0.43301, -0.25000
  12179, 160.00000, 1.78618, -1.03125
  12180, 160.00000, 3.13934, -1.81250
  12181, 160.00000, 4.49251, -2.59375
  12182, 160.00000, 5.84567, -3.37500
  12183, 160.00000, 7.19884, -4.15625
  12184, 160.00000, 8.55200, -4.93750
  12185, 160.00000, 9.90517, -5.71875
  12186, 160.00000, 11.25833, -6.50000
  12187, 160.00000, 0.46985, -0.17101
  12188, 160.00000, 1.93812, -0.70542
  12189, 160.00000, 3.40639, -1.23982
  12190, 160.00000, 4.87466, -1.77423
  12191, 160.00000, 6.34293, -2.30864
  12192, 160.00000, 7.81119, -2.84304
  12193, 160.00000, 9.27946, -3.37745
  12194, 160.00000, 10.74773, -3.91186
  12195, 160.00000, 12.21600, -4.44626
  12196, 160.00000, 0.49240, -0.08682
  12197, 160.00000, 2.03117, -0.35815
  12198, 160.00000, 3.56993, -0.62947
  12199, 160.00000, 5.10869, -0.90080
  12200, 160.00000, 6.64745, -1.17213
  12201, 160.00000, 8.18621, -1.44345
  12202, 160.00000, 9.72498, -1.71478
  12203, 160.00000, 11.26374, -1.98610
  12204, 160.00000, 12.80250, -2.25743
  12205, 160.00000, 0.50000, -0.00000
  12206, 160.00000, 2.06250, -0.00000
  12207, 160.00000, 3.62500, -0.00000
  12208, 160.00000, 5.18750, -0.00000
  12209, 160.00000, 6.75000, -0.00000
  12210, 160.00000, 8.31250, -0.00000
  12211, 160.00000, 9.87500, -0.00000
  12212, 160.00000, 11.43750, -0.00000
  12213, 160.00000, 13.00000, -0.00000
*Element, type=C3D8R, ELSET=WPALL
  200000, 1225, 1226, 1235, 1234, 1558, 1559, 1568, 1567
  200001, 1226, 1227, 1236, 1235, 1559, 1560, 1569, 1568
  200002, 1227, 1228, 1237, 1236, 1560, 1561, 1570, 1569
  200003, 1228, 1229, 1238, 1237, 1561, 1562, 1571, 1570
  200004, 1229, 1230, 1239, 1238, 1562, 1563, 1572, 1571
  200005, 1230, 1231, 1240, 1239, 1563, 1564, 1573, 1572
  200006, 1231, 1232, 1241, 1240, 1564, 1565, 1574, 1573
  200007, 1232, 1233, 1242, 1241, 1565, 1566, 1575, 1574
  200008, 1234, 1235, 1244, 1243, 1567, 1568, 1577, 1576
  200009, 1235, 1236, 1245, 1244, 1568, 1569, 1578, 1577
  200010, 1236, 1237, 1246, 1245, 1569, 1570, 1579, 1578
  200011, 1237, 1238, 1247, 1246, 1570, 1571, 1580, 1579
  200012, 1238, 1239, 1248, 1247, 1571, 1572, 1581, 1580
  200013, 1239, 1240, 1249, 1248, 1572, 1573, 1582, 1581
  200014, 1240, 1241, 1250, 1249, 1573, 1574, 1583, 1582
  200015, 1241, 1242, 1251, 1250, 1574, 1575, 1584, 1583
  200016, 1243, 1244, 1253, 1252, 1576, 1577, 1586, 1585
  200017, 1244, 1245, 1254, 1253, 1577, 1578, 1587, 1586
  200018, 1245, 1246, 1255, 1254, 1578, 1579, 1588, 1587
  200019, 1246, 1247, 1256, 1255, 1579, 1580, 1589, 1588
  200020, 1247, 1248, 1257, 1256, 1580, 1581, 1590, 1589
  200021, 1248, 1249, 1258, 1257, 1581, 1582, 1591, 1590
  200022, 1249, 1250, 1259, 1258, 1582, 1583, 1592, 1591
  200023, 1250, 1251, 1260, 1259, 1583, 1584, 1593, 1592
  200024, 1252, 1253, 1262, 1261, 1585, 1586, 1595, 1594
  200025, 1253, 1254, 1263, 1262, 1586, 1587, 1596, 1595
  200026, 1254, 1255, 1264, 1263, 1587, 1588, 1597, 1596
  200027, 1255, 1256, 1265, 1264, 1588, 1589, 1598, 1597
  200028, 1256, 1257, 1266, 1265, 1589, 1590, 1599, 1598
  200029, 1257, 1258, 1267, 1266, 1590, 1591, 1600, 1599
  200030, 1258, 1259, 1268, 1267, 1591, 1592, 1601, 1600
  200031, 1259, 1260, 1269, 1268, 1592, 1593, 1602, 1601
  200032, 1261, 1262, 1271, 1270, 1594, 1595, 1604, 1603
  200033, 1262, 1263, 1272, 1271, 1595, 1596, 1605, 1604
  200034, 1263, 1264, 1273, 1272, 1596, 1597, 1606, 1605
  200035, 1264, 1265, 1274, 1273, 1597, 1598, 1607, 1606
  200036, 1265, 1266, 1275, 1274, 1598, 1599, 1608, 1607
  200037, 1266, 1267, 1276, 1275, 1599, 1600, 1609, 1608
  200038, 1267, 1268, 1277, 1276, 1600, 1601, 1610, 1609
  200039, 1268, 1269, 1278, 1277, 1601, 1602, 1611, 1610
  200040, 1270, 1271, 1280, 1279, 1603, 1604, 1613, 1612
  200041, 1271, 1272, 1281, 1280, 1604, 1605, 1614, 1613
  200042, 1272, 1273, 1282, 1281, 1605, 1606, 1615, 1614
  200043, 1273, 1274, 1283, 1282, 1606, 1607, 1616, 1615
  200044, 1274, 1275, 1284, 1283, 1607, 1608, 1617, 1616
  200045, 1275, 1276, 1285, 1284, 1608, 1609, 1618, 1617
  200046, 1276, 1277, 1286, 1285, 1609, 1610, 1619, 1618
  200047, 1277, 1278, 1287, 1286, 1610, 1611, 1620, 1619
  200048, 1279, 1280, 1289, 1288, 1612, 1613, 1622, 1621
  200049, 1280, 1281, 1290, 1289, 1613, 1614, 1623, 1622
  200050, 1281, 1282, 1291, 1290, 1614, 1615, 1624, 1623
  200051, 1282, 1283, 1292, 1291, 1615, 1616, 1625, 1624
  200052, 1283, 1284, 1293, 1292, 1616, 1617, 1626, 1625
  200053, 1284, 1285, 1294, 1293, 1617, 1618, 1627, 1626
  200054, 1285, 1286, 1295, 1294, 1618, 1619, 1628, 1627
  200055, 1286, 1287, 1296, 1295, 1619, 1620, 1629, 1628
  200056, 1288, 1289, 1298, 1297, 1621, 1622, 1631, 1630
  200057, 1289, 1290, 1299, 1298, 1622, 1623, 1632, 1631
  200058, 1290, 1291, 1300, 1299, 1623, 1624, 1633, 1632
  200059, 1291, 1292, 1301, 1300, 1624, 1625, 1634, 1633
  200060, 1292, 1293, 1302, 1301, 1625, 1626, 1635, 1634
  200061, 1293, 1294, 1303, 1302, 1626, 1627, 1636, 1635
  200062, 1294, 1295, 1304, 1303, 1627, 1628, 1637, 1636
  200063, 1295, 1296, 1305, 1304, 1628, 1629, 1638, 1637
  200064, 1297, 1298, 1307, 1306, 1630, 1631, 1640, 1639
  200065, 1298, 1299, 1308, 1307, 1631, 1632, 1641, 1640
  200066, 1299, 1300, 1309, 1308, 1632, 1633, 1642, 1641
  200067, 1300, 1301, 1310, 1309, 1633, 1634, 1643, 1642
  200068, 1301, 1302, 1311, 1310, 1634, 1635, 1644, 1643
  200069, 1302, 1303, 1312, 1311, 1635, 1636, 1645, 1644
  200070, 1303, 1304, 1313, 1312, 1636, 1637, 1646, 1645
  200071, 1304, 1305, 1314, 1313, 1637, 1638, 1647, 1646
  200072, 1306, 1307, 1316, 1315, 1639, 1640, 1649, 1648
  200073, 1307, 1308, 1317, 1316, 1640, 1641, 1650, 1649
  200074, 1308, 1309, 1318, 1317, 1641, 1642, 1651, 1650
  200075, 1309, 1310, 1319, 1318, 1642, 1643, 1652, 1651
  200076, 1310, 1311, 1320, 1319, 1643, 1644, 1653, 1652
  200077, 1311, 1312, 1321, 1320, 1644, 1645, 1654, 1653
  200078, 1312, 1313, 1322, 1321, 1645, 1646, 1655, 1654
  200079, 1313, 1314, 1323, 1322, 1646, 1647, 1656, 1655
  200080, 1315, 1316, 1325, 1324, 1648, 1649, 1658, 1657
  200081, 1316, 1317, 1326, 1325, 1649, 1650, 1659, 1658
  200082, 1317, 1318, 1327, 1326, 1650, 1651, 1660, 1659
  200083, 1318, 1319, 1328, 1327, 1651, 1652, 1661, 1660
  200084, 1319, 1320, 1329, 1328, 1652, 1653, 1662, 1661
  200085, 1320, 1321, 1330, 1329, 1653, 1654, 1663, 1662
  200086, 1321, 1322, 1331, 1330, 1654, 1655, 1664, 1663
  200087, 1322, 1323, 1332, 1331, 1655, 1656, 1665, 1664
  200088, 1324, 1325, 1334, 1333, 1657, 1658, 1667, 1666
  200089, 1325, 1326, 1335, 1334, 1658, 1659, 1668, 1667
  200090, 1326, 1327, 1336, 1335, 1659, 1660, 1669, 1668
  200091, 1327, 1328, 1337, 1336, 1660, 1661, 1670, 1669
  200092, 1328, 1329, 1338, 1337, 1661, 1662, 1671, 1670
  200093, 1329, 1330, 1339, 1338, 1662, 1663, 1672, 1671
  200094, 1330, 1331, 1340, 1339, 1663, 1664, 1673, 1672
  200095, 1331, 1332, 1341, 1340, 1664, 1665, 1674, 1673
  200096, 1333, 1334, 1343, 1342, 1666, 1667, 1676, 1675
  200097, 1334, 1335, 1344, 1343, 1667, 1668, 1677, 1676
  200098, 1335, 1336, 1345, 1344, 1668, 1669, 1678, 1677
  200099, 1336, 1337, 1346, 1345, 1669, 1670, 1679, 1678
  200100, 1337, 1338, 1347, 1346, 1670, 1671, 1680, 1679
  200101, 1338, 1339, 1348, 1347, 1671, 1672, 1681, 1680
  200102, 1339, 1340, 1349, 1348, 1672, 1673, 1682, 1681
  200103, 1340, 1341, 1350, 1349, 1673, 1674, 1683, 1682
  200104, 1342, 1343, 1352, 1351, 1675, 1676, 1685, 1684
  200105, 1343, 1344, 1353, 1352, 1676, 1677, 1686, 1685
  200106, 1344, 1345, 1354, 1353, 1677, 1678, 1687, 1686
  200107, 1345, 1346, 1355, 1354, 1678, 1679, 1688, 1687
  200108, 1346, 1347, 1356, 1355, 1679, 1680, 1689, 1688
  200109, 1347, 1348, 1357, 1356, 1680, 1681, 1690, 1689
  200110, 1348, 1349, 1358, 1357, 1681, 1682, 1691, 1690
  200111, 1349, 1350, 1359, 1358, 1682, 1683, 1692, 1691
  200112, 1351, 1352, 1361, 1360, 1684, 1685, 1694, 1693
  200113, 1352, 1353, 1362, 1361, 1685, 1686, 1695, 1694
  200114, 1353, 1354, 1363, 1362, 1686, 1687, 1696, 1695
  200115, 1354, 1355, 1364, 1363, 1687, 1688, 1697, 1696
  200116, 1355, 1356, 1365, 1364, 1688, 1689, 1698, 1697
  200117, 1356, 1357, 1366, 1365, 1689, 1690, 1699, 1698
  200118, 1357, 1358, 1367, 1366, 1690, 1691, 1700, 1699
  200119, 1358, 1359, 1368, 1367, 1691, 1692, 1701, 1700
  200120, 1360, 1361, 1370, 1369, 1693, 1694, 1703, 1702
  200121, 1361, 1362, 1371, 1370, 1694, 1695, 1704, 1703
  200122, 1362, 1363, 1372, 1371, 1695, 1696, 1705, 1704
  200123, 1363, 1364, 1373, 1372, 1696, 1697, 1706, 1705
  200124, 1364, 1365, 1374, 1373, 1697, 1698, 1707, 1706
  200125, 1365, 1366, 1375, 1374, 1698, 1699, 1708, 1707
  200126, 1366, 1367, 1376, 1375, 1699, 1700, 1709, 1708
  200127, 1367, 1368, 1377, 1376, 1700, 1701, 1710, 1709
  200128, 1369, 1370, 1379, 1378, 1702, 1703, 1712, 1711
  200129, 1370, 1371, 1380, 1379, 1703, 1704, 1713, 1712
  200130, 1371, 1372, 1381, 1380, 1704, 1705, 1714, 1713
  200131, 1372, 1373, 1382, 1381, 1705, 1706, 1715, 1714
  200132, 1373, 1374, 1383, 1382, 1706, 1707, 1716, 1715
  200133, 1374, 1375, 1384, 1383, 1707, 1708, 1717, 1716
  200134, 1375, 1376, 1385, 1384, 1708, 1709, 1718, 1717
  200135, 1376, 1377, 1386, 1385, 1709, 1710, 1719, 1718
  200136, 1378, 1379, 1388, 1387, 1711, 1712, 1721, 1720
  200137, 1379, 1380, 1389, 1388, 1712, 1713, 1722, 1721
  200138, 1380, 1381, 1390, 1389, 1713, 1714, 1723, 1722
  200139, 1381, 1382, 1391, 1390, 1714, 1715, 1724, 1723
  200140, 1382, 1383, 1392, 1391, 1715, 1716, 1725, 1724
  200141, 1383, 1384, 1393, 1392, 1716, 1717, 1726, 1725
  200142, 1384, 1385, 1394, 1393, 1717, 1718, 1727, 1726
  200143, 1385, 1386, 1395, 1394, 1718, 1719, 1728, 1727
  200144, 1387, 1388, 1397, 1396, 1720, 1721, 1730, 1729
  200145, 1388, 1389, 1398, 1397, 1721, 1722, 1731, 1730
  200146, 1389, 1390, 1399, 1398, 1722, 1723, 1732, 1731
  200147, 1390, 1391, 1400, 1399, 1723, 1724, 1733, 1732
  200148, 1391, 1392, 1401, 1400, 1724, 1725, 1734, 1733
  200149, 1392, 1393, 1402, 1401, 1725, 1726, 1735, 1734
  200150, 1393, 1394, 1403, 1402, 1726, 1727, 1736, 1735
  200151, 1394, 1395, 1404, 1403, 1727, 1728, 1737, 1736
  200152, 1396, 1397, 1406, 1405, 1729, 1730, 1739, 1738
  200153, 1397, 1398, 1407, 1406, 1730, 1731, 1740, 1739
  200154, 1398, 1399, 1408, 1407, 1731, 1732, 1741, 1740
  200155, 1399, 1400, 1409, 1408, 1732, 1733, 1742, 1741
  200156, 1400, 1401, 1410, 1409, 1733, 1734, 1743, 1742
  200157, 1401, 1402, 1411, 1410, 1734, 1735, 1744, 1743
  200158, 1402, 1403, 1412, 1411, 1735, 1736, 1745, 1744
  200159, 1403, 1404, 1413, 1412, 1736, 1737, 1746, 1745
  200160, 1405, 1406, 1415, 1414, 1738, 1739, 1748, 1747
  200161, 1406, 1407, 1416, 1415, 1739, 1740, 1749, 1748
  200162, 1407, 1408, 1417, 1416, 1740, 1741, 1750, 1749
  200163, 1408, 1409, 1418, 1417, 1741, 1742, 1751, 1750
  200164, 1409, 1410, 1419, 1418, 1742, 1743, 1752, 1751
  200165, 1410, 1411, 1420, 1419, 1743, 1744, 1753, 1752
  200166, 1411, 1412, 1421, 1420, 1744, 1745, 1754, 1753
  200167, 1412, 1413, 1422, 1421, 1745, 1746, 1755, 1754
  200168, 1414, 1415, 1424, 1423, 1747, 1748, 1757, 1756
  200169, 1415, 1416, 1425, 1424, 1748, 1749, 1758, 1757
  200170, 1416, 1417, 1426, 1425, 1749, 1750, 1759, 1758
  200171, 1417, 1418, 1427, 1426, 1750, 1751, 1760, 1759
  200172, 1418, 1419, 1428, 1427, 1751, 1752, 1761, 1760
  200173, 1419, 1420, 1429, 1428, 1752, 1753, 1762, 1761
  200174, 1420, 1421, 1430, 1429, 1753, 1754, 1763, 1762
  200175, 1421, 1422, 1431, 1430, 1754, 1755, 1764, 1763
  200176, 1423, 1424, 1433, 1432, 1756, 1757, 1766, 1765
  200177, 1424, 1425, 1434, 1433, 1757, 1758, 1767, 1766
  200178, 1425, 1426, 1435, 1434, 1758, 1759, 1768, 1767
  200179, 1426, 1427, 1436, 1435, 1759, 1760, 1769, 1768
  200180, 1427, 1428, 1437, 1436, 1760, 1761, 1770, 1769
  200181, 1428, 1429, 1438, 1437, 1761, 1762, 1771, 1770
  200182, 1429, 1430, 1439, 1438, 1762, 1763, 1772, 1771
  200183, 1430, 1431, 1440, 1439, 1763, 1764, 1773, 1772
  200184, 1432, 1433, 1442, 1441, 1765, 1766, 1775, 1774
  200185, 1433, 1434, 1443, 1442, 1766, 1767, 1776, 1775
  200186, 1434, 1435, 1444, 1443, 1767, 1768, 1777, 1776
  200187, 1435, 1436, 1445, 1444, 1768, 1769, 1778, 1777
  200188, 1436, 1437, 1446, 1445, 1769, 1770, 1779, 1778
  200189, 1437, 1438, 1447, 1446, 1770, 1771, 1780, 1779
  200190, 1438, 1439, 1448, 1447, 1771, 1772, 1781, 1780
  200191, 1439, 1440, 1449, 1448, 1772, 1773, 1782, 1781
  200192, 1441, 1442, 1451, 1450, 1774, 1775, 1784, 1783
  200193, 1442, 1443, 1452, 1451, 1775, 1776, 1785, 1784
  200194, 1443, 1444, 1453, 1452, 1776, 1777, 1786, 1785
  200195, 1444, 1445, 1454, 1453, 1777, 1778, 1787, 1786
  200196, 1445, 1446, 1455, 1454, 1778, 1779, 1788, 1787
  200197, 1446, 1447, 1456, 1455, 1779, 1780, 1789, 1788
  200198, 1447, 1448, 1457, 1456, 1780, 1781, 1790, 1789
  200199, 1448, 1449, 1458, 1457, 1781, 1782, 1791, 1790
  200200, 1450, 1451, 1460, 1459, 1783, 1784, 1793, 1792
  200201, 1451, 1452, 1461, 1460, 1784, 1785, 1794, 1793
  200202, 1452, 1453, 1462, 1461, 1785, 1786, 1795, 1794
  200203, 1453, 1454, 1463, 1462, 1786, 1787, 1796, 1795
  200204, 1454, 1455, 1464, 1463, 1787, 1788, 1797, 1796
  200205, 1455, 1456, 1465, 1464, 1788, 1789, 1798, 1797
  200206, 1456, 1457, 1466, 1465, 1789, 1790, 1799, 1798
  200207, 1457, 1458, 1467, 1466, 1790, 1791, 1800, 1799
  200208, 1459, 1460, 1469, 1468, 1792, 1793, 1802, 1801
  200209, 1460, 1461, 1470, 1469, 1793, 1794, 1803, 1802
  200210, 1461, 1462, 1471, 1470, 1794, 1795, 1804, 1803
  200211, 1462, 1463, 1472, 1471, 1795, 1796, 1805, 1804
  200212, 1463, 1464, 1473, 1472, 1796, 1797, 1806, 1805
  200213, 1464, 1465, 1474, 1473, 1797, 1798, 1807, 1806
  200214, 1465, 1466, 1475, 1474, 1798, 1799, 1808, 1807
  200215, 1466, 1467, 1476, 1475, 1799, 1800, 1809, 1808
  200216, 1468, 1469, 1478, 1477, 1801, 1802, 1811, 1810
  200217, 1469, 1470, 1479, 1478, 1802, 1803, 1812, 1811
  200218, 1470, 1471, 1480, 1479, 1803, 1804, 1813, 1812
  200219, 1471, 1472, 1481, 1480, 1804, 1805, 1814, 1813
  200220, 1472, 1473, 1482, 1481, 1805, 1806, 1815, 1814
  200221, 1473, 1474, 1483, 1482, 1806, 1807, 1816, 1815
  200222, 1474, 1475, 1484, 1483, 1807, 1808, 1817, 1816
  200223, 1475, 1476, 1485, 1484, 1808, 1809, 1818, 1817
  200224, 1477, 1478, 1487, 1486, 1810, 1811, 1820, 1819
  200225, 1478, 1479, 1488, 1487, 1811, 1812, 1821, 1820
  200226, 1479, 1480, 1489, 1488, 1812, 1813, 1822, 1821
  200227, 1480, 1481, 1490, 1489, 1813, 1814, 1823, 1822
  200228, 1481, 1482, 1491, 1490, 1814, 1815, 1824, 1823
  200229, 1482, 1483, 1492, 1491, 1815, 1816, 1825, 1824
  200230, 1483, 1484, 1493, 1492, 1816, 1817, 1826, 1825
  200231, 1484, 1485, 1494, 1493, 1817, 1818, 1827, 1826
  200232, 1486, 1487, 1496, 1495, 1819, 1820, 1829, 1828
  200233, 1487, 1488, 1497, 1496, 1820, 1821, 1830, 1829
  200234, 1488, 1489, 1498, 1497, 1821, 1822, 1831, 1830
  200235, 1489, 1490, 1499, 1498, 1822, 1823, 1832, 1831
  200236, 1490, 1491, 1500, 1499, 1823, 1824, 1833, 1832
  200237, 1491, 1492, 1501, 1500, 1824, 1825, 1834, 1833
  200238, 1492, 1493, 1502, 1501, 1825, 1826, 1835, 1834
  200239, 1493, 1494, 1503, 1502, 1826, 1827, 1836, 1835
  200240, 1495, 1496, 1505, 1504, 1828, 1829, 1838, 1837
  200241, 1496, 1497, 1506, 1505, 1829, 1830, 1839, 1838
  200242, 1497, 1498, 1507, 1506, 1830, 1831, 1840, 1839
  200243, 1498, 1499, 1508, 1507, 1831, 1832, 1841, 1840
  200244, 1499, 1500, 1509, 1508, 1832, 1833, 1842, 1841
  200245, 1500, 1501, 1510, 1509, 1833, 1834, 1843, 1842
  200246, 1501, 1502, 1511, 1510, 1834, 1835, 1844, 1843
  200247, 1502, 1503, 1512, 1511, 1835, 1836, 1845, 1844
  200248, 1504, 1505, 1514, 1513, 1837, 1838, 1847, 1846
  200249, 1505, 1506, 1515, 1514, 1838, 1839, 1848, 1847
  200250, 1506, 1507, 1516, 1515, 1839, 1840, 1849, 1848
  200251, 1507, 1508, 1517, 1516, 1840, 1841, 1850, 1849
  200252, 1508, 1509, 1518, 1517, 1841, 1842, 1851, 1850
  200253, 1509, 1510, 1519, 1518, 1842, 1843, 1852, 1851
  200254, 1510, 1511, 1520, 1519, 1843, 1844, 1853, 1852
  200255, 1511, 1512, 1521, 1520, 1844, 1845, 1854, 1853
  200256, 1513, 1514, 1523, 1522, 1846, 1847, 1856, 1855
  200257, 1514, 1515, 1524, 1523, 1847, 1848, 1857, 1856
  200258, 1515, 1516, 1525, 1524, 1848, 1849, 1858, 1857
  200259, 1516, 1517, 1526, 1525, 1849, 1850, 1859, 1858
  200260, 1517, 1518, 1527, 1526, 1850, 1851, 1860, 1859
  200261, 1518, 1519, 1528, 1527, 1851, 1852, 1861, 1860
  200262, 1519, 1520, 1529, 1528, 1852, 1853, 1862, 1861
  200263, 1520, 1521, 1530, 1529, 1853, 1854, 1863, 1862
  200264, 1522, 1523, 1532, 1531, 1855, 1856, 1865, 1864
  200265, 1523, 1524, 1533, 1532, 1856, 1857, 1866, 1865
  200266, 1524, 1525, 1534, 1533, 1857, 1858, 1867, 1866
  200267, 1525, 1526, 1535, 1534, 1858, 1859, 1868, 1867
  200268, 1526, 1527, 1536, 1535, 1859, 1860, 1869, 1868
  200269, 1527, 1528, 1537, 1536, 1860, 1861, 1870, 1869
  200270, 1528, 1529, 1538, 1537, 1861, 1862, 1871, 1870
  200271, 1529, 1530, 1539, 1538, 1862, 1863, 1872, 1871
  200272, 1531, 1532, 1541, 1540, 1864, 1865, 1874, 1873
  200273, 1532, 1533, 1542, 1541, 1865, 1866, 1875, 1874
  200274, 1533, 1534, 1543, 1542, 1866, 1867, 1876, 1875
  200275, 1534, 1535, 1544, 1543, 1867, 1868, 1877, 1876
  200276, 1535, 1536, 1545, 1544, 1868, 1869, 1878, 1877
  200277, 1536, 1537, 1546, 1545, 1869, 1870, 1879, 1878
  200278, 1537, 1538, 1547, 1546, 1870, 1871, 1880, 1879
  200279, 1538, 1539, 1548, 1547, 1871, 1872, 1881, 1880
  200280, 1540, 1541, 1550, 1549, 1873, 1874, 1883, 1882
  200281, 1541, 1542, 1551, 1550, 1874, 1875, 1884, 1883
  200282, 1542, 1543, 1552, 1551, 1875, 1876, 1885, 1884
  200283, 1543, 1544, 1553, 1552, 1876, 1877, 1886, 1885
  200284, 1544, 1545, 1554, 1553, 1877, 1878, 1887, 1886
  200285, 1545, 1546, 1555, 1554, 1878, 1879, 1888, 1887
  200286, 1546, 1547, 1556, 1555, 1879, 1880, 1889, 1888
  200287, 1547, 1548, 1557, 1556, 1880, 1881, 1890, 1889
  200288, 1558, 1559, 1568, 1567, 1891, 1892, 1901, 1900
  200289, 1559, 1560, 1569, 1568, 1892, 1893, 1902, 1901
  200290, 1560, 1561, 1570, 1569, 1893, 1894, 1903, 1902
  200291, 1561, 1562, 1571, 1570, 1894, 1895, 1904, 1903
  200292, 1562, 1563, 1572, 1571, 1895, 1896, 1905, 1904
  200293, 1563, 1564, 1573, 1572, 1896, 1897, 1906, 1905
  200294, 1564, 1565, 1574, 1573, 1897, 1898, 1907, 1906
  200295, 1565, 1566, 1575, 1574, 1898, 1899, 1908, 1907
  200296, 1567, 1568, 1577, 1576, 1900, 1901, 1910, 1909
  200297, 1568, 1569, 1578, 1577, 1901, 1902, 1911, 1910
  200298, 1569, 1570, 1579, 1578, 1902, 1903, 1912, 1911
  200299, 1570, 1571, 1580, 1579, 1903, 1904, 1913, 1912
  200300, 1571, 1572, 1581, 1580, 1904, 1905, 1914, 1913
  200301, 1572, 1573, 1582, 1581, 1905, 1906, 1915, 1914
  200302, 1573, 1574, 1583, 1582, 1906, 1907, 1916, 1915
  200303, 1574, 1575, 1584, 1583, 1907, 1908, 1917, 1916
  200304, 1576, 1577, 1586, 1585, 1909, 1910, 1919, 1918
  200305, 1577, 1578, 1587, 1586, 1910, 1911, 1920, 1919
  200306, 1578, 1579, 1588, 1587, 1911, 1912, 1921, 1920
  200307, 1579, 1580, 1589, 1588, 1912, 1913, 1922, 1921
  200308, 1580, 1581, 1590, 1589, 1913, 1914, 1923, 1922
  200309, 1581, 1582, 1591, 1590, 1914, 1915, 1924, 1923
  200310, 1582, 1583, 1592, 1591, 1915, 1916, 1925, 1924
  200311, 1583, 1584, 1593, 1592, 1916, 1917, 1926, 1925
  200312, 1585, 1586, 1595, 1594, 1918, 1919, 1928, 1927
  200313, 1586, 1587, 1596, 1595, 1919, 1920, 1929, 1928
  200314, 1587, 1588, 1597, 1596, 1920, 1921, 1930, 1929
  200315, 1588, 1589, 1598, 1597, 1921, 1922, 1931, 1930
  200316, 1589, 1590, 1599, 1598, 1922, 1923, 1932, 1931
  200317, 1590, 1591, 1600, 1599, 1923, 1924, 1933, 1932
  200318, 1591, 1592, 1601, 1600, 1924, 1925, 1934, 1933
  200319, 1592, 1593, 1602, 1601, 1925, 1926, 1935, 1934
  200320, 1594, 1595, 1604, 1603, 1927, 1928, 1937, 1936
  200321, 1595, 1596, 1605, 1604, 1928, 1929, 1938, 1937
  200322, 1596, 1597, 1606, 1605, 1929, 1930, 1939, 1938
  200323, 1597, 1598, 1607, 1606, 1930, 1931, 1940, 1939
  200324, 1598, 1599, 1608, 1607, 1931, 1932, 1941, 1940
  200325, 1599, 1600, 1609, 1608, 1932, 1933, 1942, 1941
  200326, 1600, 1601, 1610, 1609, 1933, 1934, 1943, 1942
  200327, 1601, 1602, 1611, 1610, 1934, 1935, 1944, 1943
  200328, 1603, 1604, 1613, 1612, 1936, 1937, 1946, 1945
  200329, 1604, 1605, 1614, 1613, 1937, 1938, 1947, 1946
  200330, 1605, 1606, 1615, 1614, 1938, 1939, 1948, 1947
  200331, 1606, 1607, 1616, 1615, 1939, 1940, 1949, 1948
  200332, 1607, 1608, 1617, 1616, 1940, 1941, 1950, 1949
  200333, 1608, 1609, 1618, 1617, 1941, 1942, 1951, 1950
  200334, 1609, 1610, 1619, 1618, 1942, 1943, 1952, 1951
  200335, 1610, 1611, 1620, 1619, 1943, 1944, 1953, 1952
  200336, 1612, 1613, 1622, 1621, 1945, 1946, 1955, 1954
  200337, 1613, 1614, 1623, 1622, 1946, 1947, 1956, 1955
  200338, 1614, 1615, 1624, 1623, 1947, 1948, 1957, 1956
  200339, 1615, 1616, 1625, 1624, 1948, 1949, 1958, 1957
  200340, 1616, 1617, 1626, 1625, 1949, 1950, 1959, 1958
  200341, 1617, 1618, 1627, 1626, 1950, 1951, 1960, 1959
  200342, 1618, 1619, 1628, 1627, 1951, 1952, 1961, 1960
  200343, 1619, 1620, 1629, 1628, 1952, 1953, 1962, 1961
  200344, 1621, 1622, 1631, 1630, 1954, 1955, 1964, 1963
  200345, 1622, 1623, 1632, 1631, 1955, 1956, 1965, 1964
  200346, 1623, 1624, 1633, 1632, 1956, 1957, 1966, 1965
  200347, 1624, 1625, 1634, 1633, 1957, 1958, 1967, 1966
  200348, 1625, 1626, 1635, 1634, 1958, 1959, 1968, 1967
  200349, 1626, 1627, 1636, 1635, 1959, 1960, 1969, 1968
  200350, 1627, 1628, 1637, 1636, 1960, 1961, 1970, 1969
  200351, 1628, 1629, 1638, 1637, 1961, 1962, 1971, 1970
  200352, 1630, 1631, 1640, 1639, 1963, 1964, 1973, 1972
  200353, 1631, 1632, 1641, 1640, 1964, 1965, 1974, 1973
  200354, 1632, 1633, 1642, 1641, 1965, 1966, 1975, 1974
  200355, 1633, 1634, 1643, 1642, 1966, 1967, 1976, 1975
  200356, 1634, 1635, 1644, 1643, 1967, 1968, 1977, 1976
  200357, 1635, 1636, 1645, 1644, 1968, 1969, 1978, 1977
  200358, 1636, 1637, 1646, 1645, 1969, 1970, 1979, 1978
  200359, 1637, 1638, 1647, 1646, 1970, 1971, 1980, 1979
  200360, 1639, 1640, 1649, 1648, 1972, 1973, 1982, 1981
  200361, 1640, 1641, 1650, 1649, 1973, 1974, 1983, 1982
  200362, 1641, 1642, 1651, 1650, 1974, 1975, 1984, 1983
  200363, 1642, 1643, 1652, 1651, 1975, 1976, 1985, 1984
  200364, 1643, 1644, 1653, 1652, 1976, 1977, 1986, 1985
  200365, 1644, 1645, 1654, 1653, 1977, 1978, 1987, 1986
  200366, 1645, 1646, 1655, 1654, 1978, 1979, 1988, 1987
  200367, 1646, 1647, 1656, 1655, 1979, 1980, 1989, 1988
  200368, 1648, 1649, 1658, 1657, 1981, 1982, 1991, 1990
  200369, 1649, 1650, 1659, 1658, 1982, 1983, 1992, 1991
  200370, 1650, 1651, 1660, 1659, 1983, 1984, 1993, 1992
  200371, 1651, 1652, 1661, 1660, 1984, 1985, 1994, 1993
  200372, 1652, 1653, 1662, 1661, 1985, 1986, 1995, 1994
  200373, 1653, 1654, 1663, 1662, 1986, 1987, 1996, 1995
  200374, 1654, 1655, 1664, 1663, 1987, 1988, 1997, 1996
  200375, 1655, 1656, 1665, 1664, 1988, 1989, 1998, 1997
  200376, 1657, 1658, 1667, 1666, 1990, 1991, 2000, 1999
  200377, 1658, 1659, 1668, 1667, 1991, 1992, 2001, 2000
  200378, 1659, 1660, 1669, 1668, 1992, 1993, 2002, 2001
  200379, 1660, 1661, 1670, 1669, 1993, 1994, 2003, 2002
  200380, 1661, 1662, 1671, 1670, 1994, 1995, 2004, 2003
  200381, 1662, 1663, 1672, 1671, 1995, 1996, 2005, 2004
  200382, 1663, 1664, 1673, 1672, 1996, 1997, 2006, 2005
  200383, 1664, 1665, 1674, 1673, 1997, 1998, 2007, 2006
  200384, 1666, 1667, 1676, 1675, 1999, 2000, 2009, 2008
  200385, 1667, 1668, 1677, 1676, 2000, 2001, 2010, 2009
  200386, 1668, 1669, 1678, 1677, 2001, 2002, 2011, 2010
  200387, 1669, 1670, 1679, 1678, 2002, 2003, 2012, 2011
  200388, 1670, 1671, 1680, 1679, 2003, 2004, 2013, 2012
  200389, 1671, 1672, 1681, 1680, 2004, 2005, 2014, 2013
  200390, 1672, 1673, 1682, 1681, 2005, 2006, 2015, 2014
  200391, 1673, 1674, 1683, 1682, 2006, 2007, 2016, 2015
  200392, 1675, 1676, 1685, 1684, 2008, 2009, 2018, 2017
  200393, 1676, 1677, 1686, 1685, 2009, 2010, 2019, 2018
  200394, 1677, 1678, 1687, 1686, 2010, 2011, 2020, 2019
  200395, 1678, 1679, 1688, 1687, 2011, 2012, 2021, 2020
  200396, 1679, 1680, 1689, 1688, 2012, 2013, 2022, 2021
  200397, 1680, 1681, 1690, 1689, 2013, 2014, 2023, 2022
  200398, 1681, 1682, 1691, 1690, 2014, 2015, 2024, 2023
  200399, 1682, 1683, 1692, 1691, 2015, 2016, 2025, 2024
  200400, 1684, 1685, 1694, 1693, 2017, 2018, 2027, 2026
  200401, 1685, 1686, 1695, 1694, 2018, 2019, 2028, 2027
  200402, 1686, 1687, 1696, 1695, 2019, 2020, 2029, 2028
  200403, 1687, 1688, 1697, 1696, 2020, 2021, 2030, 2029
  200404, 1688, 1689, 1698, 1697, 2021, 2022, 2031, 2030
  200405, 1689, 1690, 1699, 1698, 2022, 2023, 2032, 2031
  200406, 1690, 1691, 1700, 1699, 2023, 2024, 2033, 2032
  200407, 1691, 1692, 1701, 1700, 2024, 2025, 2034, 2033
  200408, 1693, 1694, 1703, 1702, 2026, 2027, 2036, 2035
  200409, 1694, 1695, 1704, 1703, 2027, 2028, 2037, 2036
  200410, 1695, 1696, 1705, 1704, 2028, 2029, 2038, 2037
  200411, 1696, 1697, 1706, 1705, 2029, 2030, 2039, 2038
  200412, 1697, 1698, 1707, 1706, 2030, 2031, 2040, 2039
  200413, 1698, 1699, 1708, 1707, 2031, 2032, 2041, 2040
  200414, 1699, 1700, 1709, 1708, 2032, 2033, 2042, 2041
  200415, 1700, 1701, 1710, 1709, 2033, 2034, 2043, 2042
  200416, 1702, 1703, 1712, 1711, 2035, 2036, 2045, 2044
  200417, 1703, 1704, 1713, 1712, 2036, 2037, 2046, 2045
  200418, 1704, 1705, 1714, 1713, 2037, 2038, 2047, 2046
  200419, 1705, 1706, 1715, 1714, 2038, 2039, 2048, 2047
  200420, 1706, 1707, 1716, 1715, 2039, 2040, 2049, 2048
  200421, 1707, 1708, 1717, 1716, 2040, 2041, 2050, 2049
  200422, 1708, 1709, 1718, 1717, 2041, 2042, 2051, 2050
  200423, 1709, 1710, 1719, 1718, 2042, 2043, 2052, 2051
  200424, 1711, 1712, 1721, 1720, 2044, 2045, 2054, 2053
  200425, 1712, 1713, 1722, 1721, 2045, 2046, 2055, 2054
  200426, 1713, 1714, 1723, 1722, 2046, 2047, 2056, 2055
  200427, 1714, 1715, 1724, 1723, 2047, 2048, 2057, 2056
  200428, 1715, 1716, 1725, 1724, 2048, 2049, 2058, 2057
  200429, 1716, 1717, 1726, 1725, 2049, 2050, 2059, 2058
  200430, 1717, 1718, 1727, 1726, 2050, 2051, 2060, 2059
  200431, 1718, 1719, 1728, 1727, 2051, 2052, 2061, 2060
  200432, 1720, 1721, 1730, 1729, 2053, 2054, 2063, 2062
  200433, 1721, 1722, 1731, 1730, 2054, 2055, 2064, 2063
  200434, 1722, 1723, 1732, 1731, 2055, 2056, 2065, 2064
  200435, 1723, 1724, 1733, 1732, 2056, 2057, 2066, 2065
  200436, 1724, 1725, 1734, 1733, 2057, 2058, 2067, 2066
  200437, 1725, 1726, 1735, 1734, 2058, 2059, 2068, 2067
  200438, 1726, 1727, 1736, 1735, 2059, 2060, 2069, 2068
  200439, 1727, 1728, 1737, 1736, 2060, 2061, 2070, 2069
  200440, 1729, 1730, 1739, 1738, 2062, 2063, 2072, 2071
  200441, 1730, 1731, 1740, 1739, 2063, 2064, 2073, 2072
  200442, 1731, 1732, 1741, 1740, 2064, 2065, 2074, 2073
  200443, 1732, 1733, 1742, 1741, 2065, 2066, 2075, 2074
  200444, 1733, 1734, 1743, 1742, 2066, 2067, 2076, 2075
  200445, 1734, 1735, 1744, 1743, 2067, 2068, 2077, 2076
  200446, 1735, 1736, 1745, 1744, 2068, 2069, 2078, 2077
  200447, 1736, 1737, 1746, 1745, 2069, 2070, 2079, 2078
  200448, 1738, 1739, 1748, 1747, 2071, 2072, 2081, 2080
  200449, 1739, 1740, 1749, 1748, 2072, 2073, 2082, 2081
  200450, 1740, 1741, 1750, 1749, 2073, 2074, 2083, 2082
  200451, 1741, 1742, 1751, 1750, 2074, 2075, 2084, 2083
  200452, 1742, 1743, 1752, 1751, 2075, 2076, 2085, 2084
  200453, 1743, 1744, 1753, 1752, 2076, 2077, 2086, 2085
  200454, 1744, 1745, 1754, 1753, 2077, 2078, 2087, 2086
  200455, 1745, 1746, 1755, 1754, 2078, 2079, 2088, 2087
  200456, 1747, 1748, 1757, 1756, 2080, 2081, 2090, 2089
  200457, 1748, 1749, 1758, 1757, 2081, 2082, 2091, 2090
  200458, 1749, 1750, 1759, 1758, 2082, 2083, 2092, 2091
  200459, 1750, 1751, 1760, 1759, 2083, 2084, 2093, 2092
  200460, 1751, 1752, 1761, 1760, 2084, 2085, 2094, 2093
  200461, 1752, 1753, 1762, 1761, 2085, 2086, 2095, 2094
  200462, 1753, 1754, 1763, 1762, 2086, 2087, 2096, 2095
  200463, 1754, 1755, 1764, 1763, 2087, 2088, 2097, 2096
  200464, 1756, 1757, 1766, 1765, 2089, 2090, 2099, 2098
  200465, 1757, 1758, 1767, 1766, 2090, 2091, 2100, 2099
  200466, 1758, 1759, 1768, 1767, 2091, 2092, 2101, 2100
  200467, 1759, 1760, 1769, 1768, 2092, 2093, 2102, 2101
  200468, 1760, 1761, 1770, 1769, 2093, 2094, 2103, 2102
  200469, 1761, 1762, 1771, 1770, 2094, 2095, 2104, 2103
  200470, 1762, 1763, 1772, 1771, 2095, 2096, 2105, 2104
  200471, 1763, 1764, 1773, 1772, 2096, 2097, 2106, 2105
  200472, 1765, 1766, 1775, 1774, 2098, 2099, 2108, 2107
  200473, 1766, 1767, 1776, 1775, 2099, 2100, 2109, 2108
  200474, 1767, 1768, 1777, 1776, 2100, 2101, 2110, 2109
  200475, 1768, 1769, 1778, 1777, 2101, 2102, 2111, 2110
  200476, 1769, 1770, 1779, 1778, 2102, 2103, 2112, 2111
  200477, 1770, 1771, 1780, 1779, 2103, 2104, 2113, 2112
  200478, 1771, 1772, 1781, 1780, 2104, 2105, 2114, 2113
  200479, 1772, 1773, 1782, 1781, 2105, 2106, 2115, 2114
  200480, 1774, 1775, 1784, 1783, 2107, 2108, 2117, 2116
  200481, 1775, 1776, 1785, 1784, 2108, 2109, 2118, 2117
  200482, 1776, 1777, 1786, 1785, 2109, 2110, 2119, 2118
  200483, 1777, 1778, 1787, 1786, 2110, 2111, 2120, 2119
  200484, 1778, 1779, 1788, 1787, 2111, 2112, 2121, 2120
  200485, 1779, 1780, 1789, 1788, 2112, 2113, 2122, 2121
  200486, 1780, 1781, 1790, 1789, 2113, 2114, 2123, 2122
  200487, 1781, 1782, 1791, 1790, 2114, 2115, 2124, 2123
  200488, 1783, 1784, 1793, 1792, 2116, 2117, 2126, 2125
  200489, 1784, 1785, 1794, 1793, 2117, 2118, 2127, 2126
  200490, 1785, 1786, 1795, 1794, 2118, 2119, 2128, 2127
  200491, 1786, 1787, 1796, 1795, 2119, 2120, 2129, 2128
  200492, 1787, 1788, 1797, 1796, 2120, 2121, 2130, 2129
  200493, 1788, 1789, 1798, 1797, 2121, 2122, 2131, 2130
  200494, 1789, 1790, 1799, 1798, 2122, 2123, 2132, 2131
  200495, 1790, 1791, 1800, 1799, 2123, 2124, 2133, 2132
  200496, 1792, 1793, 1802, 1801, 2125, 2126, 2135, 2134
  200497, 1793, 1794, 1803, 1802, 2126, 2127, 2136, 2135
  200498, 1794, 1795, 1804, 1803, 2127, 2128, 2137, 2136
  200499, 1795, 1796, 1805, 1804, 2128, 2129, 2138, 2137
  200500, 1796, 1797, 1806, 1805, 2129, 2130, 2139, 2138
  200501, 1797, 1798, 1807, 1806, 2130, 2131, 2140, 2139
  200502, 1798, 1799, 1808, 1807, 2131, 2132, 2141, 2140
  200503, 1799, 1800, 1809, 1808, 2132, 2133, 2142, 2141
  200504, 1801, 1802, 1811, 1810, 2134, 2135, 2144, 2143
  200505, 1802, 1803, 1812, 1811, 2135, 2136, 2145, 2144
  200506, 1803, 1804, 1813, 1812, 2136, 2137, 2146, 2145
  200507, 1804, 1805, 1814, 1813, 2137, 2138, 2147, 2146
  200508, 1805, 1806, 1815, 1814, 2138, 2139, 2148, 2147
  200509, 1806, 1807, 1816, 1815, 2139, 2140, 2149, 2148
  200510, 1807, 1808, 1817, 1816, 2140, 2141, 2150, 2149
  200511, 1808, 1809, 1818, 1817, 2141, 2142, 2151, 2150
  200512, 1810, 1811, 1820, 1819, 2143, 2144, 2153, 2152
  200513, 1811, 1812, 1821, 1820, 2144, 2145, 2154, 2153
  200514, 1812, 1813, 1822, 1821, 2145, 2146, 2155, 2154
  200515, 1813, 1814, 1823, 1822, 2146, 2147, 2156, 2155
  200516, 1814, 1815, 1824, 1823, 2147, 2148, 2157, 2156
  200517, 1815, 1816, 1825, 1824, 2148, 2149, 2158, 2157
  200518, 1816, 1817, 1826, 1825, 2149, 2150, 2159, 2158
  200519, 1817, 1818, 1827, 1826, 2150, 2151, 2160, 2159
  200520, 1819, 1820, 1829, 1828, 2152, 2153, 2162, 2161
  200521, 1820, 1821, 1830, 1829, 2153, 2154, 2163, 2162
  200522, 1821, 1822, 1831, 1830, 2154, 2155, 2164, 2163
  200523, 1822, 1823, 1832, 1831, 2155, 2156, 2165, 2164
  200524, 1823, 1824, 1833, 1832, 2156, 2157, 2166, 2165
  200525, 1824, 1825, 1834, 1833, 2157, 2158, 2167, 2166
  200526, 1825, 1826, 1835, 1834, 2158, 2159, 2168, 2167
  200527, 1826, 1827, 1836, 1835, 2159, 2160, 2169, 2168
  200528, 1828, 1829, 1838, 1837, 2161, 2162, 2171, 2170
  200529, 1829, 1830, 1839, 1838, 2162, 2163, 2172, 2171
  200530, 1830, 1831, 1840, 1839, 2163, 2164, 2173, 2172
  200531, 1831, 1832, 1841, 1840, 2164, 2165, 2174, 2173
  200532, 1832, 1833, 1842, 1841, 2165, 2166, 2175, 2174
  200533, 1833, 1834, 1843, 1842, 2166, 2167, 2176, 2175
  200534, 1834, 1835, 1844, 1843, 2167, 2168, 2177, 2176
  200535, 1835, 1836, 1845, 1844, 2168, 2169, 2178, 2177
  200536, 1837, 1838, 1847, 1846, 2170, 2171, 2180, 2179
  200537, 1838, 1839, 1848, 1847, 2171, 2172, 2181, 2180
  200538, 1839, 1840, 1849, 1848, 2172, 2173, 2182, 2181
  200539, 1840, 1841, 1850, 1849, 2173, 2174, 2183, 2182
  200540, 1841, 1842, 1851, 1850, 2174, 2175, 2184, 2183
  200541, 1842, 1843, 1852, 1851, 2175, 2176, 2185, 2184
  200542, 1843, 1844, 1853, 1852, 2176, 2177, 2186, 2185
  200543, 1844, 1845, 1854, 1853, 2177, 2178, 2187, 2186
  200544, 1846, 1847, 1856, 1855, 2179, 2180, 2189, 2188
  200545, 1847, 1848, 1857, 1856, 2180, 2181, 2190, 2189
  200546, 1848, 1849, 1858, 1857, 2181, 2182, 2191, 2190
  200547, 1849, 1850, 1859, 1858, 2182, 2183, 2192, 2191
  200548, 1850, 1851, 1860, 1859, 2183, 2184, 2193, 2192
  200549, 1851, 1852, 1861, 1860, 2184, 2185, 2194, 2193
  200550, 1852, 1853, 1862, 1861, 2185, 2186, 2195, 2194
  200551, 1853, 1854, 1863, 1862, 2186, 2187, 2196, 2195
  200552, 1855, 1856, 1865, 1864, 2188, 2189, 2198, 2197
  200553, 1856, 1857, 1866, 1865, 2189, 2190, 2199, 2198
  200554, 1857, 1858, 1867, 1866, 2190, 2191, 2200, 2199
  200555, 1858, 1859, 1868, 1867, 2191, 2192, 2201, 2200
  200556, 1859, 1860, 1869, 1868, 2192, 2193, 2202, 2201
  200557, 1860, 1861, 1870, 1869, 2193, 2194, 2203, 2202
  200558, 1861, 1862, 1871, 1870, 2194, 2195, 2204, 2203
  200559, 1862, 1863, 1872, 1871, 2195, 2196, 2205, 2204
  200560, 1864, 1865, 1874, 1873, 2197, 2198, 2207, 2206
  200561, 1865, 1866, 1875, 1874, 2198, 2199, 2208, 2207
  200562, 1866, 1867, 1876, 1875, 2199, 2200, 2209, 2208
  200563, 1867, 1868, 1877, 1876, 2200, 2201, 2210, 2209
  200564, 1868, 1869, 1878, 1877, 2201, 2202, 2211, 2210
  200565, 1869, 1870, 1879, 1878, 2202, 2203, 2212, 2211
  200566, 1870, 1871, 1880, 1879, 2203, 2204, 2213, 2212
  200567, 1871, 1872, 1881, 1880, 2204, 2205, 2214, 2213
  200568, 1873, 1874, 1883, 1882, 2206, 2207, 2216, 2215
  200569, 1874, 1875, 1884, 1883, 2207, 2208, 2217, 2216
  200570, 1875, 1876, 1885, 1884, 2208, 2209, 2218, 2217
  200571, 1876, 1877, 1886, 1885, 2209, 2210, 2219, 2218
  200572, 1877, 1878, 1887, 1886, 2210, 2211, 2220, 2219
  200573, 1878, 1879, 1888, 1887, 2211, 2212, 2221, 2220
  200574, 1879, 1880, 1889, 1888, 2212, 2213, 2222, 2221
  200575, 1880, 1881, 1890, 1889, 2213, 2214, 2223, 2222
  200576, 1891, 1892, 1901, 1900, 2224, 2225, 2234, 2233
  200577, 1892, 1893, 1902, 1901, 2225, 2226, 2235, 2234
  200578, 1893, 1894, 1903, 1902, 2226, 2227, 2236, 2235
  200579, 1894, 1895, 1904, 1903, 2227, 2228, 2237, 2236
  200580, 1895, 1896, 1905, 1904, 2228, 2229, 2238, 2237
  200581, 1896, 1897, 1906, 1905, 2229, 2230, 2239, 2238
  200582, 1897, 1898, 1907, 1906, 2230, 2231, 2240, 2239
  200583, 1898, 1899, 1908, 1907, 2231, 2232, 2241, 2240
  200584, 1900, 1901, 1910, 1909, 2233, 2234, 2243, 2242
  200585, 1901, 1902, 1911, 1910, 2234, 2235, 2244, 2243
  200586, 1902, 1903, 1912, 1911, 2235, 2236, 2245, 2244
  200587, 1903, 1904, 1913, 1912, 2236, 2237, 2246, 2245
  200588, 1904, 1905, 1914, 1913, 2237, 2238, 2247, 2246
  200589, 1905, 1906, 1915, 1914, 2238, 2239, 2248, 2247
  200590, 1906, 1907, 1916, 1915, 2239, 2240, 2249, 2248
  200591, 1907, 1908, 1917, 1916, 2240, 2241, 2250, 2249
  200592, 1909, 1910, 1919, 1918, 2242, 2243, 2252, 2251
  200593, 1910, 1911, 1920, 1919, 2243, 2244, 2253, 2252
  200594, 1911, 1912, 1921, 1920, 2244, 2245, 2254, 2253
  200595, 1912, 1913, 1922, 1921, 2245, 2246, 2255, 2254
  200596, 1913, 1914, 1923, 1922, 2246, 2247, 2256, 2255
  200597, 1914, 1915, 1924, 1923, 2247, 2248, 2257, 2256
  200598, 1915, 1916, 1925, 1924, 2248, 2249, 2258, 2257
  200599, 1916, 1917, 1926, 1925, 2249, 2250, 2259, 2258
  200600, 1918, 1919, 1928, 1927, 2251, 2252, 2261, 2260
  200601, 1919, 1920, 1929, 1928, 2252, 2253, 2262, 2261
  200602, 1920, 1921, 1930, 1929, 2253, 2254, 2263, 2262
  200603, 1921, 1922, 1931, 1930, 2254, 2255, 2264, 2263
  200604, 1922, 1923, 1932, 1931, 2255, 2256, 2265, 2264
  200605, 1923, 1924, 1933, 1932, 2256, 2257, 2266, 2265
  200606, 1924, 1925, 1934, 1933, 2257, 2258, 2267, 2266
  200607, 1925, 1926, 1935, 1934, 2258, 2259, 2268, 2267
  200608, 1927, 1928, 1937, 1936, 2260, 2261, 2270, 2269
  200609, 1928, 1929, 1938, 1937, 2261, 2262, 2271, 2270
  200610, 1929, 1930, 1939, 1938, 2262, 2263, 2272, 2271
  200611, 1930, 1931, 1940, 1939, 2263, 2264, 2273, 2272
  200612, 1931, 1932, 1941, 1940, 2264, 2265, 2274, 2273
  200613, 1932, 1933, 1942, 1941, 2265, 2266, 2275, 2274
  200614, 1933, 1934, 1943, 1942, 2266, 2267, 2276, 2275
  200615, 1934, 1935, 1944, 1943, 2267, 2268, 2277, 2276
  200616, 1936, 1937, 1946, 1945, 2269, 2270, 2279, 2278
  200617, 1937, 1938, 1947, 1946, 2270, 2271, 2280, 2279
  200618, 1938, 1939, 1948, 1947, 2271, 2272, 2281, 2280
  200619, 1939, 1940, 1949, 1948, 2272, 2273, 2282, 2281
  200620, 1940, 1941, 1950, 1949, 2273, 2274, 2283, 2282
  200621, 1941, 1942, 1951, 1950, 2274, 2275, 2284, 2283
  200622, 1942, 1943, 1952, 1951, 2275, 2276, 2285, 2284
  200623, 1943, 1944, 1953, 1952, 2276, 2277, 2286, 2285
  200624, 1945, 1946, 1955, 1954, 2278, 2279, 2288, 2287
  200625, 1946, 1947, 1956, 1955, 2279, 2280, 2289, 2288
  200626, 1947, 1948, 1957, 1956, 2280, 2281, 2290, 2289
  200627, 1948, 1949, 1958, 1957, 2281, 2282, 2291, 2290
  200628, 1949, 1950, 1959, 1958, 2282, 2283, 2292, 2291
  200629, 1950, 1951, 1960, 1959, 2283, 2284, 2293, 2292
  200630, 1951, 1952, 1961, 1960, 2284, 2285, 2294, 2293
  200631, 1952, 1953, 1962, 1961, 2285, 2286, 2295, 2294
  200632, 1954, 1955, 1964, 1963, 2287, 2288, 2297, 2296
  200633, 1955, 1956, 1965, 1964, 2288, 2289, 2298, 2297
  200634, 1956, 1957, 1966, 1965, 2289, 2290, 2299, 2298
  200635, 1957, 1958, 1967, 1966, 2290, 2291, 2300, 2299
  200636, 1958, 1959, 1968, 1967, 2291, 2292, 2301, 2300
  200637, 1959, 1960, 1969, 1968, 2292, 2293, 2302, 2301
  200638, 1960, 1961, 1970, 1969, 2293, 2294, 2303, 2302
  200639, 1961, 1962, 1971, 1970, 2294, 2295, 2304, 2303
  200640, 1963, 1964, 1973, 1972, 2296, 2297, 2306, 2305
  200641, 1964, 1965, 1974, 1973, 2297, 2298, 2307, 2306
  200642, 1965, 1966, 1975, 1974, 2298, 2299, 2308, 2307
  200643, 1966, 1967, 1976, 1975, 2299, 2300, 2309, 2308
  200644, 1967, 1968, 1977, 1976, 2300, 2301, 2310, 2309
  200645, 1968, 1969, 1978, 1977, 2301, 2302, 2311, 2310
  200646, 1969, 1970, 1979, 1978, 2302, 2303, 2312, 2311
  200647, 1970, 1971, 1980, 1979, 2303, 2304, 2313, 2312
  200648, 1972, 1973, 1982, 1981, 2305, 2306, 2315, 2314
  200649, 1973, 1974, 1983, 1982, 2306, 2307, 2316, 2315
  200650, 1974, 1975, 1984, 1983, 2307, 2308, 2317, 2316
  200651, 1975, 1976, 1985, 1984, 2308, 2309, 2318, 2317
  200652, 1976, 1977, 1986, 1985, 2309, 2310, 2319, 2318
  200653, 1977, 1978, 1987, 1986, 2310, 2311, 2320, 2319
  200654, 1978, 1979, 1988, 1987, 2311, 2312, 2321, 2320
  200655, 1979, 1980, 1989, 1988, 2312, 2313, 2322, 2321
  200656, 1981, 1982, 1991, 1990, 2314, 2315, 2324, 2323
  200657, 1982, 1983, 1992, 1991, 2315, 2316, 2325, 2324
  200658, 1983, 1984, 1993, 1992, 2316, 2317, 2326, 2325
  200659, 1984, 1985, 1994, 1993, 2317, 2318, 2327, 2326
  200660, 1985, 1986, 1995, 1994, 2318, 2319, 2328, 2327
  200661, 1986, 1987, 1996, 1995, 2319, 2320, 2329, 2328
  200662, 1987, 1988, 1997, 1996, 2320, 2321, 2330, 2329
  200663, 1988, 1989, 1998, 1997, 2321, 2322, 2331, 2330
  200664, 1990, 1991, 2000, 1999, 2323, 2324, 2333, 2332
  200665, 1991, 1992, 2001, 2000, 2324, 2325, 2334, 2333
  200666, 1992, 1993, 2002, 2001, 2325, 2326, 2335, 2334
  200667, 1993, 1994, 2003, 2002, 2326, 2327, 2336, 2335
  200668, 1994, 1995, 2004, 2003, 2327, 2328, 2337, 2336
  200669, 1995, 1996, 2005, 2004, 2328, 2329, 2338, 2337
  200670, 1996, 1997, 2006, 2005, 2329, 2330, 2339, 2338
  200671, 1997, 1998, 2007, 2006, 2330, 2331, 2340, 2339
  200672, 1999, 2000, 2009, 2008, 2332, 2333, 2342, 2341
  200673, 2000, 2001, 2010, 2009, 2333, 2334, 2343, 2342
  200674, 2001, 2002, 2011, 2010, 2334, 2335, 2344, 2343
  200675, 2002, 2003, 2012, 2011, 2335, 2336, 2345, 2344
  200676, 2003, 2004, 2013, 2012, 2336, 2337, 2346, 2345
  200677, 2004, 2005, 2014, 2013, 2337, 2338, 2347, 2346
  200678, 2005, 2006, 2015, 2014, 2338, 2339, 2348, 2347
  200679, 2006, 2007, 2016, 2015, 2339, 2340, 2349, 2348
  200680, 2008, 2009, 2018, 2017, 2341, 2342, 2351, 2350
  200681, 2009, 2010, 2019, 2018, 2342, 2343, 2352, 2351
  200682, 2010, 2011, 2020, 2019, 2343, 2344, 2353, 2352
  200683, 2011, 2012, 2021, 2020, 2344, 2345, 2354, 2353
  200684, 2012, 2013, 2022, 2021, 2345, 2346, 2355, 2354
  200685, 2013, 2014, 2023, 2022, 2346, 2347, 2356, 2355
  200686, 2014, 2015, 2024, 2023, 2347, 2348, 2357, 2356
  200687, 2015, 2016, 2025, 2024, 2348, 2349, 2358, 2357
  200688, 2017, 2018, 2027, 2026, 2350, 2351, 2360, 2359
  200689, 2018, 2019, 2028, 2027, 2351, 2352, 2361, 2360
  200690, 2019, 2020, 2029, 2028, 2352, 2353, 2362, 2361
  200691, 2020, 2021, 2030, 2029, 2353, 2354, 2363, 2362
  200692, 2021, 2022, 2031, 2030, 2354, 2355, 2364, 2363
  200693, 2022, 2023, 2032, 2031, 2355, 2356, 2365, 2364
  200694, 2023, 2024, 2033, 2032, 2356, 2357, 2366, 2365
  200695, 2024, 2025, 2034, 2033, 2357, 2358, 2367, 2366
  200696, 2026, 2027, 2036, 2035, 2359, 2360, 2369, 2368
  200697, 2027, 2028, 2037, 2036, 2360, 2361, 2370, 2369
  200698, 2028, 2029, 2038, 2037, 2361, 2362, 2371, 2370
  200699, 2029, 2030, 2039, 2038, 2362, 2363, 2372, 2371
  200700, 2030, 2031, 2040, 2039, 2363, 2364, 2373, 2372
  200701, 2031, 2032, 2041, 2040, 2364, 2365, 2374, 2373
  200702, 2032, 2033, 2042, 2041, 2365, 2366, 2375, 2374
  200703, 2033, 2034, 2043, 2042, 2366, 2367, 2376, 2375
  200704, 2035, 2036, 2045, 2044, 2368, 2369, 2378, 2377
  200705, 2036, 2037, 2046, 2045, 2369, 2370, 2379, 2378
  200706, 2037, 2038, 2047, 2046, 2370, 2371, 2380, 2379
  200707, 2038, 2039, 2048, 2047, 2371, 2372, 2381, 2380
  200708, 2039, 2040, 2049, 2048, 2372, 2373, 2382, 2381
  200709, 2040, 2041, 2050, 2049, 2373, 2374, 2383, 2382
  200710, 2041, 2042, 2051, 2050, 2374, 2375, 2384, 2383
  200711, 2042, 2043, 2052, 2051, 2375, 2376, 2385, 2384
  200712, 2044, 2045, 2054, 2053, 2377, 2378, 2387, 2386
  200713, 2045, 2046, 2055, 2054, 2378, 2379, 2388, 2387
  200714, 2046, 2047, 2056, 2055, 2379, 2380, 2389, 2388
  200715, 2047, 2048, 2057, 2056, 2380, 2381, 2390, 2389
  200716, 2048, 2049, 2058, 2057, 2381, 2382, 2391, 2390
  200717, 2049, 2050, 2059, 2058, 2382, 2383, 2392, 2391
  200718, 2050, 2051, 2060, 2059, 2383, 2384, 2393, 2392
  200719, 2051, 2052, 2061, 2060, 2384, 2385, 2394, 2393
  200720, 2053, 2054, 2063, 2062, 2386, 2387, 2396, 2395
  200721, 2054, 2055, 2064, 2063, 2387, 2388, 2397, 2396
  200722, 2055, 2056, 2065, 2064, 2388, 2389, 2398, 2397
  200723, 2056, 2057, 2066, 2065, 2389, 2390, 2399, 2398
  200724, 2057, 2058, 2067, 2066, 2390, 2391, 2400, 2399
  200725, 2058, 2059, 2068, 2067, 2391, 2392, 2401, 2400
  200726, 2059, 2060, 2069, 2068, 2392, 2393, 2402, 2401
  200727, 2060, 2061, 2070, 2069, 2393, 2394, 2403, 2402
  200728, 2062, 2063, 2072, 2071, 2395, 2396, 2405, 2404
  200729, 2063, 2064, 2073, 2072, 2396, 2397, 2406, 2405
  200730, 2064, 2065, 2074, 2073, 2397, 2398, 2407, 2406
  200731, 2065, 2066, 2075, 2074, 2398, 2399, 2408, 2407
  200732, 2066, 2067, 2076, 2075, 2399, 2400, 2409, 2408
  200733, 2067, 2068, 2077, 2076, 2400, 2401, 2410, 2409
  200734, 2068, 2069, 2078, 2077, 2401, 2402, 2411, 2410
  200735, 2069, 2070, 2079, 2078, 2402, 2403, 2412, 2411
  200736, 2071, 2072, 2081, 2080, 2404, 2405, 2414, 2413
  200737, 2072, 2073, 2082, 2081, 2405, 2406, 2415, 2414
  200738, 2073, 2074, 2083, 2082, 2406, 2407, 2416, 2415
  200739, 2074, 2075, 2084, 2083, 2407, 2408, 2417, 2416
  200740, 2075, 2076, 2085, 2084, 2408, 2409, 2418, 2417
  200741, 2076, 2077, 2086, 2085, 2409, 2410, 2419, 2418
  200742, 2077, 2078, 2087, 2086, 2410, 2411, 2420, 2419
  200743, 2078, 2079, 2088, 2087, 2411, 2412, 2421, 2420
  200744, 2080, 2081, 2090, 2089, 2413, 2414, 2423, 2422
  200745, 2081, 2082, 2091, 2090, 2414, 2415, 2424, 2423
  200746, 2082, 2083, 2092, 2091, 2415, 2416, 2425, 2424
  200747, 2083, 2084, 2093, 2092, 2416, 2417, 2426, 2425
  200748, 2084, 2085, 2094, 2093, 2417, 2418, 2427, 2426
  200749, 2085, 2086, 2095, 2094, 2418, 2419, 2428, 2427
  200750, 2086, 2087, 2096, 2095, 2419, 2420, 2429, 2428
  200751, 2087, 2088, 2097, 2096, 2420, 2421, 2430, 2429
  200752, 2089, 2090, 2099, 2098, 2422, 2423, 2432, 2431
  200753, 2090, 2091, 2100, 2099, 2423, 2424, 2433, 2432
  200754, 2091, 2092, 2101, 2100, 2424, 2425, 2434, 2433
  200755, 2092, 2093, 2102, 2101, 2425, 2426, 2435, 2434
  200756, 2093, 2094, 2103, 2102, 2426, 2427, 2436, 2435
  200757, 2094, 2095, 2104, 2103, 2427, 2428, 2437, 2436
  200758, 2095, 2096, 2105, 2104, 2428, 2429, 2438, 2437
  200759, 2096, 2097, 2106, 2105, 2429, 2430, 2439, 2438
  200760, 2098, 2099, 2108, 2107, 2431, 2432, 2441, 2440
  200761, 2099, 2100, 2109, 2108, 2432, 2433, 2442, 2441
  200762, 2100, 2101, 2110, 2109, 2433, 2434, 2443, 2442
  200763, 2101, 2102, 2111, 2110, 2434, 2435, 2444, 2443
  200764, 2102, 2103, 2112, 2111, 2435, 2436, 2445, 2444
  200765, 2103, 2104, 2113, 2112, 2436, 2437, 2446, 2445
  200766, 2104, 2105, 2114, 2113, 2437, 2438, 2447, 2446
  200767, 2105, 2106, 2115, 2114, 2438, 2439, 2448, 2447
  200768, 2107, 2108, 2117, 2116, 2440, 2441, 2450, 2449
  200769, 2108, 2109, 2118, 2117, 2441, 2442, 2451, 2450
  200770, 2109, 2110, 2119, 2118, 2442, 2443, 2452, 2451
  200771, 2110, 2111, 2120, 2119, 2443, 2444, 2453, 2452
  200772, 2111, 2112, 2121, 2120, 2444, 2445, 2454, 2453
  200773, 2112, 2113, 2122, 2121, 2445, 2446, 2455, 2454
  200774, 2113, 2114, 2123, 2122, 2446, 2447, 2456, 2455
  200775, 2114, 2115, 2124, 2123, 2447, 2448, 2457, 2456
  200776, 2116, 2117, 2126, 2125, 2449, 2450, 2459, 2458
  200777, 2117, 2118, 2127, 2126, 2450, 2451, 2460, 2459
  200778, 2118, 2119, 2128, 2127, 2451, 2452, 2461, 2460
  200779, 2119, 2120, 2129, 2128, 2452, 2453, 2462, 2461
  200780, 2120, 2121, 2130, 2129, 2453, 2454, 2463, 2462
  200781, 2121, 2122, 2131, 2130, 2454, 2455, 2464, 2463
  200782, 2122, 2123, 2132, 2131, 2455, 2456, 2465, 2464
  200783, 2123, 2124, 2133, 2132, 2456, 2457, 2466, 2465
  200784, 2125, 2126, 2135, 2134, 2458, 2459, 2468, 2467
  200785, 2126, 2127, 2136, 2135, 2459, 2460, 2469, 2468
  200786, 2127, 2128, 2137, 2136, 2460, 2461, 2470, 2469
  200787, 2128, 2129, 2138, 2137, 2461, 2462, 2471, 2470
  200788, 2129, 2130, 2139, 2138, 2462, 2463, 2472, 2471
  200789, 2130, 2131, 2140, 2139, 2463, 2464, 2473, 2472
  200790, 2131, 2132, 2141, 2140, 2464, 2465, 2474, 2473
  200791, 2132, 2133, 2142, 2141, 2465, 2466, 2475, 2474
  200792, 2134, 2135, 2144, 2143, 2467, 2468, 2477, 2476
  200793, 2135, 2136, 2145, 2144, 2468, 2469, 2478, 2477
  200794, 2136, 2137, 2146, 2145, 2469, 2470, 2479, 2478
  200795, 2137, 2138, 2147, 2146, 2470, 2471, 2480, 2479
  200796, 2138, 2139, 2148, 2147, 2471, 2472, 2481, 2480
  200797, 2139, 2140, 2149, 2148, 2472, 2473, 2482, 2481
  200798, 2140, 2141, 2150, 2149, 2473, 2474, 2483, 2482
  200799, 2141, 2142, 2151, 2150, 2474, 2475, 2484, 2483
  200800, 2143, 2144, 2153, 2152, 2476, 2477, 2486, 2485
  200801, 2144, 2145, 2154, 2153, 2477, 2478, 2487, 2486
  200802, 2145, 2146, 2155, 2154, 2478, 2479, 2488, 2487
  200803, 2146, 2147, 2156, 2155, 2479, 2480, 2489, 2488
  200804, 2147, 2148, 2157, 2156, 2480, 2481, 2490, 2489
  200805, 2148, 2149, 2158, 2157, 2481, 2482, 2491, 2490
  200806, 2149, 2150, 2159, 2158, 2482, 2483, 2492, 2491
  200807, 2150, 2151, 2160, 2159, 2483, 2484, 2493, 2492
  200808, 2152, 2153, 2162, 2161, 2485, 2486, 2495, 2494
  200809, 2153, 2154, 2163, 2162, 2486, 2487, 2496, 2495
  200810, 2154, 2155, 2164, 2163, 2487, 2488, 2497, 2496
  200811, 2155, 2156, 2165, 2164, 2488, 2489, 2498, 2497
  200812, 2156, 2157, 2166, 2165, 2489, 2490, 2499, 2498
  200813, 2157, 2158, 2167, 2166, 2490, 2491, 2500, 2499
  200814, 2158, 2159, 2168, 2167, 2491, 2492, 2501, 2500
  200815, 2159, 2160, 2169, 2168, 2492, 2493, 2502, 2501
  200816, 2161, 2162, 2171, 2170, 2494, 2495, 2504, 2503
  200817, 2162, 2163, 2172, 2171, 2495, 2496, 2505, 2504
  200818, 2163, 2164, 2173, 2172, 2496, 2497, 2506, 2505
  200819, 2164, 2165, 2174, 2173, 2497, 2498, 2507, 2506
  200820, 2165, 2166, 2175, 2174, 2498, 2499, 2508, 2507
  200821, 2166, 2167, 2176, 2175, 2499, 2500, 2509, 2508
  200822, 2167, 2168, 2177, 2176, 2500, 2501, 2510, 2509
  200823, 2168, 2169, 2178, 2177, 2501, 2502, 2511, 2510
  200824, 2170, 2171, 2180, 2179, 2503, 2504, 2513, 2512
  200825, 2171, 2172, 2181, 2180, 2504, 2505, 2514, 2513
  200826, 2172, 2173, 2182, 2181, 2505, 2506, 2515, 2514
  200827, 2173, 2174, 2183, 2182, 2506, 2507, 2516, 2515
  200828, 2174, 2175, 2184, 2183, 2507, 2508, 2517, 2516
  200829, 2175, 2176, 2185, 2184, 2508, 2509, 2518, 2517
  200830, 2176, 2177, 2186, 2185, 2509, 2510, 2519, 2518
  200831, 2177, 2178, 2187, 2186, 2510, 2511, 2520, 2519
  200832, 2179, 2180, 2189, 2188, 2512, 2513, 2522, 2521
  200833, 2180, 2181, 2190, 2189, 2513, 2514, 2523, 2522
  200834, 2181, 2182, 2191, 2190, 2514, 2515, 2524, 2523
  200835, 2182, 2183, 2192, 2191, 2515, 2516, 2525, 2524
  200836, 2183, 2184, 2193, 2192, 2516, 2517, 2526, 2525
  200837, 2184, 2185, 2194, 2193, 2517, 2518, 2527, 2526
  200838, 2185, 2186, 2195, 2194, 2518, 2519, 2528, 2527
  200839, 2186, 2187, 2196, 2195, 2519, 2520, 2529, 2528
  200840, 2188, 2189, 2198, 2197, 2521, 2522, 2531, 2530
  200841, 2189, 2190, 2199, 2198, 2522, 2523, 2532, 2531
  200842, 2190, 2191, 2200, 2199, 2523, 2524, 2533, 2532
  200843, 2191, 2192, 2201, 2200, 2524, 2525, 2534, 2533
  200844, 2192, 2193, 2202, 2201, 2525, 2526, 2535, 2534
  200845, 2193, 2194, 2203, 2202, 2526, 2527, 2536, 2535
  200846, 2194, 2195, 2204, 2203, 2527, 2528, 2537, 2536
  200847, 2195, 2196, 2205, 2204, 2528, 2529, 2538, 2537
  200848, 2197, 2198, 2207, 2206, 2530, 2531, 2540, 2539
  200849, 2198, 2199, 2208, 2207, 2531, 2532, 2541, 2540
  200850, 2199, 2200, 2209, 2208, 2532, 2533, 2542, 2541
  200851, 2200, 2201, 2210, 2209, 2533, 2534, 2543, 2542
  200852, 2201, 2202, 2211, 2210, 2534, 2535, 2544, 2543
  200853, 2202, 2203, 2212, 2211, 2535, 2536, 2545, 2544
  200854, 2203, 2204, 2213, 2212, 2536, 2537, 2546, 2545
  200855, 2204, 2205, 2214, 2213, 2537, 2538, 2547, 2546
  200856, 2206, 2207, 2216, 2215, 2539, 2540, 2549, 2548
  200857, 2207, 2208, 2217, 2216, 2540, 2541, 2550, 2549
  200858, 2208, 2209, 2218, 2217, 2541, 2542, 2551, 2550
  200859, 2209, 2210, 2219, 2218, 2542, 2543, 2552, 2551
  200860, 2210, 2211, 2220, 2219, 2543, 2544, 2553, 2552
  200861, 2211, 2212, 2221, 2220, 2544, 2545, 2554, 2553
  200862, 2212, 2213, 2222, 2221, 2545, 2546, 2555, 2554
  200863, 2213, 2214, 2223, 2222, 2546, 2547, 2556, 2555
  200864, 2224, 2225, 2234, 2233, 2557, 2558, 2567, 2566
  200865, 2225, 2226, 2235, 2234, 2558, 2559, 2568, 2567
  200866, 2226, 2227, 2236, 2235, 2559, 2560, 2569, 2568
  200867, 2227, 2228, 2237, 2236, 2560, 2561, 2570, 2569
  200868, 2228, 2229, 2238, 2237, 2561, 2562, 2571, 2570
  200869, 2229, 2230, 2239, 2238, 2562, 2563, 2572, 2571
  200870, 2230, 2231, 2240, 2239, 2563, 2564, 2573, 2572
  200871, 2231, 2232, 2241, 2240, 2564, 2565, 2574, 2573
  200872, 2233, 2234, 2243, 2242, 2566, 2567, 2576, 2575
  200873, 2234, 2235, 2244, 2243, 2567, 2568, 2577, 2576
  200874, 2235, 2236, 2245, 2244, 2568, 2569, 2578, 2577
  200875, 2236, 2237, 2246, 2245, 2569, 2570, 2579, 2578
  200876, 2237, 2238, 2247, 2246, 2570, 2571, 2580, 2579
  200877, 2238, 2239, 2248, 2247, 2571, 2572, 2581, 2580
  200878, 2239, 2240, 2249, 2248, 2572, 2573, 2582, 2581
  200879, 2240, 2241, 2250, 2249, 2573, 2574, 2583, 2582
  200880, 2242, 2243, 2252, 2251, 2575, 2576, 2585, 2584
  200881, 2243, 2244, 2253, 2252, 2576, 2577, 2586, 2585
  200882, 2244, 2245, 2254, 2253, 2577, 2578, 2587, 2586
  200883, 2245, 2246, 2255, 2254, 2578, 2579, 2588, 2587
  200884, 2246, 2247, 2256, 2255, 2579, 2580, 2589, 2588
  200885, 2247, 2248, 2257, 2256, 2580, 2581, 2590, 2589
  200886, 2248, 2249, 2258, 2257, 2581, 2582, 2591, 2590
  200887, 2249, 2250, 2259, 2258, 2582, 2583, 2592, 2591
  200888, 2251, 2252, 2261, 2260, 2584, 2585, 2594, 2593
  200889, 2252, 2253, 2262, 2261, 2585, 2586, 2595, 2594
  200890, 2253, 2254, 2263, 2262, 2586, 2587, 2596, 2595
  200891, 2254, 2255, 2264, 2263, 2587, 2588, 2597, 2596
  200892, 2255, 2256, 2265, 2264, 2588, 2589, 2598, 2597
  200893, 2256, 2257, 2266, 2265, 2589, 2590, 2599, 2598
  200894, 2257, 2258, 2267, 2266, 2590, 2591, 2600, 2599
  200895, 2258, 2259, 2268, 2267, 2591, 2592, 2601, 2600
  200896, 2260, 2261, 2270, 2269, 2593, 2594, 2603, 2602
  200897, 2261, 2262, 2271, 2270, 2594, 2595, 2604, 2603
  200898, 2262, 2263, 2272, 2271, 2595, 2596, 2605, 2604
  200899, 2263, 2264, 2273, 2272, 2596, 2597, 2606, 2605
  200900, 2264, 2265, 2274, 2273, 2597, 2598, 2607, 2606
  200901, 2265, 2266, 2275, 2274, 2598, 2599, 2608, 2607
  200902, 2266, 2267, 2276, 2275, 2599, 2600, 2609, 2608
  200903, 2267, 2268, 2277, 2276, 2600, 2601, 2610, 2609
  200904, 2269, 2270, 2279, 2278, 2602, 2603, 2612, 2611
  200905, 2270, 2271, 2280, 2279, 2603, 2604, 2613, 2612
  200906, 2271, 2272, 2281, 2280, 2604, 2605, 2614, 2613
  200907, 2272, 2273, 2282, 2281, 2605, 2606, 2615, 2614
  200908, 2273, 2274, 2283, 2282, 2606, 2607, 2616, 2615
  200909, 2274, 2275, 2284, 2283, 2607, 2608, 2617, 2616
  200910, 2275, 2276, 2285, 2284, 2608, 2609, 2618, 2617
  200911, 2276, 2277, 2286, 2285, 2609, 2610, 2619, 2618
  200912, 2278, 2279, 2288, 2287, 2611, 2612, 2621, 2620
  200913, 2279, 2280, 2289, 2288, 2612, 2613, 2622, 2621
  200914, 2280, 2281, 2290, 2289, 2613, 2614, 2623, 2622
  200915, 2281, 2282, 2291, 2290, 2614, 2615, 2624, 2623
  200916, 2282, 2283, 2292, 2291, 2615, 2616, 2625, 2624
  200917, 2283, 2284, 2293, 2292, 2616, 2617, 2626, 2625
  200918, 2284, 2285, 2294, 2293, 2617, 2618, 2627, 2626
  200919, 2285, 2286, 2295, 2294, 2618, 2619, 2628, 2627
  200920, 2287, 2288, 2297, 2296, 2620, 2621, 2630, 2629
  200921, 2288, 2289, 2298, 2297, 2621, 2622, 2631, 2630
  200922, 2289, 2290, 2299, 2298, 2622, 2623, 2632, 2631
  200923, 2290, 2291, 2300, 2299, 2623, 2624, 2633, 2632
  200924, 2291, 2292, 2301, 2300, 2624, 2625, 2634, 2633
  200925, 2292, 2293, 2302, 2301, 2625, 2626, 2635, 2634
  200926, 2293, 2294, 2303, 2302, 2626, 2627, 2636, 2635
  200927, 2294, 2295, 2304, 2303, 2627, 2628, 2637, 2636
  200928, 2296, 2297, 2306, 2305, 2629, 2630, 2639, 2638
  200929, 2297, 2298, 2307, 2306, 2630, 2631, 2640, 2639
  200930, 2298, 2299, 2308, 2307, 2631, 2632, 2641, 2640
  200931, 2299, 2300, 2309, 2308, 2632, 2633, 2642, 2641
  200932, 2300, 2301, 2310, 2309, 2633, 2634, 2643, 2642
  200933, 2301, 2302, 2311, 2310, 2634, 2635, 2644, 2643
  200934, 2302, 2303, 2312, 2311, 2635, 2636, 2645, 2644
  200935, 2303, 2304, 2313, 2312, 2636, 2637, 2646, 2645
  200936, 2305, 2306, 2315, 2314, 2638, 2639, 2648, 2647
  200937, 2306, 2307, 2316, 2315, 2639, 2640, 2649, 2648
  200938, 2307, 2308, 2317, 2316, 2640, 2641, 2650, 2649
  200939, 2308, 2309, 2318, 2317, 2641, 2642, 2651, 2650
  200940, 2309, 2310, 2319, 2318, 2642, 2643, 2652, 2651
  200941, 2310, 2311, 2320, 2319, 2643, 2644, 2653, 2652
  200942, 2311, 2312, 2321, 2320, 2644, 2645, 2654, 2653
  200943, 2312, 2313, 2322, 2321, 2645, 2646, 2655, 2654
  200944, 2314, 2315, 2324, 2323, 2647, 2648, 2657, 2656
  200945, 2315, 2316, 2325, 2324, 2648, 2649, 2658, 2657
  200946, 2316, 2317, 2326, 2325, 2649, 2650, 2659, 2658
  200947, 2317, 2318, 2327, 2326, 2650, 2651, 2660, 2659
  200948, 2318, 2319, 2328, 2327, 2651, 2652, 2661, 2660
  200949, 2319, 2320, 2329, 2328, 2652, 2653, 2662, 2661
  200950, 2320, 2321, 2330, 2329, 2653, 2654, 2663, 2662
  200951, 2321, 2322, 2331, 2330, 2654, 2655, 2664, 2663
  200952, 2323, 2324, 2333, 2332, 2656, 2657, 2666, 2665
  200953, 2324, 2325, 2334, 2333, 2657, 2658, 2667, 2666
  200954, 2325, 2326, 2335, 2334, 2658, 2659, 2668, 2667
  200955, 2326, 2327, 2336, 2335, 2659, 2660, 2669, 2668
  200956, 2327, 2328, 2337, 2336, 2660, 2661, 2670, 2669
  200957, 2328, 2329, 2338, 2337, 2661, 2662, 2671, 2670
  200958, 2329, 2330, 2339, 2338, 2662, 2663, 2672, 2671
  200959, 2330, 2331, 2340, 2339, 2663, 2664, 2673, 2672
  200960, 2332, 2333, 2342, 2341, 2665, 2666, 2675, 2674
  200961, 2333, 2334, 2343, 2342, 2666, 2667, 2676, 2675
  200962, 2334, 2335, 2344, 2343, 2667, 2668, 2677, 2676
  200963, 2335, 2336, 2345, 2344, 2668, 2669, 2678, 2677
  200964, 2336, 2337, 2346, 2345, 2669, 2670, 2679, 2678
  200965, 2337, 2338, 2347, 2346, 2670, 2671, 2680, 2679
  200966, 2338, 2339, 2348, 2347, 2671, 2672, 2681, 2680
  200967, 2339, 2340, 2349, 2348, 2672, 2673, 2682, 2681
  200968, 2341, 2342, 2351, 2350, 2674, 2675, 2684, 2683
  200969, 2342, 2343, 2352, 2351, 2675, 2676, 2685, 2684
  200970, 2343, 2344, 2353, 2352, 2676, 2677, 2686, 2685
  200971, 2344, 2345, 2354, 2353, 2677, 2678, 2687, 2686
  200972, 2345, 2346, 2355, 2354, 2678, 2679, 2688, 2687
  200973, 2346, 2347, 2356, 2355, 2679, 2680, 2689, 2688
  200974, 2347, 2348, 2357, 2356, 2680, 2681, 2690, 2689
  200975, 2348, 2349, 2358, 2357, 2681, 2682, 2691, 2690
  200976, 2350, 2351, 2360, 2359, 2683, 2684, 2693, 2692
  200977, 2351, 2352, 2361, 2360, 2684, 2685, 2694, 2693
  200978, 2352, 2353, 2362, 2361, 2685, 2686, 2695, 2694
  200979, 2353, 2354, 2363, 2362, 2686, 2687, 2696, 2695
  200980, 2354, 2355, 2364, 2363, 2687, 2688, 2697, 2696
  200981, 2355, 2356, 2365, 2364, 2688, 2689, 2698, 2697
  200982, 2356, 2357, 2366, 2365, 2689, 2690, 2699, 2698
  200983, 2357, 2358, 2367, 2366, 2690, 2691, 2700, 2699
  200984, 2359, 2360, 2369, 2368, 2692, 2693, 2702, 2701
  200985, 2360, 2361, 2370, 2369, 2693, 2694, 2703, 2702
  200986, 2361, 2362, 2371, 2370, 2694, 2695, 2704, 2703
  200987, 2362, 2363, 2372, 2371, 2695, 2696, 2705, 2704
  200988, 2363, 2364, 2373, 2372, 2696, 2697, 2706, 2705
  200989, 2364, 2365, 2374, 2373, 2697, 2698, 2707, 2706
  200990, 2365, 2366, 2375, 2374, 2698, 2699, 2708, 2707
  200991, 2366, 2367, 2376, 2375, 2699, 2700, 2709, 2708
  200992, 2368, 2369, 2378, 2377, 2701, 2702, 2711, 2710
  200993, 2369, 2370, 2379, 2378, 2702, 2703, 2712, 2711
  200994, 2370, 2371, 2380, 2379, 2703, 2704, 2713, 2712
  200995, 2371, 2372, 2381, 2380, 2704, 2705, 2714, 2713
  200996, 2372, 2373, 2382, 2381, 2705, 2706, 2715, 2714
  200997, 2373, 2374, 2383, 2382, 2706, 2707, 2716, 2715
  200998, 2374, 2375, 2384, 2383, 2707, 2708, 2717, 2716
  200999, 2375, 2376, 2385, 2384, 2708, 2709, 2718, 2717
  201000, 2377, 2378, 2387, 2386, 2710, 2711, 2720, 2719
  201001, 2378, 2379, 2388, 2387, 2711, 2712, 2721, 2720
  201002, 2379, 2380, 2389, 2388, 2712, 2713, 2722, 2721
  201003, 2380, 2381, 2390, 2389, 2713, 2714, 2723, 2722
  201004, 2381, 2382, 2391, 2390, 2714, 2715, 2724, 2723
  201005, 2382, 2383, 2392, 2391, 2715, 2716, 2725, 2724
  201006, 2383, 2384, 2393, 2392, 2716, 2717, 2726, 2725
  201007, 2384, 2385, 2394, 2393, 2717, 2718, 2727, 2726
  201008, 2386, 2387, 2396, 2395, 2719, 2720, 2729, 2728
  201009, 2387, 2388, 2397, 2396, 2720, 2721, 2730, 2729
  201010, 2388, 2389, 2398, 2397, 2721, 2722, 2731, 2730
  201011, 2389, 2390, 2399, 2398, 2722, 2723, 2732, 2731
  201012, 2390, 2391, 2400, 2399, 2723, 2724, 2733, 2732
  201013, 2391, 2392, 2401, 2400, 2724, 2725, 2734, 2733
  201014, 2392, 2393, 2402, 2401, 2725, 2726, 2735, 2734
  201015, 2393, 2394, 2403, 2402, 2726, 2727, 2736, 2735
  201016, 2395, 2396, 2405, 2404, 2728, 2729, 2738, 2737
  201017, 2396, 2397, 2406, 2405, 2729, 2730, 2739, 2738
  201018, 2397, 2398, 2407, 2406, 2730, 2731, 2740, 2739
  201019, 2398, 2399, 2408, 2407, 2731, 2732, 2741, 2740
  201020, 2399, 2400, 2409, 2408, 2732, 2733, 2742, 2741
  201021, 2400, 2401, 2410, 2409, 2733, 2734, 2743, 2742
  201022, 2401, 2402, 2411, 2410, 2734, 2735, 2744, 2743
  201023, 2402, 2403, 2412, 2411, 2735, 2736, 2745, 2744
  201024, 2404, 2405, 2414, 2413, 2737, 2738, 2747, 2746
  201025, 2405, 2406, 2415, 2414, 2738, 2739, 2748, 2747
  201026, 2406, 2407, 2416, 2415, 2739, 2740, 2749, 2748
  201027, 2407, 2408, 2417, 2416, 2740, 2741, 2750, 2749
  201028, 2408, 2409, 2418, 2417, 2741, 2742, 2751, 2750
  201029, 2409, 2410, 2419, 2418, 2742, 2743, 2752, 2751
  201030, 2410, 2411, 2420, 2419, 2743, 2744, 2753, 2752
  201031, 2411, 2412, 2421, 2420, 2744, 2745, 2754, 2753
  201032, 2413, 2414, 2423, 2422, 2746, 2747, 2756, 2755
  201033, 2414, 2415, 2424, 2423, 2747, 2748, 2757, 2756
  201034, 2415, 2416, 2425, 2424, 2748, 2749, 2758, 2757
  201035, 2416, 2417, 2426, 2425, 2749, 2750, 2759, 2758
  201036, 2417, 2418, 2427, 2426, 2750, 2751, 2760, 2759
  201037, 2418, 2419, 2428, 2427, 2751, 2752, 2761, 2760
  201038, 2419, 2420, 2429, 2428, 2752, 2753, 2762, 2761
  201039, 2420, 2421, 2430, 2429, 2753, 2754, 2763, 2762
  201040, 2422, 2423, 2432, 2431, 2755, 2756, 2765, 2764
  201041, 2423, 2424, 2433, 2432, 2756, 2757, 2766, 2765
  201042, 2424, 2425, 2434, 2433, 2757, 2758, 2767, 2766
  201043, 2425, 2426, 2435, 2434, 2758, 2759, 2768, 2767
  201044, 2426, 2427, 2436, 2435, 2759, 2760, 2769, 2768
  201045, 2427, 2428, 2437, 2436, 2760, 2761, 2770, 2769
  201046, 2428, 2429, 2438, 2437, 2761, 2762, 2771, 2770
  201047, 2429, 2430, 2439, 2438, 2762, 2763, 2772, 2771
  201048, 2431, 2432, 2441, 2440, 2764, 2765, 2774, 2773
  201049, 2432, 2433, 2442, 2441, 2765, 2766, 2775, 2774
  201050, 2433, 2434, 2443, 2442, 2766, 2767, 2776, 2775
  201051, 2434, 2435, 2444, 2443, 2767, 2768, 2777, 2776
  201052, 2435, 2436, 2445, 2444, 2768, 2769, 2778, 2777
  201053, 2436, 2437, 2446, 2445, 2769, 2770, 2779, 2778
  201054, 2437, 2438, 2447, 2446, 2770, 2771, 2780, 2779
  201055, 2438, 2439, 2448, 2447, 2771, 2772, 2781, 2780
  201056, 2440, 2441, 2450, 2449, 2773, 2774, 2783, 2782
  201057, 2441, 2442, 2451, 2450, 2774, 2775, 2784, 2783
  201058, 2442, 2443, 2452, 2451, 2775, 2776, 2785, 2784
  201059, 2443, 2444, 2453, 2452, 2776, 2777, 2786, 2785
  201060, 2444, 2445, 2454, 2453, 2777, 2778, 2787, 2786
  201061, 2445, 2446, 2455, 2454, 2778, 2779, 2788, 2787
  201062, 2446, 2447, 2456, 2455, 2779, 2780, 2789, 2788
  201063, 2447, 2448, 2457, 2456, 2780, 2781, 2790, 2789
  201064, 2449, 2450, 2459, 2458, 2782, 2783, 2792, 2791
  201065, 2450, 2451, 2460, 2459, 2783, 2784, 2793, 2792
  201066, 2451, 2452, 2461, 2460, 2784, 2785, 2794, 2793
  201067, 2452, 2453, 2462, 2461, 2785, 2786, 2795, 2794
  201068, 2453, 2454, 2463, 2462, 2786, 2787, 2796, 2795
  201069, 2454, 2455, 2464, 2463, 2787, 2788, 2797, 2796
  201070, 2455, 2456, 2465, 2464, 2788, 2789, 2798, 2797
  201071, 2456, 2457, 2466, 2465, 2789, 2790, 2799, 2798
  201072, 2458, 2459, 2468, 2467, 2791, 2792, 2801, 2800
  201073, 2459, 2460, 2469, 2468, 2792, 2793, 2802, 2801
  201074, 2460, 2461, 2470, 2469, 2793, 2794, 2803, 2802
  201075, 2461, 2462, 2471, 2470, 2794, 2795, 2804, 2803
  201076, 2462, 2463, 2472, 2471, 2795, 2796, 2805, 2804
  201077, 2463, 2464, 2473, 2472, 2796, 2797, 2806, 2805
  201078, 2464, 2465, 2474, 2473, 2797, 2798, 2807, 2806
  201079, 2465, 2466, 2475, 2474, 2798, 2799, 2808, 2807
  201080, 2467, 2468, 2477, 2476, 2800, 2801, 2810, 2809
  201081, 2468, 2469, 2478, 2477, 2801, 2802, 2811, 2810
  201082, 2469, 2470, 2479, 2478, 2802, 2803, 2812, 2811
  201083, 2470, 2471, 2480, 2479, 2803, 2804, 2813, 2812
  201084, 2471, 2472, 2481, 2480, 2804, 2805, 2814, 2813
  201085, 2472, 2473, 2482, 2481, 2805, 2806, 2815, 2814
  201086, 2473, 2474, 2483, 2482, 2806, 2807, 2816, 2815
  201087, 2474, 2475, 2484, 2483, 2807, 2808, 2817, 2816
  201088, 2476, 2477, 2486, 2485, 2809, 2810, 2819, 2818
  201089, 2477, 2478, 2487, 2486, 2810, 2811, 2820, 2819
  201090, 2478, 2479, 2488, 2487, 2811, 2812, 2821, 2820
  201091, 2479, 2480, 2489, 2488, 2812, 2813, 2822, 2821
  201092, 2480, 2481, 2490, 2489, 2813, 2814, 2823, 2822
  201093, 2481, 2482, 2491, 2490, 2814, 2815, 2824, 2823
  201094, 2482, 2483, 2492, 2491, 2815, 2816, 2825, 2824
  201095, 2483, 2484, 2493, 2492, 2816, 2817, 2826, 2825
  201096, 2485, 2486, 2495, 2494, 2818, 2819, 2828, 2827
  201097, 2486, 2487, 2496, 2495, 2819, 2820, 2829, 2828
  201098, 2487, 2488, 2497, 2496, 2820, 2821, 2830, 2829
  201099, 2488, 2489, 2498, 2497, 2821, 2822, 2831, 2830
  201100, 2489, 2490, 2499, 2498, 2822, 2823, 2832, 2831
  201101, 2490, 2491, 2500, 2499, 2823, 2824, 2833, 2832
  201102, 2491, 2492, 2501, 2500, 2824, 2825, 2834, 2833
  201103, 2492, 2493, 2502, 2501, 2825, 2826, 2835, 2834
  201104, 2494, 2495, 2504, 2503, 2827, 2828, 2837, 2836
  201105, 2495, 2496, 2505, 2504, 2828, 2829, 2838, 2837
  201106, 2496, 2497, 2506, 2505, 2829, 2830, 2839, 2838
  201107, 2497, 2498, 2507, 2506, 2830, 2831, 2840, 2839
  201108, 2498, 2499, 2508, 2507, 2831, 2832, 2841, 2840
  201109, 2499, 2500, 2509, 2508, 2832, 2833, 2842, 2841
  201110, 2500, 2501, 2510, 2509, 2833, 2834, 2843, 2842
  201111, 2501, 2502, 2511, 2510, 2834, 2835, 2844, 2843
  201112, 2503, 2504, 2513, 2512, 2836, 2837, 2846, 2845
  201113, 2504, 2505, 2514, 2513, 2837, 2838, 2847, 2846
  201114, 2505, 2506, 2515, 2514, 2838, 2839, 2848, 2847
  201115, 2506, 2507, 2516, 2515, 2839, 2840, 2849, 2848
  201116, 2507, 2508, 2517, 2516, 2840, 2841, 2850, 2849
  201117, 2508, 2509, 2518, 2517, 2841, 2842, 2851, 2850
  201118, 2509, 2510, 2519, 2518, 2842, 2843, 2852, 2851
  201119, 2510, 2511, 2520, 2519, 2843, 2844, 2853, 2852
  201120, 2512, 2513, 2522, 2521, 2845, 2846, 2855, 2854
  201121, 2513, 2514, 2523, 2522, 2846, 2847, 2856, 2855
  201122, 2514, 2515, 2524, 2523, 2847, 2848, 2857, 2856
  201123, 2515, 2516, 2525, 2524, 2848, 2849, 2858, 2857
  201124, 2516, 2517, 2526, 2525, 2849, 2850, 2859, 2858
  201125, 2517, 2518, 2527, 2526, 2850, 2851, 2860, 2859
  201126, 2518, 2519, 2528, 2527, 2851, 2852, 2861, 2860
  201127, 2519, 2520, 2529, 2528, 2852, 2853, 2862, 2861
  201128, 2521, 2522, 2531, 2530, 2854, 2855, 2864, 2863
  201129, 2522, 2523, 2532, 2531, 2855, 2856, 2865, 2864
  201130, 2523, 2524, 2533, 2532, 2856, 2857, 2866, 2865
  201131, 2524, 2525, 2534, 2533, 2857, 2858, 2867, 2866
  201132, 2525, 2526, 2535, 2534, 2858, 2859, 2868, 2867
  201133, 2526, 2527, 2536, 2535, 2859, 2860, 2869, 2868
  201134, 2527, 2528, 2537, 2536, 2860, 2861, 2870, 2869
  201135, 2528, 2529, 2538, 2537, 2861, 2862, 2871, 2870
  201136, 2530, 2531, 2540, 2539, 2863, 2864, 2873, 2872
  201137, 2531, 2532, 2541, 2540, 2864, 2865, 2874, 2873
  201138, 2532, 2533, 2542, 2541, 2865, 2866, 2875, 2874
  201139, 2533, 2534, 2543, 2542, 2866, 2867, 2876, 2875
  201140, 2534, 2535, 2544, 2543, 2867, 2868, 2877, 2876
  201141, 2535, 2536, 2545, 2544, 2868, 2869, 2878, 2877
  201142, 2536, 2537, 2546, 2545, 2869, 2870, 2879, 2878
  201143, 2537, 2538, 2547, 2546, 2870, 2871, 2880, 2879
  201144, 2539, 2540, 2549, 2548, 2872, 2873, 2882, 2881
  201145, 2540, 2541, 2550, 2549, 2873, 2874, 2883, 2882
  201146, 2541, 2542, 2551, 2550, 2874, 2875, 2884, 2883
  201147, 2542, 2543, 2552, 2551, 2875, 2876, 2885, 2884
  201148, 2543, 2544, 2553, 2552, 2876, 2877, 2886, 2885
  201149, 2544, 2545, 2554, 2553, 2877, 2878, 2887, 2886
  201150, 2545, 2546, 2555, 2554, 2878, 2879, 2888, 2887
  201151, 2546, 2547, 2556, 2555, 2879, 2880, 2889, 2888
  201152, 2557, 2558, 2567, 2566, 2890, 2891, 2900, 2899
  201153, 2558, 2559, 2568, 2567, 2891, 2892, 2901, 2900
  201154, 2559, 2560, 2569, 2568, 2892, 2893, 2902, 2901
  201155, 2560, 2561, 2570, 2569, 2893, 2894, 2903, 2902
  201156, 2561, 2562, 2571, 2570, 2894, 2895, 2904, 2903
  201157, 2562, 2563, 2572, 2571, 2895, 2896, 2905, 2904
  201158, 2563, 2564, 2573, 2572, 2896, 2897, 2906, 2905
  201159, 2564, 2565, 2574, 2573, 2897, 2898, 2907, 2906
  201160, 2566, 2567, 2576, 2575, 2899, 2900, 2909, 2908
  201161, 2567, 2568, 2577, 2576, 2900, 2901, 2910, 2909
  201162, 2568, 2569, 2578, 2577, 2901, 2902, 2911, 2910
  201163, 2569, 2570, 2579, 2578, 2902, 2903, 2912, 2911
  201164, 2570, 2571, 2580, 2579, 2903, 2904, 2913, 2912
  201165, 2571, 2572, 2581, 2580, 2904, 2905, 2914, 2913
  201166, 2572, 2573, 2582, 2581, 2905, 2906, 2915, 2914
  201167, 2573, 2574, 2583, 2582, 2906, 2907, 2916, 2915
  201168, 2575, 2576, 2585, 2584, 2908, 2909, 2918, 2917
  201169, 2576, 2577, 2586, 2585, 2909, 2910, 2919, 2918
  201170, 2577, 2578, 2587, 2586, 2910, 2911, 2920, 2919
  201171, 2578, 2579, 2588, 2587, 2911, 2912, 2921, 2920
  201172, 2579, 2580, 2589, 2588, 2912, 2913, 2922, 2921
  201173, 2580, 2581, 2590, 2589, 2913, 2914, 2923, 2922
  201174, 2581, 2582, 2591, 2590, 2914, 2915, 2924, 2923
  201175, 2582, 2583, 2592, 2591, 2915, 2916, 2925, 2924
  201176, 2584, 2585, 2594, 2593, 2917, 2918, 2927, 2926
  201177, 2585, 2586, 2595, 2594, 2918, 2919, 2928, 2927
  201178, 2586, 2587, 2596, 2595, 2919, 2920, 2929, 2928
  201179, 2587, 2588, 2597, 2596, 2920, 2921, 2930, 2929
  201180, 2588, 2589, 2598, 2597, 2921, 2922, 2931, 2930
  201181, 2589, 2590, 2599, 2598, 2922, 2923, 2932, 2931
  201182, 2590, 2591, 2600, 2599, 2923, 2924, 2933, 2932
  201183, 2591, 2592, 2601, 2600, 2924, 2925, 2934, 2933
  201184, 2593, 2594, 2603, 2602, 2926, 2927, 2936, 2935
  201185, 2594, 2595, 2604, 2603, 2927, 2928, 2937, 2936
  201186, 2595, 2596, 2605, 2604, 2928, 2929, 2938, 2937
  201187, 2596, 2597, 2606, 2605, 2929, 2930, 2939, 2938
  201188, 2597, 2598, 2607, 2606, 2930, 2931, 2940, 2939
  201189, 2598, 2599, 2608, 2607, 2931, 2932, 2941, 2940
  201190, 2599, 2600, 2609, 2608, 2932, 2933, 2942, 2941
  201191, 2600, 2601, 2610, 2609, 2933, 2934, 2943, 2942
  201192, 2602, 2603, 2612, 2611, 2935, 2936, 2945, 2944
  201193, 2603, 2604, 2613, 2612, 2936, 2937, 2946, 2945
  201194, 2604, 2605, 2614, 2613, 2937, 2938, 2947, 2946
  201195, 2605, 2606, 2615, 2614, 2938, 2939, 2948, 2947
  201196, 2606, 2607, 2616, 2615, 2939, 2940, 2949, 2948
  201197, 2607, 2608, 2617, 2616, 2940, 2941, 2950, 2949
  201198, 2608, 2609, 2618, 2617, 2941, 2942, 2951, 2950
  201199, 2609, 2610, 2619, 2618, 2942, 2943, 2952, 2951
  201200, 2611, 2612, 2621, 2620, 2944, 2945, 2954, 2953
  201201, 2612, 2613, 2622, 2621, 2945, 2946, 2955, 2954
  201202, 2613, 2614, 2623, 2622, 2946, 2947, 2956, 2955
  201203, 2614, 2615, 2624, 2623, 2947, 2948, 2957, 2956
  201204, 2615, 2616, 2625, 2624, 2948, 2949, 2958, 2957
  201205, 2616, 2617, 2626, 2625, 2949, 2950, 2959, 2958
  201206, 2617, 2618, 2627, 2626, 2950, 2951, 2960, 2959
  201207, 2618, 2619, 2628, 2627, 2951, 2952, 2961, 2960
  201208, 2620, 2621, 2630, 2629, 2953, 2954, 2963, 2962
  201209, 2621, 2622, 2631, 2630, 2954, 2955, 2964, 2963
  201210, 2622, 2623, 2632, 2631, 2955, 2956, 2965, 2964
  201211, 2623, 2624, 2633, 2632, 2956, 2957, 2966, 2965
  201212, 2624, 2625, 2634, 2633, 2957, 2958, 2967, 2966
  201213, 2625, 2626, 2635, 2634, 2958, 2959, 2968, 2967
  201214, 2626, 2627, 2636, 2635, 2959, 2960, 2969, 2968
  201215, 2627, 2628, 2637, 2636, 2960, 2961, 2970, 2969
  201216, 2629, 2630, 2639, 2638, 2962, 2963, 2972, 2971
  201217, 2630, 2631, 2640, 2639, 2963, 2964, 2973, 2972
  201218, 2631, 2632, 2641, 2640, 2964, 2965, 2974, 2973
  201219, 2632, 2633, 2642, 2641, 2965, 2966, 2975, 2974
  201220, 2633, 2634, 2643, 2642, 2966, 2967, 2976, 2975
  201221, 2634, 2635, 2644, 2643, 2967, 2968, 2977, 2976
  201222, 2635, 2636, 2645, 2644, 2968, 2969, 2978, 2977
  201223, 2636, 2637, 2646, 2645, 2969, 2970, 2979, 2978
  201224, 2638, 2639, 2648, 2647, 2971, 2972, 2981, 2980
  201225, 2639, 2640, 2649, 2648, 2972, 2973, 2982, 2981
  201226, 2640, 2641, 2650, 2649, 2973, 2974, 2983, 2982
  201227, 2641, 2642, 2651, 2650, 2974, 2975, 2984, 2983
  201228, 2642, 2643, 2652, 2651, 2975, 2976, 2985, 2984
  201229, 2643, 2644, 2653, 2652, 2976, 2977, 2986, 2985
  201230, 2644, 2645, 2654, 2653, 2977, 2978, 2987, 2986
  201231, 2645, 2646, 2655, 2654, 2978, 2979, 2988, 2987
  201232, 2647, 2648, 2657, 2656, 2980, 2981, 2990, 2989
  201233, 2648, 2649, 2658, 2657, 2981, 2982, 2991, 2990
  201234, 2649, 2650, 2659, 2658, 2982, 2983, 2992, 2991
  201235, 2650, 2651, 2660, 2659, 2983, 2984, 2993, 2992
  201236, 2651, 2652, 2661, 2660, 2984, 2985, 2994, 2993
  201237, 2652, 2653, 2662, 2661, 2985, 2986, 2995, 2994
  201238, 2653, 2654, 2663, 2662, 2986, 2987, 2996, 2995
  201239, 2654, 2655, 2664, 2663, 2987, 2988, 2997, 2996
  201240, 2656, 2657, 2666, 2665, 2989, 2990, 2999, 2998
  201241, 2657, 2658, 2667, 2666, 2990, 2991, 3000, 2999
  201242, 2658, 2659, 2668, 2667, 2991, 2992, 3001, 3000
  201243, 2659, 2660, 2669, 2668, 2992, 2993, 3002, 3001
  201244, 2660, 2661, 2670, 2669, 2993, 2994, 3003, 3002
  201245, 2661, 2662, 2671, 2670, 2994, 2995, 3004, 3003
  201246, 2662, 2663, 2672, 2671, 2995, 2996, 3005, 3004
  201247, 2663, 2664, 2673, 2672, 2996, 2997, 3006, 3005
  201248, 2665, 2666, 2675, 2674, 2998, 2999, 3008, 3007
  201249, 2666, 2667, 2676, 2675, 2999, 3000, 3009, 3008
  201250, 2667, 2668, 2677, 2676, 3000, 3001, 3010, 3009
  201251, 2668, 2669, 2678, 2677, 3001, 3002, 3011, 3010
  201252, 2669, 2670, 2679, 2678, 3002, 3003, 3012, 3011
  201253, 2670, 2671, 2680, 2679, 3003, 3004, 3013, 3012
  201254, 2671, 2672, 2681, 2680, 3004, 3005, 3014, 3013
  201255, 2672, 2673, 2682, 2681, 3005, 3006, 3015, 3014
  201256, 2674, 2675, 2684, 2683, 3007, 3008, 3017, 3016
  201257, 2675, 2676, 2685, 2684, 3008, 3009, 3018, 3017
  201258, 2676, 2677, 2686, 2685, 3009, 3010, 3019, 3018
  201259, 2677, 2678, 2687, 2686, 3010, 3011, 3020, 3019
  201260, 2678, 2679, 2688, 2687, 3011, 3012, 3021, 3020
  201261, 2679, 2680, 2689, 2688, 3012, 3013, 3022, 3021
  201262, 2680, 2681, 2690, 2689, 3013, 3014, 3023, 3022
  201263, 2681, 2682, 2691, 2690, 3014, 3015, 3024, 3023
  201264, 2683, 2684, 2693, 2692, 3016, 3017, 3026, 3025
  201265, 2684, 2685, 2694, 2693, 3017, 3018, 3027, 3026
  201266, 2685, 2686, 2695, 2694, 3018, 3019, 3028, 3027
  201267, 2686, 2687, 2696, 2695, 3019, 3020, 3029, 3028
  201268, 2687, 2688, 2697, 2696, 3020, 3021, 3030, 3029
  201269, 2688, 2689, 2698, 2697, 3021, 3022, 3031, 3030
  201270, 2689, 2690, 2699, 2698, 3022, 3023, 3032, 3031
  201271, 2690, 2691, 2700, 2699, 3023, 3024, 3033, 3032
  201272, 2692, 2693, 2702, 2701, 3025, 3026, 3035, 3034
  201273, 2693, 2694, 2703, 2702, 3026, 3027, 3036, 3035
  201274, 2694, 2695, 2704, 2703, 3027, 3028, 3037, 3036
  201275, 2695, 2696, 2705, 2704, 3028, 3029, 3038, 3037
  201276, 2696, 2697, 2706, 2705, 3029, 3030, 3039, 3038
  201277, 2697, 2698, 2707, 2706, 3030, 3031, 3040, 3039
  201278, 2698, 2699, 2708, 2707, 3031, 3032, 3041, 3040
  201279, 2699, 2700, 2709, 2708, 3032, 3033, 3042, 3041
  201280, 2701, 2702, 2711, 2710, 3034, 3035, 3044, 3043
  201281, 2702, 2703, 2712, 2711, 3035, 3036, 3045, 3044
  201282, 2703, 2704, 2713, 2712, 3036, 3037, 3046, 3045
  201283, 2704, 2705, 2714, 2713, 3037, 3038, 3047, 3046
  201284, 2705, 2706, 2715, 2714, 3038, 3039, 3048, 3047
  201285, 2706, 2707, 2716, 2715, 3039, 3040, 3049, 3048
  201286, 2707, 2708, 2717, 2716, 3040, 3041, 3050, 3049
  201287, 2708, 2709, 2718, 2717, 3041, 3042, 3051, 3050
  201288, 2710, 2711, 2720, 2719, 3043, 3044, 3053, 3052
  201289, 2711, 2712, 2721, 2720, 3044, 3045, 3054, 3053
  201290, 2712, 2713, 2722, 2721, 3045, 3046, 3055, 3054
  201291, 2713, 2714, 2723, 2722, 3046, 3047, 3056, 3055
  201292, 2714, 2715, 2724, 2723, 3047, 3048, 3057, 3056
  201293, 2715, 2716, 2725, 2724, 3048, 3049, 3058, 3057
  201294, 2716, 2717, 2726, 2725, 3049, 3050, 3059, 3058
  201295, 2717, 2718, 2727, 2726, 3050, 3051, 3060, 3059
  201296, 2719, 2720, 2729, 2728, 3052, 3053, 3062, 3061
  201297, 2720, 2721, 2730, 2729, 3053, 3054, 3063, 3062
  201298, 2721, 2722, 2731, 2730, 3054, 3055, 3064, 3063
  201299, 2722, 2723, 2732, 2731, 3055, 3056, 3065, 3064
  201300, 2723, 2724, 2733, 2732, 3056, 3057, 3066, 3065
  201301, 2724, 2725, 2734, 2733, 3057, 3058, 3067, 3066
  201302, 2725, 2726, 2735, 2734, 3058, 3059, 3068, 3067
  201303, 2726, 2727, 2736, 2735, 3059, 3060, 3069, 3068
  201304, 2728, 2729, 2738, 2737, 3061, 3062, 3071, 3070
  201305, 2729, 2730, 2739, 2738, 3062, 3063, 3072, 3071
  201306, 2730, 2731, 2740, 2739, 3063, 3064, 3073, 3072
  201307, 2731, 2732, 2741, 2740, 3064, 3065, 3074, 3073
  201308, 2732, 2733, 2742, 2741, 3065, 3066, 3075, 3074
  201309, 2733, 2734, 2743, 2742, 3066, 3067, 3076, 3075
  201310, 2734, 2735, 2744, 2743, 3067, 3068, 3077, 3076
  201311, 2735, 2736, 2745, 2744, 3068, 3069, 3078, 3077
  201312, 2737, 2738, 2747, 2746, 3070, 3071, 3080, 3079
  201313, 2738, 2739, 2748, 2747, 3071, 3072, 3081, 3080
  201314, 2739, 2740, 2749, 2748, 3072, 3073, 3082, 3081
  201315, 2740, 2741, 2750, 2749, 3073, 3074, 3083, 3082
  201316, 2741, 2742, 2751, 2750, 3074, 3075, 3084, 3083
  201317, 2742, 2743, 2752, 2751, 3075, 3076, 3085, 3084
  201318, 2743, 2744, 2753, 2752, 3076, 3077, 3086, 3085
  201319, 2744, 2745, 2754, 2753, 3077, 3078, 3087, 3086
  201320, 2746, 2747, 2756, 2755, 3079, 3080, 3089, 3088
  201321, 2747, 2748, 2757, 2756, 3080, 3081, 3090, 3089
  201322, 2748, 2749, 2758, 2757, 3081, 3082, 3091, 3090
  201323, 2749, 2750, 2759, 2758, 3082, 3083, 3092, 3091
  201324, 2750, 2751, 2760, 2759, 3083, 3084, 3093, 3092
  201325, 2751, 2752, 2761, 2760, 3084, 3085, 3094, 3093
  201326, 2752, 2753, 2762, 2761, 3085, 3086, 3095, 3094
  201327, 2753, 2754, 2763, 2762, 3086, 3087, 3096, 3095
  201328, 2755, 2756, 2765, 2764, 3088, 3089, 3098, 3097
  201329, 2756, 2757, 2766, 2765, 3089, 3090, 3099, 3098
  201330, 2757, 2758, 2767, 2766, 3090, 3091, 3100, 3099
  201331, 2758, 2759, 2768, 2767, 3091, 3092, 3101, 3100
  201332, 2759, 2760, 2769, 2768, 3092, 3093, 3102, 3101
  201333, 2760, 2761, 2770, 2769, 3093, 3094, 3103, 3102
  201334, 2761, 2762, 2771, 2770, 3094, 3095, 3104, 3103
  201335, 2762, 2763, 2772, 2771, 3095, 3096, 3105, 3104
  201336, 2764, 2765, 2774, 2773, 3097, 3098, 3107, 3106
  201337, 2765, 2766, 2775, 2774, 3098, 3099, 3108, 3107
  201338, 2766, 2767, 2776, 2775, 3099, 3100, 3109, 3108
  201339, 2767, 2768, 2777, 2776, 3100, 3101, 3110, 3109
  201340, 2768, 2769, 2778, 2777, 3101, 3102, 3111, 3110
  201341, 2769, 2770, 2779, 2778, 3102, 3103, 3112, 3111
  201342, 2770, 2771, 2780, 2779, 3103, 3104, 3113, 3112
  201343, 2771, 2772, 2781, 2780, 3104, 3105, 3114, 3113
  201344, 2773, 2774, 2783, 2782, 3106, 3107, 3116, 3115
  201345, 2774, 2775, 2784, 2783, 3107, 3108, 3117, 3116
  201346, 2775, 2776, 2785, 2784, 3108, 3109, 3118, 3117
  201347, 2776, 2777, 2786, 2785, 3109, 3110, 3119, 3118
  201348, 2777, 2778, 2787, 2786, 3110, 3111, 3120, 3119
  201349, 2778, 2779, 2788, 2787, 3111, 3112, 3121, 3120
  201350, 2779, 2780, 2789, 2788, 3112, 3113, 3122, 3121
  201351, 2780, 2781, 2790, 2789, 3113, 3114, 3123, 3122
  201352, 2782, 2783, 2792, 2791, 3115, 3116, 3125, 3124
  201353, 2783, 2784, 2793, 2792, 3116, 3117, 3126, 3125
  201354, 2784, 2785, 2794, 2793, 3117, 3118, 3127, 3126
  201355, 2785, 2786, 2795, 2794, 3118, 3119, 3128, 3127
  201356, 2786, 2787, 2796, 2795, 3119, 3120, 3129, 3128
  201357, 2787, 2788, 2797, 2796, 3120, 3121, 3130, 3129
  201358, 2788, 2789, 2798, 2797, 3121, 3122, 3131, 3130
  201359, 2789, 2790, 2799, 2798, 3122, 3123, 3132, 3131
  201360, 2791, 2792, 2801, 2800, 3124, 3125, 3134, 3133
  201361, 2792, 2793, 2802, 2801, 3125, 3126, 3135, 3134
  201362, 2793, 2794, 2803, 2802, 3126, 3127, 3136, 3135
  201363, 2794, 2795, 2804, 2803, 3127, 3128, 3137, 3136
  201364, 2795, 2796, 2805, 2804, 3128, 3129, 3138, 3137
  201365, 2796, 2797, 2806, 2805, 3129, 3130, 3139, 3138
  201366, 2797, 2798, 2807, 2806, 3130, 3131, 3140, 3139
  201367, 2798, 2799, 2808, 2807, 3131, 3132, 3141, 3140
  201368, 2800, 2801, 2810, 2809, 3133, 3134, 3143, 3142
  201369, 2801, 2802, 2811, 2810, 3134, 3135, 3144, 3143
  201370, 2802, 2803, 2812, 2811, 3135, 3136, 3145, 3144
  201371, 2803, 2804, 2813, 2812, 3136, 3137, 3146, 3145
  201372, 2804, 2805, 2814, 2813, 3137, 3138, 3147, 3146
  201373, 2805, 2806, 2815, 2814, 3138, 3139, 3148, 3147
  201374, 2806, 2807, 2816, 2815, 3139, 3140, 3149, 3148
  201375, 2807, 2808, 2817, 2816, 3140, 3141, 3150, 3149
  201376, 2809, 2810, 2819, 2818, 3142, 3143, 3152, 3151
  201377, 2810, 2811, 2820, 2819, 3143, 3144, 3153, 3152
  201378, 2811, 2812, 2821, 2820, 3144, 3145, 3154, 3153
  201379, 2812, 2813, 2822, 2821, 3145, 3146, 3155, 3154
  201380, 2813, 2814, 2823, 2822, 3146, 3147, 3156, 3155
  201381, 2814, 2815, 2824, 2823, 3147, 3148, 3157, 3156
  201382, 2815, 2816, 2825, 2824, 3148, 3149, 3158, 3157
  201383, 2816, 2817, 2826, 2825, 3149, 3150, 3159, 3158
  201384, 2818, 2819, 2828, 2827, 3151, 3152, 3161, 3160
  201385, 2819, 2820, 2829, 2828, 3152, 3153, 3162, 3161
  201386, 2820, 2821, 2830, 2829, 3153, 3154, 3163, 3162
  201387, 2821, 2822, 2831, 2830, 3154, 3155, 3164, 3163
  201388, 2822, 2823, 2832, 2831, 3155, 3156, 3165, 3164
  201389, 2823, 2824, 2833, 2832, 3156, 3157, 3166, 3165
  201390, 2824, 2825, 2834, 2833, 3157, 3158, 3167, 3166
  201391, 2825, 2826, 2835, 2834, 3158, 3159, 3168, 3167
  201392, 2827, 2828, 2837, 2836, 3160, 3161, 3170, 3169
  201393, 2828, 2829, 2838, 2837, 3161, 3162, 3171, 3170
  201394, 2829, 2830, 2839, 2838, 3162, 3163, 3172, 3171
  201395, 2830, 2831, 2840, 2839, 3163, 3164, 3173, 3172
  201396, 2831, 2832, 2841, 2840, 3164, 3165, 3174, 3173
  201397, 2832, 2833, 2842, 2841, 3165, 3166, 3175, 3174
  201398, 2833, 2834, 2843, 2842, 3166, 3167, 3176, 3175
  201399, 2834, 2835, 2844, 2843, 3167, 3168, 3177, 3176
  201400, 2836, 2837, 2846, 2845, 3169, 3170, 3179, 3178
  201401, 2837, 2838, 2847, 2846, 3170, 3171, 3180, 3179
  201402, 2838, 2839, 2848, 2847, 3171, 3172, 3181, 3180
  201403, 2839, 2840, 2849, 2848, 3172, 3173, 3182, 3181
  201404, 2840, 2841, 2850, 2849, 3173, 3174, 3183, 3182
  201405, 2841, 2842, 2851, 2850, 3174, 3175, 3184, 3183
  201406, 2842, 2843, 2852, 2851, 3175, 3176, 3185, 3184
  201407, 2843, 2844, 2853, 2852, 3176, 3177, 3186, 3185
  201408, 2845, 2846, 2855, 2854, 3178, 3179, 3188, 3187
  201409, 2846, 2847, 2856, 2855, 3179, 3180, 3189, 3188
  201410, 2847, 2848, 2857, 2856, 3180, 3181, 3190, 3189
  201411, 2848, 2849, 2858, 2857, 3181, 3182, 3191, 3190
  201412, 2849, 2850, 2859, 2858, 3182, 3183, 3192, 3191
  201413, 2850, 2851, 2860, 2859, 3183, 3184, 3193, 3192
  201414, 2851, 2852, 2861, 2860, 3184, 3185, 3194, 3193
  201415, 2852, 2853, 2862, 2861, 3185, 3186, 3195, 3194
  201416, 2854, 2855, 2864, 2863, 3187, 3188, 3197, 3196
  201417, 2855, 2856, 2865, 2864, 3188, 3189, 3198, 3197
  201418, 2856, 2857, 2866, 2865, 3189, 3190, 3199, 3198
  201419, 2857, 2858, 2867, 2866, 3190, 3191, 3200, 3199
  201420, 2858, 2859, 2868, 2867, 3191, 3192, 3201, 3200
  201421, 2859, 2860, 2869, 2868, 3192, 3193, 3202, 3201
  201422, 2860, 2861, 2870, 2869, 3193, 3194, 3203, 3202
  201423, 2861, 2862, 2871, 2870, 3194, 3195, 3204, 3203
  201424, 2863, 2864, 2873, 2872, 3196, 3197, 3206, 3205
  201425, 2864, 2865, 2874, 2873, 3197, 3198, 3207, 3206
  201426, 2865, 2866, 2875, 2874, 3198, 3199, 3208, 3207
  201427, 2866, 2867, 2876, 2875, 3199, 3200, 3209, 3208
  201428, 2867, 2868, 2877, 2876, 3200, 3201, 3210, 3209
  201429, 2868, 2869, 2878, 2877, 3201, 3202, 3211, 3210
  201430, 2869, 2870, 2879, 2878, 3202, 3203, 3212, 3211
  201431, 2870, 2871, 2880, 2879, 3203, 3204, 3213, 3212
  201432, 2872, 2873, 2882, 2881, 3205, 3206, 3215, 3214
  201433, 2873, 2874, 2883, 2882, 3206, 3207, 3216, 3215
  201434, 2874, 2875, 2884, 2883, 3207, 3208, 3217, 3216
  201435, 2875, 2876, 2885, 2884, 3208, 3209, 3218, 3217
  201436, 2876, 2877, 2886, 2885, 3209, 3210, 3219, 3218
  201437, 2877, 2878, 2887, 2886, 3210, 3211, 3220, 3219
  201438, 2878, 2879, 2888, 2887, 3211, 3212, 3221, 3220
  201439, 2879, 2880, 2889, 2888, 3212, 3213, 3222, 3221
  201440, 2890, 2891, 2900, 2899, 3223, 3224, 3233, 3232
  201441, 2891, 2892, 2901, 2900, 3224, 3225, 3234, 3233
  201442, 2892, 2893, 2902, 2901, 3225, 3226, 3235, 3234
  201443, 2893, 2894, 2903, 2902, 3226, 3227, 3236, 3235
  201444, 2894, 2895, 2904, 2903, 3227, 3228, 3237, 3236
  201445, 2895, 2896, 2905, 2904, 3228, 3229, 3238, 3237
  201446, 2896, 2897, 2906, 2905, 3229, 3230, 3239, 3238
  201447, 2897, 2898, 2907, 2906, 3230, 3231, 3240, 3239
  201448, 2899, 2900, 2909, 2908, 3232, 3233, 3242, 3241
  201449, 2900, 2901, 2910, 2909, 3233, 3234, 3243, 3242
  201450, 2901, 2902, 2911, 2910, 3234, 3235, 3244, 3243
  201451, 2902, 2903, 2912, 2911, 3235, 3236, 3245, 3244
  201452, 2903, 2904, 2913, 2912, 3236, 3237, 3246, 3245
  201453, 2904, 2905, 2914, 2913, 3237, 3238, 3247, 3246
  201454, 2905, 2906, 2915, 2914, 3238, 3239, 3248, 3247
  201455, 2906, 2907, 2916, 2915, 3239, 3240, 3249, 3248
  201456, 2908, 2909, 2918, 2917, 3241, 3242, 3251, 3250
  201457, 2909, 2910, 2919, 2918, 3242, 3243, 3252, 3251
  201458, 2910, 2911, 2920, 2919, 3243, 3244, 3253, 3252
  201459, 2911, 2912, 2921, 2920, 3244, 3245, 3254, 3253
  201460, 2912, 2913, 2922, 2921, 3245, 3246, 3255, 3254
  201461, 2913, 2914, 2923, 2922, 3246, 3247, 3256, 3255
  201462, 2914, 2915, 2924, 2923, 3247, 3248, 3257, 3256
  201463, 2915, 2916, 2925, 2924, 3248, 3249, 3258, 3257
  201464, 2917, 2918, 2927, 2926, 3250, 3251, 3260, 3259
  201465, 2918, 2919, 2928, 2927, 3251, 3252, 3261, 3260
  201466, 2919, 2920, 2929, 2928, 3252, 3253, 3262, 3261
  201467, 2920, 2921, 2930, 2929, 3253, 3254, 3263, 3262
  201468, 2921, 2922, 2931, 2930, 3254, 3255, 3264, 3263
  201469, 2922, 2923, 2932, 2931, 3255, 3256, 3265, 3264
  201470, 2923, 2924, 2933, 2932, 3256, 3257, 3266, 3265
  201471, 2924, 2925, 2934, 2933, 3257, 3258, 3267, 3266
  201472, 2926, 2927, 2936, 2935, 3259, 3260, 3269, 3268
  201473, 2927, 2928, 2937, 2936, 3260, 3261, 3270, 3269
  201474, 2928, 2929, 2938, 2937, 3261, 3262, 3271, 3270
  201475, 2929, 2930, 2939, 2938, 3262, 3263, 3272, 3271
  201476, 2930, 2931, 2940, 2939, 3263, 3264, 3273, 3272
  201477, 2931, 2932, 2941, 2940, 3264, 3265, 3274, 3273
  201478, 2932, 2933, 2942, 2941, 3265, 3266, 3275, 3274
  201479, 2933, 2934, 2943, 2942, 3266, 3267, 3276, 3275
  201480, 2935, 2936, 2945, 2944, 3268, 3269, 3278, 3277
  201481, 2936, 2937, 2946, 2945, 3269, 3270, 3279, 3278
  201482, 2937, 2938, 2947, 2946, 3270, 3271, 3280, 3279
  201483, 2938, 2939, 2948, 2947, 3271, 3272, 3281, 3280
  201484, 2939, 2940, 2949, 2948, 3272, 3273, 3282, 3281
  201485, 2940, 2941, 2950, 2949, 3273, 3274, 3283, 3282
  201486, 2941, 2942, 2951, 2950, 3274, 3275, 3284, 3283
  201487, 2942, 2943, 2952, 2951, 3275, 3276, 3285, 3284
  201488, 2944, 2945, 2954, 2953, 3277, 3278, 3287, 3286
  201489, 2945, 2946, 2955, 2954, 3278, 3279, 3288, 3287
  201490, 2946, 2947, 2956, 2955, 3279, 3280, 3289, 3288
  201491, 2947, 2948, 2957, 2956, 3280, 3281, 3290, 3289
  201492, 2948, 2949, 2958, 2957, 3281, 3282, 3291, 3290
  201493, 2949, 2950, 2959, 2958, 3282, 3283, 3292, 3291
  201494, 2950, 2951, 2960, 2959, 3283, 3284, 3293, 3292
  201495, 2951, 2952, 2961, 2960, 3284, 3285, 3294, 3293
  201496, 2953, 2954, 2963, 2962, 3286, 3287, 3296, 3295
  201497, 2954, 2955, 2964, 2963, 3287, 3288, 3297, 3296
  201498, 2955, 2956, 2965, 2964, 3288, 3289, 3298, 3297
  201499, 2956, 2957, 2966, 2965, 3289, 3290, 3299, 3298
  201500, 2957, 2958, 2967, 2966, 3290, 3291, 3300, 3299
  201501, 2958, 2959, 2968, 2967, 3291, 3292, 3301, 3300
  201502, 2959, 2960, 2969, 2968, 3292, 3293, 3302, 3301
  201503, 2960, 2961, 2970, 2969, 3293, 3294, 3303, 3302
  201504, 2962, 2963, 2972, 2971, 3295, 3296, 3305, 3304
  201505, 2963, 2964, 2973, 2972, 3296, 3297, 3306, 3305
  201506, 2964, 2965, 2974, 2973, 3297, 3298, 3307, 3306
  201507, 2965, 2966, 2975, 2974, 3298, 3299, 3308, 3307
  201508, 2966, 2967, 2976, 2975, 3299, 3300, 3309, 3308
  201509, 2967, 2968, 2977, 2976, 3300, 3301, 3310, 3309
  201510, 2968, 2969, 2978, 2977, 3301, 3302, 3311, 3310
  201511, 2969, 2970, 2979, 2978, 3302, 3303, 3312, 3311
  201512, 2971, 2972, 2981, 2980, 3304, 3305, 3314, 3313
  201513, 2972, 2973, 2982, 2981, 3305, 3306, 3315, 3314
  201514, 2973, 2974, 2983, 2982, 3306, 3307, 3316, 3315
  201515, 2974, 2975, 2984, 2983, 3307, 3308, 3317, 3316
  201516, 2975, 2976, 2985, 2984, 3308, 3309, 3318, 3317
  201517, 2976, 2977, 2986, 2985, 3309, 3310, 3319, 3318
  201518, 2977, 2978, 2987, 2986, 3310, 3311, 3320, 3319
  201519, 2978, 2979, 2988, 2987, 3311, 3312, 3321, 3320
  201520, 2980, 2981, 2990, 2989, 3313, 3314, 3323, 3322
  201521, 2981, 2982, 2991, 2990, 3314, 3315, 3324, 3323
  201522, 2982, 2983, 2992, 2991, 3315, 3316, 3325, 3324
  201523, 2983, 2984, 2993, 2992, 3316, 3317, 3326, 3325
  201524, 2984, 2985, 2994, 2993, 3317, 3318, 3327, 3326
  201525, 2985, 2986, 2995, 2994, 3318, 3319, 3328, 3327
  201526, 2986, 2987, 2996, 2995, 3319, 3320, 3329, 3328
  201527, 2987, 2988, 2997, 2996, 3320, 3321, 3330, 3329
  201528, 2989, 2990, 2999, 2998, 3322, 3323, 3332, 3331
  201529, 2990, 2991, 3000, 2999, 3323, 3324, 3333, 3332
  201530, 2991, 2992, 3001, 3000, 3324, 3325, 3334, 3333
  201531, 2992, 2993, 3002, 3001, 3325, 3326, 3335, 3334
  201532, 2993, 2994, 3003, 3002, 3326, 3327, 3336, 3335
  201533, 2994, 2995, 3004, 3003, 3327, 3328, 3337, 3336
  201534, 2995, 2996, 3005, 3004, 3328, 3329, 3338, 3337
  201535, 2996, 2997, 3006, 3005, 3329, 3330, 3339, 3338
  201536, 2998, 2999, 3008, 3007, 3331, 3332, 3341, 3340
  201537, 2999, 3000, 3009, 3008, 3332, 3333, 3342, 3341
  201538, 3000, 3001, 3010, 3009, 3333, 3334, 3343, 3342
  201539, 3001, 3002, 3011, 3010, 3334, 3335, 3344, 3343
  201540, 3002, 3003, 3012, 3011, 3335, 3336, 3345, 3344
  201541, 3003, 3004, 3013, 3012, 3336, 3337, 3346, 3345
  201542, 3004, 3005, 3014, 3013, 3337, 3338, 3347, 3346
  201543, 3005, 3006, 3015, 3014, 3338, 3339, 3348, 3347
  201544, 3007, 3008, 3017, 3016, 3340, 3341, 3350, 3349
  201545, 3008, 3009, 3018, 3017, 3341, 3342, 3351, 3350
  201546, 3009, 3010, 3019, 3018, 3342, 3343, 3352, 3351
  201547, 3010, 3011, 3020, 3019, 3343, 3344, 3353, 3352
  201548, 3011, 3012, 3021, 3020, 3344, 3345, 3354, 3353
  201549, 3012, 3013, 3022, 3021, 3345, 3346, 3355, 3354
  201550, 3013, 3014, 3023, 3022, 3346, 3347, 3356, 3355
  201551, 3014, 3015, 3024, 3023, 3347, 3348, 3357, 3356
  201552, 3016, 3017, 3026, 3025, 3349, 3350, 3359, 3358
  201553, 3017, 3018, 3027, 3026, 3350, 3351, 3360, 3359
  201554, 3018, 3019, 3028, 3027, 3351, 3352, 3361, 3360
  201555, 3019, 3020, 3029, 3028, 3352, 3353, 3362, 3361
  201556, 3020, 3021, 3030, 3029, 3353, 3354, 3363, 3362
  201557, 3021, 3022, 3031, 3030, 3354, 3355, 3364, 3363
  201558, 3022, 3023, 3032, 3031, 3355, 3356, 3365, 3364
  201559, 3023, 3024, 3033, 3032, 3356, 3357, 3366, 3365
  201560, 3025, 3026, 3035, 3034, 3358, 3359, 3368, 3367
  201561, 3026, 3027, 3036, 3035, 3359, 3360, 3369, 3368
  201562, 3027, 3028, 3037, 3036, 3360, 3361, 3370, 3369
  201563, 3028, 3029, 3038, 3037, 3361, 3362, 3371, 3370
  201564, 3029, 3030, 3039, 3038, 3362, 3363, 3372, 3371
  201565, 3030, 3031, 3040, 3039, 3363, 3364, 3373, 3372
  201566, 3031, 3032, 3041, 3040, 3364, 3365, 3374, 3373
  201567, 3032, 3033, 3042, 3041, 3365, 3366, 3375, 3374
  201568, 3034, 3035, 3044, 3043, 3367, 3368, 3377, 3376
  201569, 3035, 3036, 3045, 3044, 3368, 3369, 3378, 3377
  201570, 3036, 3037, 3046, 3045, 3369, 3370, 3379, 3378
  201571, 3037, 3038, 3047, 3046, 3370, 3371, 3380, 3379
  201572, 3038, 3039, 3048, 3047, 3371, 3372, 3381, 3380
  201573, 3039, 3040, 3049, 3048, 3372, 3373, 3382, 3381
  201574, 3040, 3041, 3050, 3049, 3373, 3374, 3383, 3382
  201575, 3041, 3042, 3051, 3050, 3374, 3375, 3384, 3383
  201576, 3043, 3044, 3053, 3052, 3376, 3377, 3386, 3385
  201577, 3044, 3045, 3054, 3053, 3377, 3378, 3387, 3386
  201578, 3045, 3046, 3055, 3054, 3378, 3379, 3388, 3387
  201579, 3046, 3047, 3056, 3055, 3379, 3380, 3389, 3388
  201580, 3047, 3048, 3057, 3056, 3380, 3381, 3390, 3389
  201581, 3048, 3049, 3058, 3057, 3381, 3382, 3391, 3390
  201582, 3049, 3050, 3059, 3058, 3382, 3383, 3392, 3391
  201583, 3050, 3051, 3060, 3059, 3383, 3384, 3393, 3392
  201584, 3052, 3053, 3062, 3061, 3385, 3386, 3395, 3394
  201585, 3053, 3054, 3063, 3062, 3386, 3387, 3396, 3395
  201586, 3054, 3055, 3064, 3063, 3387, 3388, 3397, 3396
  201587, 3055, 3056, 3065, 3064, 3388, 3389, 3398, 3397
  201588, 3056, 3057, 3066, 3065, 3389, 3390, 3399, 3398
  201589, 3057, 3058, 3067, 3066, 3390, 3391, 3400, 3399
  201590, 3058, 3059, 3068, 3067, 3391, 3392, 3401, 3400
  201591, 3059, 3060, 3069, 3068, 3392, 3393, 3402, 3401
  201592, 3061, 3062, 3071, 3070, 3394, 3395, 3404, 3403
  201593, 3062, 3063, 3072, 3071, 3395, 3396, 3405, 3404
  201594, 3063, 3064, 3073, 3072, 3396, 3397, 3406, 3405
  201595, 3064, 3065, 3074, 3073, 3397, 3398, 3407, 3406
  201596, 3065, 3066, 3075, 3074, 3398, 3399, 3408, 3407
  201597, 3066, 3067, 3076, 3075, 3399, 3400, 3409, 3408
  201598, 3067, 3068, 3077, 3076, 3400, 3401, 3410, 3409
  201599, 3068, 3069, 3078, 3077, 3401, 3402, 3411, 3410
  201600, 3070, 3071, 3080, 3079, 3403, 3404, 3413, 3412
  201601, 3071, 3072, 3081, 3080, 3404, 3405, 3414, 3413
  201602, 3072, 3073, 3082, 3081, 3405, 3406, 3415, 3414
  201603, 3073, 3074, 3083, 3082, 3406, 3407, 3416, 3415
  201604, 3074, 3075, 3084, 3083, 3407, 3408, 3417, 3416
  201605, 3075, 3076, 3085, 3084, 3408, 3409, 3418, 3417
  201606, 3076, 3077, 3086, 3085, 3409, 3410, 3419, 3418
  201607, 3077, 3078, 3087, 3086, 3410, 3411, 3420, 3419
  201608, 3079, 3080, 3089, 3088, 3412, 3413, 3422, 3421
  201609, 3080, 3081, 3090, 3089, 3413, 3414, 3423, 3422
  201610, 3081, 3082, 3091, 3090, 3414, 3415, 3424, 3423
  201611, 3082, 3083, 3092, 3091, 3415, 3416, 3425, 3424
  201612, 3083, 3084, 3093, 3092, 3416, 3417, 3426, 3425
  201613, 3084, 3085, 3094, 3093, 3417, 3418, 3427, 3426
  201614, 3085, 3086, 3095, 3094, 3418, 3419, 3428, 3427
  201615, 3086, 3087, 3096, 3095, 3419, 3420, 3429, 3428
  201616, 3088, 3089, 3098, 3097, 3421, 3422, 3431, 3430
  201617, 3089, 3090, 3099, 3098, 3422, 3423, 3432, 3431
  201618, 3090, 3091, 3100, 3099, 3423, 3424, 3433, 3432
  201619, 3091, 3092, 3101, 3100, 3424, 3425, 3434, 3433
  201620, 3092, 3093, 3102, 3101, 3425, 3426, 3435, 3434
  201621, 3093, 3094, 3103, 3102, 3426, 3427, 3436, 3435
  201622, 3094, 3095, 3104, 3103, 3427, 3428, 3437, 3436
  201623, 3095, 3096, 3105, 3104, 3428, 3429, 3438, 3437
  201624, 3097, 3098, 3107, 3106, 3430, 3431, 3440, 3439
  201625, 3098, 3099, 3108, 3107, 3431, 3432, 3441, 3440
  201626, 3099, 3100, 3109, 3108, 3432, 3433, 3442, 3441
  201627, 3100, 3101, 3110, 3109, 3433, 3434, 3443, 3442
  201628, 3101, 3102, 3111, 3110, 3434, 3435, 3444, 3443
  201629, 3102, 3103, 3112, 3111, 3435, 3436, 3445, 3444
  201630, 3103, 3104, 3113, 3112, 3436, 3437, 3446, 3445
  201631, 3104, 3105, 3114, 3113, 3437, 3438, 3447, 3446
  201632, 3106, 3107, 3116, 3115, 3439, 3440, 3449, 3448
  201633, 3107, 3108, 3117, 3116, 3440, 3441, 3450, 3449
  201634, 3108, 3109, 3118, 3117, 3441, 3442, 3451, 3450
  201635, 3109, 3110, 3119, 3118, 3442, 3443, 3452, 3451
  201636, 3110, 3111, 3120, 3119, 3443, 3444, 3453, 3452
  201637, 3111, 3112, 3121, 3120, 3444, 3445, 3454, 3453
  201638, 3112, 3113, 3122, 3121, 3445, 3446, 3455, 3454
  201639, 3113, 3114, 3123, 3122, 3446, 3447, 3456, 3455
  201640, 3115, 3116, 3125, 3124, 3448, 3449, 3458, 3457
  201641, 3116, 3117, 3126, 3125, 3449, 3450, 3459, 3458
  201642, 3117, 3118, 3127, 3126, 3450, 3451, 3460, 3459
  201643, 3118, 3119, 3128, 3127, 3451, 3452, 3461, 3460
  201644, 3119, 3120, 3129, 3128, 3452, 3453, 3462, 3461
  201645, 3120, 3121, 3130, 3129, 3453, 3454, 3463, 3462
  201646, 3121, 3122, 3131, 3130, 3454, 3455, 3464, 3463
  201647, 3122, 3123, 3132, 3131, 3455, 3456, 3465, 3464
  201648, 3124, 3125, 3134, 3133, 3457, 3458, 3467, 3466
  201649, 3125, 3126, 3135, 3134, 3458, 3459, 3468, 3467
  201650, 3126, 3127, 3136, 3135, 3459, 3460, 3469, 3468
  201651, 3127, 3128, 3137, 3136, 3460, 3461, 3470, 3469
  201652, 3128, 3129, 3138, 3137, 3461, 3462, 3471, 3470
  201653, 3129, 3130, 3139, 3138, 3462, 3463, 3472, 3471
  201654, 3130, 3131, 3140, 3139, 3463, 3464, 3473, 3472
  201655, 3131, 3132, 3141, 3140, 3464, 3465, 3474, 3473
  201656, 3133, 3134, 3143, 3142, 3466, 3467, 3476, 3475
  201657, 3134, 3135, 3144, 3143, 3467, 3468, 3477, 3476
  201658, 3135, 3136, 3145, 3144, 3468, 3469, 3478, 3477
  201659, 3136, 3137, 3146, 3145, 3469, 3470, 3479, 3478
  201660, 3137, 3138, 3147, 3146, 3470, 3471, 3480, 3479
  201661, 3138, 3139, 3148, 3147, 3471, 3472, 3481, 3480
  201662, 3139, 3140, 3149, 3148, 3472, 3473, 3482, 3481
  201663, 3140, 3141, 3150, 3149, 3473, 3474, 3483, 3482
  201664, 3142, 3143, 3152, 3151, 3475, 3476, 3485, 3484
  201665, 3143, 3144, 3153, 3152, 3476, 3477, 3486, 3485
  201666, 3144, 3145, 3154, 3153, 3477, 3478, 3487, 3486
  201667, 3145, 3146, 3155, 3154, 3478, 3479, 3488, 3487
  201668, 3146, 3147, 3156, 3155, 3479, 3480, 3489, 3488
  201669, 3147, 3148, 3157, 3156, 3480, 3481, 3490, 3489
  201670, 3148, 3149, 3158, 3157, 3481, 3482, 3491, 3490
  201671, 3149, 3150, 3159, 3158, 3482, 3483, 3492, 3491
  201672, 3151, 3152, 3161, 3160, 3484, 3485, 3494, 3493
  201673, 3152, 3153, 3162, 3161, 3485, 3486, 3495, 3494
  201674, 3153, 3154, 3163, 3162, 3486, 3487, 3496, 3495
  201675, 3154, 3155, 3164, 3163, 3487, 3488, 3497, 3496
  201676, 3155, 3156, 3165, 3164, 3488, 3489, 3498, 3497
  201677, 3156, 3157, 3166, 3165, 3489, 3490, 3499, 3498
  201678, 3157, 3158, 3167, 3166, 3490, 3491, 3500, 3499
  201679, 3158, 3159, 3168, 3167, 3491, 3492, 3501, 3500
  201680, 3160, 3161, 3170, 3169, 3493, 3494, 3503, 3502
  201681, 3161, 3162, 3171, 3170, 3494, 3495, 3504, 3503
  201682, 3162, 3163, 3172, 3171, 3495, 3496, 3505, 3504
  201683, 3163, 3164, 3173, 3172, 3496, 3497, 3506, 3505
  201684, 3164, 3165, 3174, 3173, 3497, 3498, 3507, 3506
  201685, 3165, 3166, 3175, 3174, 3498, 3499, 3508, 3507
  201686, 3166, 3167, 3176, 3175, 3499, 3500, 3509, 3508
  201687, 3167, 3168, 3177, 3176, 3500, 3501, 3510, 3509
  201688, 3169, 3170, 3179, 3178, 3502, 3503, 3512, 3511
  201689, 3170, 3171, 3180, 3179, 3503, 3504, 3513, 3512
  201690, 3171, 3172, 3181, 3180, 3504, 3505, 3514, 3513
  201691, 3172, 3173, 3182, 3181, 3505, 3506, 3515, 3514
  201692, 3173, 3174, 3183, 3182, 3506, 3507, 3516, 3515
  201693, 3174, 3175, 3184, 3183, 3507, 3508, 3517, 3516
  201694, 3175, 3176, 3185, 3184, 3508, 3509, 3518, 3517
  201695, 3176, 3177, 3186, 3185, 3509, 3510, 3519, 3518
  201696, 3178, 3179, 3188, 3187, 3511, 3512, 3521, 3520
  201697, 3179, 3180, 3189, 3188, 3512, 3513, 3522, 3521
  201698, 3180, 3181, 3190, 3189, 3513, 3514, 3523, 3522
  201699, 3181, 3182, 3191, 3190, 3514, 3515, 3524, 3523
  201700, 3182, 3183, 3192, 3191, 3515, 3516, 3525, 3524
  201701, 3183, 3184, 3193, 3192, 3516, 3517, 3526, 3525
  201702, 3184, 3185, 3194, 3193, 3517, 3518, 3527, 3526
  201703, 3185, 3186, 3195, 3194, 3518, 3519, 3528, 3527
  201704, 3187, 3188, 3197, 3196, 3520, 3521, 3530, 3529
  201705, 3188, 3189, 3198, 3197, 3521, 3522, 3531, 3530
  201706, 3189, 3190, 3199, 3198, 3522, 3523, 3532, 3531
  201707, 3190, 3191, 3200, 3199, 3523, 3524, 3533, 3532
  201708, 3191, 3192, 3201, 3200, 3524, 3525, 3534, 3533
  201709, 3192, 3193, 3202, 3201, 3525, 3526, 3535, 3534
  201710, 3193, 3194, 3203, 3202, 3526, 3527, 3536, 3535
  201711, 3194, 3195, 3204, 3203, 3527, 3528, 3537, 3536
  201712, 3196, 3197, 3206, 3205, 3529, 3530, 3539, 3538
  201713, 3197, 3198, 3207, 3206, 3530, 3531, 3540, 3539
  201714, 3198, 3199, 3208, 3207, 3531, 3532, 3541, 3540
  201715, 3199, 3200, 3209, 3208, 3532, 3533, 3542, 3541
  201716, 3200, 3201, 3210, 3209, 3533, 3534, 3543, 3542
  201717, 3201, 3202, 3211, 3210, 3534, 3535, 3544, 3543
  201718, 3202, 3203, 3212, 3211, 3535, 3536, 3545, 3544
  201719, 3203, 3204, 3213, 3212, 3536, 3537, 3546, 3545
  201720, 3205, 3206, 3215, 3214, 3538, 3539, 3548, 3547
  201721, 3206, 3207, 3216, 3215, 3539, 3540, 3549, 3548
  201722, 3207, 3208, 3217, 3216, 3540, 3541, 3550, 3549
  201723, 3208, 3209, 3218, 3217, 3541, 3542, 3551, 3550
  201724, 3209, 3210, 3219, 3218, 3542, 3543, 3552, 3551
  201725, 3210, 3211, 3220, 3219, 3543, 3544, 3553, 3552
  201726, 3211, 3212, 3221, 3220, 3544, 3545, 3554, 3553
  201727, 3212, 3213, 3222, 3221, 3545, 3546, 3555, 3554
  201728, 3223, 3224, 3233, 3232, 3556, 3557, 3566, 3565
  201729, 3224, 3225, 3234, 3233, 3557, 3558, 3567, 3566
  201730, 3225, 3226, 3235, 3234, 3558, 3559, 3568, 3567
  201731, 3226, 3227, 3236, 3235, 3559, 3560, 3569, 3568
  201732, 3227, 3228, 3237, 3236, 3560, 3561, 3570, 3569
  201733, 3228, 3229, 3238, 3237, 3561, 3562, 3571, 3570
  201734, 3229, 3230, 3239, 3238, 3562, 3563, 3572, 3571
  201735, 3230, 3231, 3240, 3239, 3563, 3564, 3573, 3572
  201736, 3232, 3233, 3242, 3241, 3565, 3566, 3575, 3574
  201737, 3233, 3234, 3243, 3242, 3566, 3567, 3576, 3575
  201738, 3234, 3235, 3244, 3243, 3567, 3568, 3577, 3576
  201739, 3235, 3236, 3245, 3244, 3568, 3569, 3578, 3577
  201740, 3236, 3237, 3246, 3245, 3569, 3570, 3579, 3578
  201741, 3237, 3238, 3247, 3246, 3570, 3571, 3580, 3579
  201742, 3238, 3239, 3248, 3247, 3571, 3572, 3581, 3580
  201743, 3239, 3240, 3249, 3248, 3572, 3573, 3582, 3581
  201744, 3241, 3242, 3251, 3250, 3574, 3575, 3584, 3583
  201745, 3242, 3243, 3252, 3251, 3575, 3576, 3585, 3584
  201746, 3243, 3244, 3253, 3252, 3576, 3577, 3586, 3585
  201747, 3244, 3245, 3254, 3253, 3577, 3578, 3587, 3586
  201748, 3245, 3246, 3255, 3254, 3578, 3579, 3588, 3587
  201749, 3246, 3247, 3256, 3255, 3579, 3580, 3589, 3588
  201750, 3247, 3248, 3257, 3256, 3580, 3581, 3590, 3589
  201751, 3248, 3249, 3258, 3257, 3581, 3582, 3591, 3590
  201752, 3250, 3251, 3260, 3259, 3583, 3584, 3593, 3592
  201753, 3251, 3252, 3261, 3260, 3584, 3585, 3594, 3593
  201754, 3252, 3253, 3262, 3261, 3585, 3586, 3595, 3594
  201755, 3253, 3254, 3263, 3262, 3586, 3587, 3596, 3595
  201756, 3254, 3255, 3264, 3263, 3587, 3588, 3597, 3596
  201757, 3255, 3256, 3265, 3264, 3588, 3589, 3598, 3597
  201758, 3256, 3257, 3266, 3265, 3589, 3590, 3599, 3598
  201759, 3257, 3258, 3267, 3266, 3590, 3591, 3600, 3599
  201760, 3259, 3260, 3269, 3268, 3592, 3593, 3602, 3601
  201761, 3260, 3261, 3270, 3269, 3593, 3594, 3603, 3602
  201762, 3261, 3262, 3271, 3270, 3594, 3595, 3604, 3603
  201763, 3262, 3263, 3272, 3271, 3595, 3596, 3605, 3604
  201764, 3263, 3264, 3273, 3272, 3596, 3597, 3606, 3605
  201765, 3264, 3265, 3274, 3273, 3597, 3598, 3607, 3606
  201766, 3265, 3266, 3275, 3274, 3598, 3599, 3608, 3607
  201767, 3266, 3267, 3276, 3275, 3599, 3600, 3609, 3608
  201768, 3268, 3269, 3278, 3277, 3601, 3602, 3611, 3610
  201769, 3269, 3270, 3279, 3278, 3602, 3603, 3612, 3611
  201770, 3270, 3271, 3280, 3279, 3603, 3604, 3613, 3612
  201771, 3271, 3272, 3281, 3280, 3604, 3605, 3614, 3613
  201772, 3272, 3273, 3282, 3281, 3605, 3606, 3615, 3614
  201773, 3273, 3274, 3283, 3282, 3606, 3607, 3616, 3615
  201774, 3274, 3275, 3284, 3283, 3607, 3608, 3617, 3616
  201775, 3275, 3276, 3285, 3284, 3608, 3609, 3618, 3617
  201776, 3277, 3278, 3287, 3286, 3610, 3611, 3620, 3619
  201777, 3278, 3279, 3288, 3287, 3611, 3612, 3621, 3620
  201778, 3279, 3280, 3289, 3288, 3612, 3613, 3622, 3621
  201779, 3280, 3281, 3290, 3289, 3613, 3614, 3623, 3622
  201780, 3281, 3282, 3291, 3290, 3614, 3615, 3624, 3623
  201781, 3282, 3283, 3292, 3291, 3615, 3616, 3625, 3624
  201782, 3283, 3284, 3293, 3292, 3616, 3617, 3626, 3625
  201783, 3284, 3285, 3294, 3293, 3617, 3618, 3627, 3626
  201784, 3286, 3287, 3296, 3295, 3619, 3620, 3629, 3628
  201785, 3287, 3288, 3297, 3296, 3620, 3621, 3630, 3629
  201786, 3288, 3289, 3298, 3297, 3621, 3622, 3631, 3630
  201787, 3289, 3290, 3299, 3298, 3622, 3623, 3632, 3631
  201788, 3290, 3291, 3300, 3299, 3623, 3624, 3633, 3632
  201789, 3291, 3292, 3301, 3300, 3624, 3625, 3634, 3633
  201790, 3292, 3293, 3302, 3301, 3625, 3626, 3635, 3634
  201791, 3293, 3294, 3303, 3302, 3626, 3627, 3636, 3635
  201792, 3295, 3296, 3305, 3304, 3628, 3629, 3638, 3637
  201793, 3296, 3297, 3306, 3305, 3629, 3630, 3639, 3638
  201794, 3297, 3298, 3307, 3306, 3630, 3631, 3640, 3639
  201795, 3298, 3299, 3308, 3307, 3631, 3632, 3641, 3640
  201796, 3299, 3300, 3309, 3308, 3632, 3633, 3642, 3641
  201797, 3300, 3301, 3310, 3309, 3633, 3634, 3643, 3642
  201798, 3301, 3302, 3311, 3310, 3634, 3635, 3644, 3643
  201799, 3302, 3303, 3312, 3311, 3635, 3636, 3645, 3644
  201800, 3304, 3305, 3314, 3313, 3637, 3638, 3647, 3646
  201801, 3305, 3306, 3315, 3314, 3638, 3639, 3648, 3647
  201802, 3306, 3307, 3316, 3315, 3639, 3640, 3649, 3648
  201803, 3307, 3308, 3317, 3316, 3640, 3641, 3650, 3649
  201804, 3308, 3309, 3318, 3317, 3641, 3642, 3651, 3650
  201805, 3309, 3310, 3319, 3318, 3642, 3643, 3652, 3651
  201806, 3310, 3311, 3320, 3319, 3643, 3644, 3653, 3652
  201807, 3311, 3312, 3321, 3320, 3644, 3645, 3654, 3653
  201808, 3313, 3314, 3323, 3322, 3646, 3647, 3656, 3655
  201809, 3314, 3315, 3324, 3323, 3647, 3648, 3657, 3656
  201810, 3315, 3316, 3325, 3324, 3648, 3649, 3658, 3657
  201811, 3316, 3317, 3326, 3325, 3649, 3650, 3659, 3658
  201812, 3317, 3318, 3327, 3326, 3650, 3651, 3660, 3659
  201813, 3318, 3319, 3328, 3327, 3651, 3652, 3661, 3660
  201814, 3319, 3320, 3329, 3328, 3652, 3653, 3662, 3661
  201815, 3320, 3321, 3330, 3329, 3653, 3654, 3663, 3662
  201816, 3322, 3323, 3332, 3331, 3655, 3656, 3665, 3664
  201817, 3323, 3324, 3333, 3332, 3656, 3657, 3666, 3665
  201818, 3324, 3325, 3334, 3333, 3657, 3658, 3667, 3666
  201819, 3325, 3326, 3335, 3334, 3658, 3659, 3668, 3667
  201820, 3326, 3327, 3336, 3335, 3659, 3660, 3669, 3668
  201821, 3327, 3328, 3337, 3336, 3660, 3661, 3670, 3669
  201822, 3328, 3329, 3338, 3337, 3661, 3662, 3671, 3670
  201823, 3329, 3330, 3339, 3338, 3662, 3663, 3672, 3671
  201824, 3331, 3332, 3341, 3340, 3664, 3665, 3674, 3673
  201825, 3332, 3333, 3342, 3341, 3665, 3666, 3675, 3674
  201826, 3333, 3334, 3343, 3342, 3666, 3667, 3676, 3675
  201827, 3334, 3335, 3344, 3343, 3667, 3668, 3677, 3676
  201828, 3335, 3336, 3345, 3344, 3668, 3669, 3678, 3677
  201829, 3336, 3337, 3346, 3345, 3669, 3670, 3679, 3678
  201830, 3337, 3338, 3347, 3346, 3670, 3671, 3680, 3679
  201831, 3338, 3339, 3348, 3347, 3671, 3672, 3681, 3680
  201832, 3340, 3341, 3350, 3349, 3673, 3674, 3683, 3682
  201833, 3341, 3342, 3351, 3350, 3674, 3675, 3684, 3683
  201834, 3342, 3343, 3352, 3351, 3675, 3676, 3685, 3684
  201835, 3343, 3344, 3353, 3352, 3676, 3677, 3686, 3685
  201836, 3344, 3345, 3354, 3353, 3677, 3678, 3687, 3686
  201837, 3345, 3346, 3355, 3354, 3678, 3679, 3688, 3687
  201838, 3346, 3347, 3356, 3355, 3679, 3680, 3689, 3688
  201839, 3347, 3348, 3357, 3356, 3680, 3681, 3690, 3689
  201840, 3349, 3350, 3359, 3358, 3682, 3683, 3692, 3691
  201841, 3350, 3351, 3360, 3359, 3683, 3684, 3693, 3692
  201842, 3351, 3352, 3361, 3360, 3684, 3685, 3694, 3693
  201843, 3352, 3353, 3362, 3361, 3685, 3686, 3695, 3694
  201844, 3353, 3354, 3363, 3362, 3686, 3687, 3696, 3695
  201845, 3354, 3355, 3364, 3363, 3687, 3688, 3697, 3696
  201846, 3355, 3356, 3365, 3364, 3688, 3689, 3698, 3697
  201847, 3356, 3357, 3366, 3365, 3689, 3690, 3699, 3698
  201848, 3358, 3359, 3368, 3367, 3691, 3692, 3701, 3700
  201849, 3359, 3360, 3369, 3368, 3692, 3693, 3702, 3701
  201850, 3360, 3361, 3370, 3369, 3693, 3694, 3703, 3702
  201851, 3361, 3362, 3371, 3370, 3694, 3695, 3704, 3703
  201852, 3362, 3363, 3372, 3371, 3695, 3696, 3705, 3704
  201853, 3363, 3364, 3373, 3372, 3696, 3697, 3706, 3705
  201854, 3364, 3365, 3374, 3373, 3697, 3698, 3707, 3706
  201855, 3365, 3366, 3375, 3374, 3698, 3699, 3708, 3707
  201856, 3367, 3368, 3377, 3376, 3700, 3701, 3710, 3709
  201857, 3368, 3369, 3378, 3377, 3701, 3702, 3711, 3710
  201858, 3369, 3370, 3379, 3378, 3702, 3703, 3712, 3711
  201859, 3370, 3371, 3380, 3379, 3703, 3704, 3713, 3712
  201860, 3371, 3372, 3381, 3380, 3704, 3705, 3714, 3713
  201861, 3372, 3373, 3382, 3381, 3705, 3706, 3715, 3714
  201862, 3373, 3374, 3383, 3382, 3706, 3707, 3716, 3715
  201863, 3374, 3375, 3384, 3383, 3707, 3708, 3717, 3716
  201864, 3376, 3377, 3386, 3385, 3709, 3710, 3719, 3718
  201865, 3377, 3378, 3387, 3386, 3710, 3711, 3720, 3719
  201866, 3378, 3379, 3388, 3387, 3711, 3712, 3721, 3720
  201867, 3379, 3380, 3389, 3388, 3712, 3713, 3722, 3721
  201868, 3380, 3381, 3390, 3389, 3713, 3714, 3723, 3722
  201869, 3381, 3382, 3391, 3390, 3714, 3715, 3724, 3723
  201870, 3382, 3383, 3392, 3391, 3715, 3716, 3725, 3724
  201871, 3383, 3384, 3393, 3392, 3716, 3717, 3726, 3725
  201872, 3385, 3386, 3395, 3394, 3718, 3719, 3728, 3727
  201873, 3386, 3387, 3396, 3395, 3719, 3720, 3729, 3728
  201874, 3387, 3388, 3397, 3396, 3720, 3721, 3730, 3729
  201875, 3388, 3389, 3398, 3397, 3721, 3722, 3731, 3730
  201876, 3389, 3390, 3399, 3398, 3722, 3723, 3732, 3731
  201877, 3390, 3391, 3400, 3399, 3723, 3724, 3733, 3732
  201878, 3391, 3392, 3401, 3400, 3724, 3725, 3734, 3733
  201879, 3392, 3393, 3402, 3401, 3725, 3726, 3735, 3734
  201880, 3394, 3395, 3404, 3403, 3727, 3728, 3737, 3736
  201881, 3395, 3396, 3405, 3404, 3728, 3729, 3738, 3737
  201882, 3396, 3397, 3406, 3405, 3729, 3730, 3739, 3738
  201883, 3397, 3398, 3407, 3406, 3730, 3731, 3740, 3739
  201884, 3398, 3399, 3408, 3407, 3731, 3732, 3741, 3740
  201885, 3399, 3400, 3409, 3408, 3732, 3733, 3742, 3741
  201886, 3400, 3401, 3410, 3409, 3733, 3734, 3743, 3742
  201887, 3401, 3402, 3411, 3410, 3734, 3735, 3744, 3743
  201888, 3403, 3404, 3413, 3412, 3736, 3737, 3746, 3745
  201889, 3404, 3405, 3414, 3413, 3737, 3738, 3747, 3746
  201890, 3405, 3406, 3415, 3414, 3738, 3739, 3748, 3747
  201891, 3406, 3407, 3416, 3415, 3739, 3740, 3749, 3748
  201892, 3407, 3408, 3417, 3416, 3740, 3741, 3750, 3749
  201893, 3408, 3409, 3418, 3417, 3741, 3742, 3751, 3750
  201894, 3409, 3410, 3419, 3418, 3742, 3743, 3752, 3751
  201895, 3410, 3411, 3420, 3419, 3743, 3744, 3753, 3752
  201896, 3412, 3413, 3422, 3421, 3745, 3746, 3755, 3754
  201897, 3413, 3414, 3423, 3422, 3746, 3747, 3756, 3755
  201898, 3414, 3415, 3424, 3423, 3747, 3748, 3757, 3756
  201899, 3415, 3416, 3425, 3424, 3748, 3749, 3758, 3757
  201900, 3416, 3417, 3426, 3425, 3749, 3750, 3759, 3758
  201901, 3417, 3418, 3427, 3426, 3750, 3751, 3760, 3759
  201902, 3418, 3419, 3428, 3427, 3751, 3752, 3761, 3760
  201903, 3419, 3420, 3429, 3428, 3752, 3753, 3762, 3761
  201904, 3421, 3422, 3431, 3430, 3754, 3755, 3764, 3763
  201905, 3422, 3423, 3432, 3431, 3755, 3756, 3765, 3764
  201906, 3423, 3424, 3433, 3432, 3756, 3757, 3766, 3765
  201907, 3424, 3425, 3434, 3433, 3757, 3758, 3767, 3766
  201908, 3425, 3426, 3435, 3434, 3758, 3759, 3768, 3767
  201909, 3426, 3427, 3436, 3435, 3759, 3760, 3769, 3768
  201910, 3427, 3428, 3437, 3436, 3760, 3761, 3770, 3769
  201911, 3428, 3429, 3438, 3437, 3761, 3762, 3771, 3770
  201912, 3430, 3431, 3440, 3439, 3763, 3764, 3773, 3772
  201913, 3431, 3432, 3441, 3440, 3764, 3765, 3774, 3773
  201914, 3432, 3433, 3442, 3441, 3765, 3766, 3775, 3774
  201915, 3433, 3434, 3443, 3442, 3766, 3767, 3776, 3775
  201916, 3434, 3435, 3444, 3443, 3767, 3768, 3777, 3776
  201917, 3435, 3436, 3445, 3444, 3768, 3769, 3778, 3777
  201918, 3436, 3437, 3446, 3445, 3769, 3770, 3779, 3778
  201919, 3437, 3438, 3447, 3446, 3770, 3771, 3780, 3779
  201920, 3439, 3440, 3449, 3448, 3772, 3773, 3782, 3781
  201921, 3440, 3441, 3450, 3449, 3773, 3774, 3783, 3782
  201922, 3441, 3442, 3451, 3450, 3774, 3775, 3784, 3783
  201923, 3442, 3443, 3452, 3451, 3775, 3776, 3785, 3784
  201924, 3443, 3444, 3453, 3452, 3776, 3777, 3786, 3785
  201925, 3444, 3445, 3454, 3453, 3777, 3778, 3787, 3786
  201926, 3445, 3446, 3455, 3454, 3778, 3779, 3788, 3787
  201927, 3446, 3447, 3456, 3455, 3779, 3780, 3789, 3788
  201928, 3448, 3449, 3458, 3457, 3781, 3782, 3791, 3790
  201929, 3449, 3450, 3459, 3458, 3782, 3783, 3792, 3791
  201930, 3450, 3451, 3460, 3459, 3783, 3784, 3793, 3792
  201931, 3451, 3452, 3461, 3460, 3784, 3785, 3794, 3793
  201932, 3452, 3453, 3462, 3461, 3785, 3786, 3795, 3794
  201933, 3453, 3454, 3463, 3462, 3786, 3787, 3796, 3795
  201934, 3454, 3455, 3464, 3463, 3787, 3788, 3797, 3796
  201935, 3455, 3456, 3465, 3464, 3788, 3789, 3798, 3797
  201936, 3457, 3458, 3467, 3466, 3790, 3791, 3800, 3799
  201937, 3458, 3459, 3468, 3467, 3791, 3792, 3801, 3800
  201938, 3459, 3460, 3469, 3468, 3792, 3793, 3802, 3801
  201939, 3460, 3461, 3470, 3469, 3793, 3794, 3803, 3802
  201940, 3461, 3462, 3471, 3470, 3794, 3795, 3804, 3803
  201941, 3462, 3463, 3472, 3471, 3795, 3796, 3805, 3804
  201942, 3463, 3464, 3473, 3472, 3796, 3797, 3806, 3805
  201943, 3464, 3465, 3474, 3473, 3797, 3798, 3807, 3806
  201944, 3466, 3467, 3476, 3475, 3799, 3800, 3809, 3808
  201945, 3467, 3468, 3477, 3476, 3800, 3801, 3810, 3809
  201946, 3468, 3469, 3478, 3477, 3801, 3802, 3811, 3810
  201947, 3469, 3470, 3479, 3478, 3802, 3803, 3812, 3811
  201948, 3470, 3471, 3480, 3479, 3803, 3804, 3813, 3812
  201949, 3471, 3472, 3481, 3480, 3804, 3805, 3814, 3813
  201950, 3472, 3473, 3482, 3481, 3805, 3806, 3815, 3814
  201951, 3473, 3474, 3483, 3482, 3806, 3807, 3816, 3815
  201952, 3475, 3476, 3485, 3484, 3808, 3809, 3818, 3817
  201953, 3476, 3477, 3486, 3485, 3809, 3810, 3819, 3818
  201954, 3477, 3478, 3487, 3486, 3810, 3811, 3820, 3819
  201955, 3478, 3479, 3488, 3487, 3811, 3812, 3821, 3820
  201956, 3479, 3480, 3489, 3488, 3812, 3813, 3822, 3821
  201957, 3480, 3481, 3490, 3489, 3813, 3814, 3823, 3822
  201958, 3481, 3482, 3491, 3490, 3814, 3815, 3824, 3823
  201959, 3482, 3483, 3492, 3491, 3815, 3816, 3825, 3824
  201960, 3484, 3485, 3494, 3493, 3817, 3818, 3827, 3826
  201961, 3485, 3486, 3495, 3494, 3818, 3819, 3828, 3827
  201962, 3486, 3487, 3496, 3495, 3819, 3820, 3829, 3828
  201963, 3487, 3488, 3497, 3496, 3820, 3821, 3830, 3829
  201964, 3488, 3489, 3498, 3497, 3821, 3822, 3831, 3830
  201965, 3489, 3490, 3499, 3498, 3822, 3823, 3832, 3831
  201966, 3490, 3491, 3500, 3499, 3823, 3824, 3833, 3832
  201967, 3491, 3492, 3501, 3500, 3824, 3825, 3834, 3833
  201968, 3493, 3494, 3503, 3502, 3826, 3827, 3836, 3835
  201969, 3494, 3495, 3504, 3503, 3827, 3828, 3837, 3836
  201970, 3495, 3496, 3505, 3504, 3828, 3829, 3838, 3837
  201971, 3496, 3497, 3506, 3505, 3829, 3830, 3839, 3838
  201972, 3497, 3498, 3507, 3506, 3830, 3831, 3840, 3839
  201973, 3498, 3499, 3508, 3507, 3831, 3832, 3841, 3840
  201974, 3499, 3500, 3509, 3508, 3832, 3833, 3842, 3841
  201975, 3500, 3501, 3510, 3509, 3833, 3834, 3843, 3842
  201976, 3502, 3503, 3512, 3511, 3835, 3836, 3845, 3844
  201977, 3503, 3504, 3513, 3512, 3836, 3837, 3846, 3845
  201978, 3504, 3505, 3514, 3513, 3837, 3838, 3847, 3846
  201979, 3505, 3506, 3515, 3514, 3838, 3839, 3848, 3847
  201980, 3506, 3507, 3516, 3515, 3839, 3840, 3849, 3848
  201981, 3507, 3508, 3517, 3516, 3840, 3841, 3850, 3849
  201982, 3508, 3509, 3518, 3517, 3841, 3842, 3851, 3850
  201983, 3509, 3510, 3519, 3518, 3842, 3843, 3852, 3851
  201984, 3511, 3512, 3521, 3520, 3844, 3845, 3854, 3853
  201985, 3512, 3513, 3522, 3521, 3845, 3846, 3855, 3854
  201986, 3513, 3514, 3523, 3522, 3846, 3847, 3856, 3855
  201987, 3514, 3515, 3524, 3523, 3847, 3848, 3857, 3856
  201988, 3515, 3516, 3525, 3524, 3848, 3849, 3858, 3857
  201989, 3516, 3517, 3526, 3525, 3849, 3850, 3859, 3858
  201990, 3517, 3518, 3527, 3526, 3850, 3851, 3860, 3859
  201991, 3518, 3519, 3528, 3527, 3851, 3852, 3861, 3860
  201992, 3520, 3521, 3530, 3529, 3853, 3854, 3863, 3862
  201993, 3521, 3522, 3531, 3530, 3854, 3855, 3864, 3863
  201994, 3522, 3523, 3532, 3531, 3855, 3856, 3865, 3864
  201995, 3523, 3524, 3533, 3532, 3856, 3857, 3866, 3865
  201996, 3524, 3525, 3534, 3533, 3857, 3858, 3867, 3866
  201997, 3525, 3526, 3535, 3534, 3858, 3859, 3868, 3867
  201998, 3526, 3527, 3536, 3535, 3859, 3860, 3869, 3868
  201999, 3527, 3528, 3537, 3536, 3860, 3861, 3870, 3869
  202000, 3529, 3530, 3539, 3538, 3862, 3863, 3872, 3871
  202001, 3530, 3531, 3540, 3539, 3863, 3864, 3873, 3872
  202002, 3531, 3532, 3541, 3540, 3864, 3865, 3874, 3873
  202003, 3532, 3533, 3542, 3541, 3865, 3866, 3875, 3874
  202004, 3533, 3534, 3543, 3542, 3866, 3867, 3876, 3875
  202005, 3534, 3535, 3544, 3543, 3867, 3868, 3877, 3876
  202006, 3535, 3536, 3545, 3544, 3868, 3869, 3878, 3877
  202007, 3536, 3537, 3546, 3545, 3869, 3870, 3879, 3878
  202008, 3538, 3539, 3548, 3547, 3871, 3872, 3881, 3880
  202009, 3539, 3540, 3549, 3548, 3872, 3873, 3882, 3881
  202010, 3540, 3541, 3550, 3549, 3873, 3874, 3883, 3882
  202011, 3541, 3542, 3551, 3550, 3874, 3875, 3884, 3883
  202012, 3542, 3543, 3552, 3551, 3875, 3876, 3885, 3884
  202013, 3543, 3544, 3553, 3552, 3876, 3877, 3886, 3885
  202014, 3544, 3545, 3554, 3553, 3877, 3878, 3887, 3886
  202015, 3545, 3546, 3555, 3554, 3878, 3879, 3888, 3887
  202016, 3556, 3557, 3566, 3565, 3889, 3890, 3899, 3898
  202017, 3557, 3558, 3567, 3566, 3890, 3891, 3900, 3899
  202018, 3558, 3559, 3568, 3567, 3891, 3892, 3901, 3900
  202019, 3559, 3560, 3569, 3568, 3892, 3893, 3902, 3901
  202020, 3560, 3561, 3570, 3569, 3893, 3894, 3903, 3902
  202021, 3561, 3562, 3571, 3570, 3894, 3895, 3904, 3903
  202022, 3562, 3563, 3572, 3571, 3895, 3896, 3905, 3904
  202023, 3563, 3564, 3573, 3572, 3896, 3897, 3906, 3905
  202024, 3565, 3566, 3575, 3574, 3898, 3899, 3908, 3907
  202025, 3566, 3567, 3576, 3575, 3899, 3900, 3909, 3908
  202026, 3567, 3568, 3577, 3576, 3900, 3901, 3910, 3909
  202027, 3568, 3569, 3578, 3577, 3901, 3902, 3911, 3910
  202028, 3569, 3570, 3579, 3578, 3902, 3903, 3912, 3911
  202029, 3570, 3571, 3580, 3579, 3903, 3904, 3913, 3912
  202030, 3571, 3572, 3581, 3580, 3904, 3905, 3914, 3913
  202031, 3572, 3573, 3582, 3581, 3905, 3906, 3915, 3914
  202032, 3574, 3575, 3584, 3583, 3907, 3908, 3917, 3916
  202033, 3575, 3576, 3585, 3584, 3908, 3909, 3918, 3917
  202034, 3576, 3577, 3586, 3585, 3909, 3910, 3919, 3918
  202035, 3577, 3578, 3587, 3586, 3910, 3911, 3920, 3919
  202036, 3578, 3579, 3588, 3587, 3911, 3912, 3921, 3920
  202037, 3579, 3580, 3589, 3588, 3912, 3913, 3922, 3921
  202038, 3580, 3581, 3590, 3589, 3913, 3914, 3923, 3922
  202039, 3581, 3582, 3591, 3590, 3914, 3915, 3924, 3923
  202040, 3583, 3584, 3593, 3592, 3916, 3917, 3926, 3925
  202041, 3584, 3585, 3594, 3593, 3917, 3918, 3927, 3926
  202042, 3585, 3586, 3595, 3594, 3918, 3919, 3928, 3927
  202043, 3586, 3587, 3596, 3595, 3919, 3920, 3929, 3928
  202044, 3587, 3588, 3597, 3596, 3920, 3921, 3930, 3929
  202045, 3588, 3589, 3598, 3597, 3921, 3922, 3931, 3930
  202046, 3589, 3590, 3599, 3598, 3922, 3923, 3932, 3931
  202047, 3590, 3591, 3600, 3599, 3923, 3924, 3933, 3932
  202048, 3592, 3593, 3602, 3601, 3925, 3926, 3935, 3934
  202049, 3593, 3594, 3603, 3602, 3926, 3927, 3936, 3935
  202050, 3594, 3595, 3604, 3603, 3927, 3928, 3937, 3936
  202051, 3595, 3596, 3605, 3604, 3928, 3929, 3938, 3937
  202052, 3596, 3597, 3606, 3605, 3929, 3930, 3939, 3938
  202053, 3597, 3598, 3607, 3606, 3930, 3931, 3940, 3939
  202054, 3598, 3599, 3608, 3607, 3931, 3932, 3941, 3940
  202055, 3599, 3600, 3609, 3608, 3932, 3933, 3942, 3941
  202056, 3601, 3602, 3611, 3610, 3934, 3935, 3944, 3943
  202057, 3602, 3603, 3612, 3611, 3935, 3936, 3945, 3944
  202058, 3603, 3604, 3613, 3612, 3936, 3937, 3946, 3945
  202059, 3604, 3605, 3614, 3613, 3937, 3938, 3947, 3946
  202060, 3605, 3606, 3615, 3614, 3938, 3939, 3948, 3947
  202061, 3606, 3607, 3616, 3615, 3939, 3940, 3949, 3948
  202062, 3607, 3608, 3617, 3616, 3940, 3941, 3950, 3949
  202063, 3608, 3609, 3618, 3617, 3941, 3942, 3951, 3950
  202064, 3610, 3611, 3620, 3619, 3943, 3944, 3953, 3952
  202065, 3611, 3612, 3621, 3620, 3944, 3945, 3954, 3953
  202066, 3612, 3613, 3622, 3621, 3945, 3946, 3955, 3954
  202067, 3613, 3614, 3623, 3622, 3946, 3947, 3956, 3955
  202068, 3614, 3615, 3624, 3623, 3947, 3948, 3957, 3956
  202069, 3615, 3616, 3625, 3624, 3948, 3949, 3958, 3957
  202070, 3616, 3617, 3626, 3625, 3949, 3950, 3959, 3958
  202071, 3617, 3618, 3627, 3626, 3950, 3951, 3960, 3959
  202072, 3619, 3620, 3629, 3628, 3952, 3953, 3962, 3961
  202073, 3620, 3621, 3630, 3629, 3953, 3954, 3963, 3962
  202074, 3621, 3622, 3631, 3630, 3954, 3955, 3964, 3963
  202075, 3622, 3623, 3632, 3631, 3955, 3956, 3965, 3964
  202076, 3623, 3624, 3633, 3632, 3956, 3957, 3966, 3965
  202077, 3624, 3625, 3634, 3633, 3957, 3958, 3967, 3966
  202078, 3625, 3626, 3635, 3634, 3958, 3959, 3968, 3967
  202079, 3626, 3627, 3636, 3635, 3959, 3960, 3969, 3968
  202080, 3628, 3629, 3638, 3637, 3961, 3962, 3971, 3970
  202081, 3629, 3630, 3639, 3638, 3962, 3963, 3972, 3971
  202082, 3630, 3631, 3640, 3639, 3963, 3964, 3973, 3972
  202083, 3631, 3632, 3641, 3640, 3964, 3965, 3974, 3973
  202084, 3632, 3633, 3642, 3641, 3965, 3966, 3975, 3974
  202085, 3633, 3634, 3643, 3642, 3966, 3967, 3976, 3975
  202086, 3634, 3635, 3644, 3643, 3967, 3968, 3977, 3976
  202087, 3635, 3636, 3645, 3644, 3968, 3969, 3978, 3977
  202088, 3637, 3638, 3647, 3646, 3970, 3971, 3980, 3979
  202089, 3638, 3639, 3648, 3647, 3971, 3972, 3981, 3980
  202090, 3639, 3640, 3649, 3648, 3972, 3973, 3982, 3981
  202091, 3640, 3641, 3650, 3649, 3973, 3974, 3983, 3982
  202092, 3641, 3642, 3651, 3650, 3974, 3975, 3984, 3983
  202093, 3642, 3643, 3652, 3651, 3975, 3976, 3985, 3984
  202094, 3643, 3644, 3653, 3652, 3976, 3977, 3986, 3985
  202095, 3644, 3645, 3654, 3653, 3977, 3978, 3987, 3986
  202096, 3646, 3647, 3656, 3655, 3979, 3980, 3989, 3988
  202097, 3647, 3648, 3657, 3656, 3980, 3981, 3990, 3989
  202098, 3648, 3649, 3658, 3657, 3981, 3982, 3991, 3990
  202099, 3649, 3650, 3659, 3658, 3982, 3983, 3992, 3991
  202100, 3650, 3651, 3660, 3659, 3983, 3984, 3993, 3992
  202101, 3651, 3652, 3661, 3660, 3984, 3985, 3994, 3993
  202102, 3652, 3653, 3662, 3661, 3985, 3986, 3995, 3994
  202103, 3653, 3654, 3663, 3662, 3986, 3987, 3996, 3995
  202104, 3655, 3656, 3665, 3664, 3988, 3989, 3998, 3997
  202105, 3656, 3657, 3666, 3665, 3989, 3990, 3999, 3998
  202106, 3657, 3658, 3667, 3666, 3990, 3991, 4000, 3999
  202107, 3658, 3659, 3668, 3667, 3991, 3992, 4001, 4000
  202108, 3659, 3660, 3669, 3668, 3992, 3993, 4002, 4001
  202109, 3660, 3661, 3670, 3669, 3993, 3994, 4003, 4002
  202110, 3661, 3662, 3671, 3670, 3994, 3995, 4004, 4003
  202111, 3662, 3663, 3672, 3671, 3995, 3996, 4005, 4004
  202112, 3664, 3665, 3674, 3673, 3997, 3998, 4007, 4006
  202113, 3665, 3666, 3675, 3674, 3998, 3999, 4008, 4007
  202114, 3666, 3667, 3676, 3675, 3999, 4000, 4009, 4008
  202115, 3667, 3668, 3677, 3676, 4000, 4001, 4010, 4009
  202116, 3668, 3669, 3678, 3677, 4001, 4002, 4011, 4010
  202117, 3669, 3670, 3679, 3678, 4002, 4003, 4012, 4011
  202118, 3670, 3671, 3680, 3679, 4003, 4004, 4013, 4012
  202119, 3671, 3672, 3681, 3680, 4004, 4005, 4014, 4013
  202120, 3673, 3674, 3683, 3682, 4006, 4007, 4016, 4015
  202121, 3674, 3675, 3684, 3683, 4007, 4008, 4017, 4016
  202122, 3675, 3676, 3685, 3684, 4008, 4009, 4018, 4017
  202123, 3676, 3677, 3686, 3685, 4009, 4010, 4019, 4018
  202124, 3677, 3678, 3687, 3686, 4010, 4011, 4020, 4019
  202125, 3678, 3679, 3688, 3687, 4011, 4012, 4021, 4020
  202126, 3679, 3680, 3689, 3688, 4012, 4013, 4022, 4021
  202127, 3680, 3681, 3690, 3689, 4013, 4014, 4023, 4022
  202128, 3682, 3683, 3692, 3691, 4015, 4016, 4025, 4024
  202129, 3683, 3684, 3693, 3692, 4016, 4017, 4026, 4025
  202130, 3684, 3685, 3694, 3693, 4017, 4018, 4027, 4026
  202131, 3685, 3686, 3695, 3694, 4018, 4019, 4028, 4027
  202132, 3686, 3687, 3696, 3695, 4019, 4020, 4029, 4028
  202133, 3687, 3688, 3697, 3696, 4020, 4021, 4030, 4029
  202134, 3688, 3689, 3698, 3697, 4021, 4022, 4031, 4030
  202135, 3689, 3690, 3699, 3698, 4022, 4023, 4032, 4031
  202136, 3691, 3692, 3701, 3700, 4024, 4025, 4034, 4033
  202137, 3692, 3693, 3702, 3701, 4025, 4026, 4035, 4034
  202138, 3693, 3694, 3703, 3702, 4026, 4027, 4036, 4035
  202139, 3694, 3695, 3704, 3703, 4027, 4028, 4037, 4036
  202140, 3695, 3696, 3705, 3704, 4028, 4029, 4038, 4037
  202141, 3696, 3697, 3706, 3705, 4029, 4030, 4039, 4038
  202142, 3697, 3698, 3707, 3706, 4030, 4031, 4040, 4039
  202143, 3698, 3699, 3708, 3707, 4031, 4032, 4041, 4040
  202144, 3700, 3701, 3710, 3709, 4033, 4034, 4043, 4042
  202145, 3701, 3702, 3711, 3710, 4034, 4035, 4044, 4043
  202146, 3702, 3703, 3712, 3711, 4035, 4036, 4045, 4044
  202147, 3703, 3704, 3713, 3712, 4036, 4037, 4046, 4045
  202148, 3704, 3705, 3714, 3713, 4037, 4038, 4047, 4046
  202149, 3705, 3706, 3715, 3714, 4038, 4039, 4048, 4047
  202150, 3706, 3707, 3716, 3715, 4039, 4040, 4049, 4048
  202151, 3707, 3708, 3717, 3716, 4040, 4041, 4050, 4049
  202152, 3709, 3710, 3719, 3718, 4042, 4043, 4052, 4051
  202153, 3710, 3711, 3720, 3719, 4043, 4044, 4053, 4052
  202154, 3711, 3712, 3721, 3720, 4044, 4045, 4054, 4053
  202155, 3712, 3713, 3722, 3721, 4045, 4046, 4055, 4054
  202156, 3713, 3714, 3723, 3722, 4046, 4047, 4056, 4055
  202157, 3714, 3715, 3724, 3723, 4047, 4048, 4057, 4056
  202158, 3715, 3716, 3725, 3724, 4048, 4049, 4058, 4057
  202159, 3716, 3717, 3726, 3725, 4049, 4050, 4059, 4058
  202160, 3718, 3719, 3728, 3727, 4051, 4052, 4061, 4060
  202161, 3719, 3720, 3729, 3728, 4052, 4053, 4062, 4061
  202162, 3720, 3721, 3730, 3729, 4053, 4054, 4063, 4062
  202163, 3721, 3722, 3731, 3730, 4054, 4055, 4064, 4063
  202164, 3722, 3723, 3732, 3731, 4055, 4056, 4065, 4064
  202165, 3723, 3724, 3733, 3732, 4056, 4057, 4066, 4065
  202166, 3724, 3725, 3734, 3733, 4057, 4058, 4067, 4066
  202167, 3725, 3726, 3735, 3734, 4058, 4059, 4068, 4067
  202168, 3727, 3728, 3737, 3736, 4060, 4061, 4070, 4069
  202169, 3728, 3729, 3738, 3737, 4061, 4062, 4071, 4070
  202170, 3729, 3730, 3739, 3738, 4062, 4063, 4072, 4071
  202171, 3730, 3731, 3740, 3739, 4063, 4064, 4073, 4072
  202172, 3731, 3732, 3741, 3740, 4064, 4065, 4074, 4073
  202173, 3732, 3733, 3742, 3741, 4065, 4066, 4075, 4074
  202174, 3733, 3734, 3743, 3742, 4066, 4067, 4076, 4075
  202175, 3734, 3735, 3744, 3743, 4067, 4068, 4077, 4076
  202176, 3736, 3737, 3746, 3745, 4069, 4070, 4079, 4078
  202177, 3737, 3738, 3747, 3746, 4070, 4071, 4080, 4079
  202178, 3738, 3739, 3748, 3747, 4071, 4072, 4081, 4080
  202179, 3739, 3740, 3749, 3748, 4072, 4073, 4082, 4081
  202180, 3740, 3741, 3750, 3749, 4073, 4074, 4083, 4082
  202181, 3741, 3742, 3751, 3750, 4074, 4075, 4084, 4083
  202182, 3742, 3743, 3752, 3751, 4075, 4076, 4085, 4084
  202183, 3743, 3744, 3753, 3752, 4076, 4077, 4086, 4085
  202184, 3745, 3746, 3755, 3754, 4078, 4079, 4088, 4087
  202185, 3746, 3747, 3756, 3755, 4079, 4080, 4089, 4088
  202186, 3747, 3748, 3757, 3756, 4080, 4081, 4090, 4089
  202187, 3748, 3749, 3758, 3757, 4081, 4082, 4091, 4090
  202188, 3749, 3750, 3759, 3758, 4082, 4083, 4092, 4091
  202189, 3750, 3751, 3760, 3759, 4083, 4084, 4093, 4092
  202190, 3751, 3752, 3761, 3760, 4084, 4085, 4094, 4093
  202191, 3752, 3753, 3762, 3761, 4085, 4086, 4095, 4094
  202192, 3754, 3755, 3764, 3763, 4087, 4088, 4097, 4096
  202193, 3755, 3756, 3765, 3764, 4088, 4089, 4098, 4097
  202194, 3756, 3757, 3766, 3765, 4089, 4090, 4099, 4098
  202195, 3757, 3758, 3767, 3766, 4090, 4091, 4100, 4099
  202196, 3758, 3759, 3768, 3767, 4091, 4092, 4101, 4100
  202197, 3759, 3760, 3769, 3768, 4092, 4093, 4102, 4101
  202198, 3760, 3761, 3770, 3769, 4093, 4094, 4103, 4102
  202199, 3761, 3762, 3771, 3770, 4094, 4095, 4104, 4103
  202200, 3763, 3764, 3773, 3772, 4096, 4097, 4106, 4105
  202201, 3764, 3765, 3774, 3773, 4097, 4098, 4107, 4106
  202202, 3765, 3766, 3775, 3774, 4098, 4099, 4108, 4107
  202203, 3766, 3767, 3776, 3775, 4099, 4100, 4109, 4108
  202204, 3767, 3768, 3777, 3776, 4100, 4101, 4110, 4109
  202205, 3768, 3769, 3778, 3777, 4101, 4102, 4111, 4110
  202206, 3769, 3770, 3779, 3778, 4102, 4103, 4112, 4111
  202207, 3770, 3771, 3780, 3779, 4103, 4104, 4113, 4112
  202208, 3772, 3773, 3782, 3781, 4105, 4106, 4115, 4114
  202209, 3773, 3774, 3783, 3782, 4106, 4107, 4116, 4115
  202210, 3774, 3775, 3784, 3783, 4107, 4108, 4117, 4116
  202211, 3775, 3776, 3785, 3784, 4108, 4109, 4118, 4117
  202212, 3776, 3777, 3786, 3785, 4109, 4110, 4119, 4118
  202213, 3777, 3778, 3787, 3786, 4110, 4111, 4120, 4119
  202214, 3778, 3779, 3788, 3787, 4111, 4112, 4121, 4120
  202215, 3779, 3780, 3789, 3788, 4112, 4113, 4122, 4121
  202216, 3781, 3782, 3791, 3790, 4114, 4115, 4124, 4123
  202217, 3782, 3783, 3792, 3791, 4115, 4116, 4125, 4124
  202218, 3783, 3784, 3793, 3792, 4116, 4117, 4126, 4125
  202219, 3784, 3785, 3794, 3793, 4117, 4118, 4127, 4126
  202220, 3785, 3786, 3795, 3794, 4118, 4119, 4128, 4127
  202221, 3786, 3787, 3796, 3795, 4119, 4120, 4129, 4128
  202222, 3787, 3788, 3797, 3796, 4120, 4121, 4130, 4129
  202223, 3788, 3789, 3798, 3797, 4121, 4122, 4131, 4130
  202224, 3790, 3791, 3800, 3799, 4123, 4124, 4133, 4132
  202225, 3791, 3792, 3801, 3800, 4124, 4125, 4134, 4133
  202226, 3792, 3793, 3802, 3801, 4125, 4126, 4135, 4134
  202227, 3793, 3794, 3803, 3802, 4126, 4127, 4136, 4135
  202228, 3794, 3795, 3804, 3803, 4127, 4128, 4137, 4136
  202229, 3795, 3796, 3805, 3804, 4128, 4129, 4138, 4137
  202230, 3796, 3797, 3806, 3805, 4129, 4130, 4139, 4138
  202231, 3797, 3798, 3807, 3806, 4130, 4131, 4140, 4139
  202232, 3799, 3800, 3809, 3808, 4132, 4133, 4142, 4141
  202233, 3800, 3801, 3810, 3809, 4133, 4134, 4143, 4142
  202234, 3801, 3802, 3811, 3810, 4134, 4135, 4144, 4143
  202235, 3802, 3803, 3812, 3811, 4135, 4136, 4145, 4144
  202236, 3803, 3804, 3813, 3812, 4136, 4137, 4146, 4145
  202237, 3804, 3805, 3814, 3813, 4137, 4138, 4147, 4146
  202238, 3805, 3806, 3815, 3814, 4138, 4139, 4148, 4147
  202239, 3806, 3807, 3816, 3815, 4139, 4140, 4149, 4148
  202240, 3808, 3809, 3818, 3817, 4141, 4142, 4151, 4150
  202241, 3809, 3810, 3819, 3818, 4142, 4143, 4152, 4151
  202242, 3810, 3811, 3820, 3819, 4143, 4144, 4153, 4152
  202243, 3811, 3812, 3821, 3820, 4144, 4145, 4154, 4153
  202244, 3812, 3813, 3822, 3821, 4145, 4146, 4155, 4154
  202245, 3813, 3814, 3823, 3822, 4146, 4147, 4156, 4155
  202246, 3814, 3815, 3824, 3823, 4147, 4148, 4157, 4156
  202247, 3815, 3816, 3825, 3824, 4148, 4149, 4158, 4157
  202248, 3817, 3818, 3827, 3826, 4150, 4151, 4160, 4159
  202249, 3818, 3819, 3828, 3827, 4151, 4152, 4161, 4160
  202250, 3819, 3820, 3829, 3828, 4152, 4153, 4162, 4161
  202251, 3820, 3821, 3830, 3829, 4153, 4154, 4163, 4162
  202252, 3821, 3822, 3831, 3830, 4154, 4155, 4164, 4163
  202253, 3822, 3823, 3832, 3831, 4155, 4156, 4165, 4164
  202254, 3823, 3824, 3833, 3832, 4156, 4157, 4166, 4165
  202255, 3824, 3825, 3834, 3833, 4157, 4158, 4167, 4166
  202256, 3826, 3827, 3836, 3835, 4159, 4160, 4169, 4168
  202257, 3827, 3828, 3837, 3836, 4160, 4161, 4170, 4169
  202258, 3828, 3829, 3838, 3837, 4161, 4162, 4171, 4170
  202259, 3829, 3830, 3839, 3838, 4162, 4163, 4172, 4171
  202260, 3830, 3831, 3840, 3839, 4163, 4164, 4173, 4172
  202261, 3831, 3832, 3841, 3840, 4164, 4165, 4174, 4173
  202262, 3832, 3833, 3842, 3841, 4165, 4166, 4175, 4174
  202263, 3833, 3834, 3843, 3842, 4166, 4167, 4176, 4175
  202264, 3835, 3836, 3845, 3844, 4168, 4169, 4178, 4177
  202265, 3836, 3837, 3846, 3845, 4169, 4170, 4179, 4178
  202266, 3837, 3838, 3847, 3846, 4170, 4171, 4180, 4179
  202267, 3838, 3839, 3848, 3847, 4171, 4172, 4181, 4180
  202268, 3839, 3840, 3849, 3848, 4172, 4173, 4182, 4181
  202269, 3840, 3841, 3850, 3849, 4173, 4174, 4183, 4182
  202270, 3841, 3842, 3851, 3850, 4174, 4175, 4184, 4183
  202271, 3842, 3843, 3852, 3851, 4175, 4176, 4185, 4184
  202272, 3844, 3845, 3854, 3853, 4177, 4178, 4187, 4186
  202273, 3845, 3846, 3855, 3854, 4178, 4179, 4188, 4187
  202274, 3846, 3847, 3856, 3855, 4179, 4180, 4189, 4188
  202275, 3847, 3848, 3857, 3856, 4180, 4181, 4190, 4189
  202276, 3848, 3849, 3858, 3857, 4181, 4182, 4191, 4190
  202277, 3849, 3850, 3859, 3858, 4182, 4183, 4192, 4191
  202278, 3850, 3851, 3860, 3859, 4183, 4184, 4193, 4192
  202279, 3851, 3852, 3861, 3860, 4184, 4185, 4194, 4193
  202280, 3853, 3854, 3863, 3862, 4186, 4187, 4196, 4195
  202281, 3854, 3855, 3864, 3863, 4187, 4188, 4197, 4196
  202282, 3855, 3856, 3865, 3864, 4188, 4189, 4198, 4197
  202283, 3856, 3857, 3866, 3865, 4189, 4190, 4199, 4198
  202284, 3857, 3858, 3867, 3866, 4190, 4191, 4200, 4199
  202285, 3858, 3859, 3868, 3867, 4191, 4192, 4201, 4200
  202286, 3859, 3860, 3869, 3868, 4192, 4193, 4202, 4201
  202287, 3860, 3861, 3870, 3869, 4193, 4194, 4203, 4202
  202288, 3862, 3863, 3872, 3871, 4195, 4196, 4205, 4204
  202289, 3863, 3864, 3873, 3872, 4196, 4197, 4206, 4205
  202290, 3864, 3865, 3874, 3873, 4197, 4198, 4207, 4206
  202291, 3865, 3866, 3875, 3874, 4198, 4199, 4208, 4207
  202292, 3866, 3867, 3876, 3875, 4199, 4200, 4209, 4208
  202293, 3867, 3868, 3877, 3876, 4200, 4201, 4210, 4209
  202294, 3868, 3869, 3878, 3877, 4201, 4202, 4211, 4210
  202295, 3869, 3870, 3879, 3878, 4202, 4203, 4212, 4211
  202296, 3871, 3872, 3881, 3880, 4204, 4205, 4214, 4213
  202297, 3872, 3873, 3882, 3881, 4205, 4206, 4215, 4214
  202298, 3873, 3874, 3883, 3882, 4206, 4207, 4216, 4215
  202299, 3874, 3875, 3884, 3883, 4207, 4208, 4217, 4216
  202300, 3875, 3876, 3885, 3884, 4208, 4209, 4218, 4217
  202301, 3876, 3877, 3886, 3885, 4209, 4210, 4219, 4218
  202302, 3877, 3878, 3887, 3886, 4210, 4211, 4220, 4219
  202303, 3878, 3879, 3888, 3887, 4211, 4212, 4221, 4220
  202304, 3889, 3890, 3899, 3898, 4222, 4223, 4232, 4231
  202305, 3890, 3891, 3900, 3899, 4223, 4224, 4233, 4232
  202306, 3891, 3892, 3901, 3900, 4224, 4225, 4234, 4233
  202307, 3892, 3893, 3902, 3901, 4225, 4226, 4235, 4234
  202308, 3893, 3894, 3903, 3902, 4226, 4227, 4236, 4235
  202309, 3894, 3895, 3904, 3903, 4227, 4228, 4237, 4236
  202310, 3895, 3896, 3905, 3904, 4228, 4229, 4238, 4237
  202311, 3896, 3897, 3906, 3905, 4229, 4230, 4239, 4238
  202312, 3898, 3899, 3908, 3907, 4231, 4232, 4241, 4240
  202313, 3899, 3900, 3909, 3908, 4232, 4233, 4242, 4241
  202314, 3900, 3901, 3910, 3909, 4233, 4234, 4243, 4242
  202315, 3901, 3902, 3911, 3910, 4234, 4235, 4244, 4243
  202316, 3902, 3903, 3912, 3911, 4235, 4236, 4245, 4244
  202317, 3903, 3904, 3913, 3912, 4236, 4237, 4246, 4245
  202318, 3904, 3905, 3914, 3913, 4237, 4238, 4247, 4246
  202319, 3905, 3906, 3915, 3914, 4238, 4239, 4248, 4247
  202320, 3907, 3908, 3917, 3916, 4240, 4241, 4250, 4249
  202321, 3908, 3909, 3918, 3917, 4241, 4242, 4251, 4250
  202322, 3909, 3910, 3919, 3918, 4242, 4243, 4252, 4251
  202323, 3910, 3911, 3920, 3919, 4243, 4244, 4253, 4252
  202324, 3911, 3912, 3921, 3920, 4244, 4245, 4254, 4253
  202325, 3912, 3913, 3922, 3921, 4245, 4246, 4255, 4254
  202326, 3913, 3914, 3923, 3922, 4246, 4247, 4256, 4255
  202327, 3914, 3915, 3924, 3923, 4247, 4248, 4257, 4256
  202328, 3916, 3917, 3926, 3925, 4249, 4250, 4259, 4258
  202329, 3917, 3918, 3927, 3926, 4250, 4251, 4260, 4259
  202330, 3918, 3919, 3928, 3927, 4251, 4252, 4261, 4260
  202331, 3919, 3920, 3929, 3928, 4252, 4253, 4262, 4261
  202332, 3920, 3921, 3930, 3929, 4253, 4254, 4263, 4262
  202333, 3921, 3922, 3931, 3930, 4254, 4255, 4264, 4263
  202334, 3922, 3923, 3932, 3931, 4255, 4256, 4265, 4264
  202335, 3923, 3924, 3933, 3932, 4256, 4257, 4266, 4265
  202336, 3925, 3926, 3935, 3934, 4258, 4259, 4268, 4267
  202337, 3926, 3927, 3936, 3935, 4259, 4260, 4269, 4268
  202338, 3927, 3928, 3937, 3936, 4260, 4261, 4270, 4269
  202339, 3928, 3929, 3938, 3937, 4261, 4262, 4271, 4270
  202340, 3929, 3930, 3939, 3938, 4262, 4263, 4272, 4271
  202341, 3930, 3931, 3940, 3939, 4263, 4264, 4273, 4272
  202342, 3931, 3932, 3941, 3940, 4264, 4265, 4274, 4273
  202343, 3932, 3933, 3942, 3941, 4265, 4266, 4275, 4274
  202344, 3934, 3935, 3944, 3943, 4267, 4268, 4277, 4276
  202345, 3935, 3936, 3945, 3944, 4268, 4269, 4278, 4277
  202346, 3936, 3937, 3946, 3945, 4269, 4270, 4279, 4278
  202347, 3937, 3938, 3947, 3946, 4270, 4271, 4280, 4279
  202348, 3938, 3939, 3948, 3947, 4271, 4272, 4281, 4280
  202349, 3939, 3940, 3949, 3948, 4272, 4273, 4282, 4281
  202350, 3940, 3941, 3950, 3949, 4273, 4274, 4283, 4282
  202351, 3941, 3942, 3951, 3950, 4274, 4275, 4284, 4283
  202352, 3943, 3944, 3953, 3952, 4276, 4277, 4286, 4285
  202353, 3944, 3945, 3954, 3953, 4277, 4278, 4287, 4286
  202354, 3945, 3946, 3955, 3954, 4278, 4279, 4288, 4287
  202355, 3946, 3947, 3956, 3955, 4279, 4280, 4289, 4288
  202356, 3947, 3948, 3957, 3956, 4280, 4281, 4290, 4289
  202357, 3948, 3949, 3958, 3957, 4281, 4282, 4291, 4290
  202358, 3949, 3950, 3959, 3958, 4282, 4283, 4292, 4291
  202359, 3950, 3951, 3960, 3959, 4283, 4284, 4293, 4292
  202360, 3952, 3953, 3962, 3961, 4285, 4286, 4295, 4294
  202361, 3953, 3954, 3963, 3962, 4286, 4287, 4296, 4295
  202362, 3954, 3955, 3964, 3963, 4287, 4288, 4297, 4296
  202363, 3955, 3956, 3965, 3964, 4288, 4289, 4298, 4297
  202364, 3956, 3957, 3966, 3965, 4289, 4290, 4299, 4298
  202365, 3957, 3958, 3967, 3966, 4290, 4291, 4300, 4299
  202366, 3958, 3959, 3968, 3967, 4291, 4292, 4301, 4300
  202367, 3959, 3960, 3969, 3968, 4292, 4293, 4302, 4301
  202368, 3961, 3962, 3971, 3970, 4294, 4295, 4304, 4303
  202369, 3962, 3963, 3972, 3971, 4295, 4296, 4305, 4304
  202370, 3963, 3964, 3973, 3972, 4296, 4297, 4306, 4305
  202371, 3964, 3965, 3974, 3973, 4297, 4298, 4307, 4306
  202372, 3965, 3966, 3975, 3974, 4298, 4299, 4308, 4307
  202373, 3966, 3967, 3976, 3975, 4299, 4300, 4309, 4308
  202374, 3967, 3968, 3977, 3976, 4300, 4301, 4310, 4309
  202375, 3968, 3969, 3978, 3977, 4301, 4302, 4311, 4310
  202376, 3970, 3971, 3980, 3979, 4303, 4304, 4313, 4312
  202377, 3971, 3972, 3981, 3980, 4304, 4305, 4314, 4313
  202378, 3972, 3973, 3982, 3981, 4305, 4306, 4315, 4314
  202379, 3973, 3974, 3983, 3982, 4306, 4307, 4316, 4315
  202380, 3974, 3975, 3984, 3983, 4307, 4308, 4317, 4316
  202381, 3975, 3976, 3985, 3984, 4308, 4309, 4318, 4317
  202382, 3976, 3977, 3986, 3985, 4309, 4310, 4319, 4318
  202383, 3977, 3978, 3987, 3986, 4310, 4311, 4320, 4319
  202384, 3979, 3980, 3989, 3988, 4312, 4313, 4322, 4321
  202385, 3980, 3981, 3990, 3989, 4313, 4314, 4323, 4322
  202386, 3981, 3982, 3991, 3990, 4314, 4315, 4324, 4323
  202387, 3982, 3983, 3992, 3991, 4315, 4316, 4325, 4324
  202388, 3983, 3984, 3993, 3992, 4316, 4317, 4326, 4325
  202389, 3984, 3985, 3994, 3993, 4317, 4318, 4327, 4326
  202390, 3985, 3986, 3995, 3994, 4318, 4319, 4328, 4327
  202391, 3986, 3987, 3996, 3995, 4319, 4320, 4329, 4328
  202392, 3988, 3989, 3998, 3997, 4321, 4322, 4331, 4330
  202393, 3989, 3990, 3999, 3998, 4322, 4323, 4332, 4331
  202394, 3990, 3991, 4000, 3999, 4323, 4324, 4333, 4332
  202395, 3991, 3992, 4001, 4000, 4324, 4325, 4334, 4333
  202396, 3992, 3993, 4002, 4001, 4325, 4326, 4335, 4334
  202397, 3993, 3994, 4003, 4002, 4326, 4327, 4336, 4335
  202398, 3994, 3995, 4004, 4003, 4327, 4328, 4337, 4336
  202399, 3995, 3996, 4005, 4004, 4328, 4329, 4338, 4337
  202400, 3997, 3998, 4007, 4006, 4330, 4331, 4340, 4339
  202401, 3998, 3999, 4008, 4007, 4331, 4332, 4341, 4340
  202402, 3999, 4000, 4009, 4008, 4332, 4333, 4342, 4341
  202403, 4000, 4001, 4010, 4009, 4333, 4334, 4343, 4342
  202404, 4001, 4002, 4011, 4010, 4334, 4335, 4344, 4343
  202405, 4002, 4003, 4012, 4011, 4335, 4336, 4345, 4344
  202406, 4003, 4004, 4013, 4012, 4336, 4337, 4346, 4345
  202407, 4004, 4005, 4014, 4013, 4337, 4338, 4347, 4346
  202408, 4006, 4007, 4016, 4015, 4339, 4340, 4349, 4348
  202409, 4007, 4008, 4017, 4016, 4340, 4341, 4350, 4349
  202410, 4008, 4009, 4018, 4017, 4341, 4342, 4351, 4350
  202411, 4009, 4010, 4019, 4018, 4342, 4343, 4352, 4351
  202412, 4010, 4011, 4020, 4019, 4343, 4344, 4353, 4352
  202413, 4011, 4012, 4021, 4020, 4344, 4345, 4354, 4353
  202414, 4012, 4013, 4022, 4021, 4345, 4346, 4355, 4354
  202415, 4013, 4014, 4023, 4022, 4346, 4347, 4356, 4355
  202416, 4015, 4016, 4025, 4024, 4348, 4349, 4358, 4357
  202417, 4016, 4017, 4026, 4025, 4349, 4350, 4359, 4358
  202418, 4017, 4018, 4027, 4026, 4350, 4351, 4360, 4359
  202419, 4018, 4019, 4028, 4027, 4351, 4352, 4361, 4360
  202420, 4019, 4020, 4029, 4028, 4352, 4353, 4362, 4361
  202421, 4020, 4021, 4030, 4029, 4353, 4354, 4363, 4362
  202422, 4021, 4022, 4031, 4030, 4354, 4355, 4364, 4363
  202423, 4022, 4023, 4032, 4031, 4355, 4356, 4365, 4364
  202424, 4024, 4025, 4034, 4033, 4357, 4358, 4367, 4366
  202425, 4025, 4026, 4035, 4034, 4358, 4359, 4368, 4367
  202426, 4026, 4027, 4036, 4035, 4359, 4360, 4369, 4368
  202427, 4027, 4028, 4037, 4036, 4360, 4361, 4370, 4369
  202428, 4028, 4029, 4038, 4037, 4361, 4362, 4371, 4370
  202429, 4029, 4030, 4039, 4038, 4362, 4363, 4372, 4371
  202430, 4030, 4031, 4040, 4039, 4363, 4364, 4373, 4372
  202431, 4031, 4032, 4041, 4040, 4364, 4365, 4374, 4373
  202432, 4033, 4034, 4043, 4042, 4366, 4367, 4376, 4375
  202433, 4034, 4035, 4044, 4043, 4367, 4368, 4377, 4376
  202434, 4035, 4036, 4045, 4044, 4368, 4369, 4378, 4377
  202435, 4036, 4037, 4046, 4045, 4369, 4370, 4379, 4378
  202436, 4037, 4038, 4047, 4046, 4370, 4371, 4380, 4379
  202437, 4038, 4039, 4048, 4047, 4371, 4372, 4381, 4380
  202438, 4039, 4040, 4049, 4048, 4372, 4373, 4382, 4381
  202439, 4040, 4041, 4050, 4049, 4373, 4374, 4383, 4382
  202440, 4042, 4043, 4052, 4051, 4375, 4376, 4385, 4384
  202441, 4043, 4044, 4053, 4052, 4376, 4377, 4386, 4385
  202442, 4044, 4045, 4054, 4053, 4377, 4378, 4387, 4386
  202443, 4045, 4046, 4055, 4054, 4378, 4379, 4388, 4387
  202444, 4046, 4047, 4056, 4055, 4379, 4380, 4389, 4388
  202445, 4047, 4048, 4057, 4056, 4380, 4381, 4390, 4389
  202446, 4048, 4049, 4058, 4057, 4381, 4382, 4391, 4390
  202447, 4049, 4050, 4059, 4058, 4382, 4383, 4392, 4391
  202448, 4051, 4052, 4061, 4060, 4384, 4385, 4394, 4393
  202449, 4052, 4053, 4062, 4061, 4385, 4386, 4395, 4394
  202450, 4053, 4054, 4063, 4062, 4386, 4387, 4396, 4395
  202451, 4054, 4055, 4064, 4063, 4387, 4388, 4397, 4396
  202452, 4055, 4056, 4065, 4064, 4388, 4389, 4398, 4397
  202453, 4056, 4057, 4066, 4065, 4389, 4390, 4399, 4398
  202454, 4057, 4058, 4067, 4066, 4390, 4391, 4400, 4399
  202455, 4058, 4059, 4068, 4067, 4391, 4392, 4401, 4400
  202456, 4060, 4061, 4070, 4069, 4393, 4394, 4403, 4402
  202457, 4061, 4062, 4071, 4070, 4394, 4395, 4404, 4403
  202458, 4062, 4063, 4072, 4071, 4395, 4396, 4405, 4404
  202459, 4063, 4064, 4073, 4072, 4396, 4397, 4406, 4405
  202460, 4064, 4065, 4074, 4073, 4397, 4398, 4407, 4406
  202461, 4065, 4066, 4075, 4074, 4398, 4399, 4408, 4407
  202462, 4066, 4067, 4076, 4075, 4399, 4400, 4409, 4408
  202463, 4067, 4068, 4077, 4076, 4400, 4401, 4410, 4409
  202464, 4069, 4070, 4079, 4078, 4402, 4403, 4412, 4411
  202465, 4070, 4071, 4080, 4079, 4403, 4404, 4413, 4412
  202466, 4071, 4072, 4081, 4080, 4404, 4405, 4414, 4413
  202467, 4072, 4073, 4082, 4081, 4405, 4406, 4415, 4414
  202468, 4073, 4074, 4083, 4082, 4406, 4407, 4416, 4415
  202469, 4074, 4075, 4084, 4083, 4407, 4408, 4417, 4416
  202470, 4075, 4076, 4085, 4084, 4408, 4409, 4418, 4417
  202471, 4076, 4077, 4086, 4085, 4409, 4410, 4419, 4418
  202472, 4078, 4079, 4088, 4087, 4411, 4412, 4421, 4420
  202473, 4079, 4080, 4089, 4088, 4412, 4413, 4422, 4421
  202474, 4080, 4081, 4090, 4089, 4413, 4414, 4423, 4422
  202475, 4081, 4082, 4091, 4090, 4414, 4415, 4424, 4423
  202476, 4082, 4083, 4092, 4091, 4415, 4416, 4425, 4424
  202477, 4083, 4084, 4093, 4092, 4416, 4417, 4426, 4425
  202478, 4084, 4085, 4094, 4093, 4417, 4418, 4427, 4426
  202479, 4085, 4086, 4095, 4094, 4418, 4419, 4428, 4427
  202480, 4087, 4088, 4097, 4096, 4420, 4421, 4430, 4429
  202481, 4088, 4089, 4098, 4097, 4421, 4422, 4431, 4430
  202482, 4089, 4090, 4099, 4098, 4422, 4423, 4432, 4431
  202483, 4090, 4091, 4100, 4099, 4423, 4424, 4433, 4432
  202484, 4091, 4092, 4101, 4100, 4424, 4425, 4434, 4433
  202485, 4092, 4093, 4102, 4101, 4425, 4426, 4435, 4434
  202486, 4093, 4094, 4103, 4102, 4426, 4427, 4436, 4435
  202487, 4094, 4095, 4104, 4103, 4427, 4428, 4437, 4436
  202488, 4096, 4097, 4106, 4105, 4429, 4430, 4439, 4438
  202489, 4097, 4098, 4107, 4106, 4430, 4431, 4440, 4439
  202490, 4098, 4099, 4108, 4107, 4431, 4432, 4441, 4440
  202491, 4099, 4100, 4109, 4108, 4432, 4433, 4442, 4441
  202492, 4100, 4101, 4110, 4109, 4433, 4434, 4443, 4442
  202493, 4101, 4102, 4111, 4110, 4434, 4435, 4444, 4443
  202494, 4102, 4103, 4112, 4111, 4435, 4436, 4445, 4444
  202495, 4103, 4104, 4113, 4112, 4436, 4437, 4446, 4445
  202496, 4105, 4106, 4115, 4114, 4438, 4439, 4448, 4447
  202497, 4106, 4107, 4116, 4115, 4439, 4440, 4449, 4448
  202498, 4107, 4108, 4117, 4116, 4440, 4441, 4450, 4449
  202499, 4108, 4109, 4118, 4117, 4441, 4442, 4451, 4450
  202500, 4109, 4110, 4119, 4118, 4442, 4443, 4452, 4451
  202501, 4110, 4111, 4120, 4119, 4443, 4444, 4453, 4452
  202502, 4111, 4112, 4121, 4120, 4444, 4445, 4454, 4453
  202503, 4112, 4113, 4122, 4121, 4445, 4446, 4455, 4454
  202504, 4114, 4115, 4124, 4123, 4447, 4448, 4457, 4456
  202505, 4115, 4116, 4125, 4124, 4448, 4449, 4458, 4457
  202506, 4116, 4117, 4126, 4125, 4449, 4450, 4459, 4458
  202507, 4117, 4118, 4127, 4126, 4450, 4451, 4460, 4459
  202508, 4118, 4119, 4128, 4127, 4451, 4452, 4461, 4460
  202509, 4119, 4120, 4129, 4128, 4452, 4453, 4462, 4461
  202510, 4120, 4121, 4130, 4129, 4453, 4454, 4463, 4462
  202511, 4121, 4122, 4131, 4130, 4454, 4455, 4464, 4463
  202512, 4123, 4124, 4133, 4132, 4456, 4457, 4466, 4465
  202513, 4124, 4125, 4134, 4133, 4457, 4458, 4467, 4466
  202514, 4125, 4126, 4135, 4134, 4458, 4459, 4468, 4467
  202515, 4126, 4127, 4136, 4135, 4459, 4460, 4469, 4468
  202516, 4127, 4128, 4137, 4136, 4460, 4461, 4470, 4469
  202517, 4128, 4129, 4138, 4137, 4461, 4462, 4471, 4470
  202518, 4129, 4130, 4139, 4138, 4462, 4463, 4472, 4471
  202519, 4130, 4131, 4140, 4139, 4463, 4464, 4473, 4472
  202520, 4132, 4133, 4142, 4141, 4465, 4466, 4475, 4474
  202521, 4133, 4134, 4143, 4142, 4466, 4467, 4476, 4475
  202522, 4134, 4135, 4144, 4143, 4467, 4468, 4477, 4476
  202523, 4135, 4136, 4145, 4144, 4468, 4469, 4478, 4477
  202524, 4136, 4137, 4146, 4145, 4469, 4470, 4479, 4478
  202525, 4137, 4138, 4147, 4146, 4470, 4471, 4480, 4479
  202526, 4138, 4139, 4148, 4147, 4471, 4472, 4481, 4480
  202527, 4139, 4140, 4149, 4148, 4472, 4473, 4482, 4481
  202528, 4141, 4142, 4151, 4150, 4474, 4475, 4484, 4483
  202529, 4142, 4143, 4152, 4151, 4475, 4476, 4485, 4484
  202530, 4143, 4144, 4153, 4152, 4476, 4477, 4486, 4485
  202531, 4144, 4145, 4154, 4153, 4477, 4478, 4487, 4486
  202532, 4145, 4146, 4155, 4154, 4478, 4479, 4488, 4487
  202533, 4146, 4147, 4156, 4155, 4479, 4480, 4489, 4488
  202534, 4147, 4148, 4157, 4156, 4480, 4481, 4490, 4489
  202535, 4148, 4149, 4158, 4157, 4481, 4482, 4491, 4490
  202536, 4150, 4151, 4160, 4159, 4483, 4484, 4493, 4492
  202537, 4151, 4152, 4161, 4160, 4484, 4485, 4494, 4493
  202538, 4152, 4153, 4162, 4161, 4485, 4486, 4495, 4494
  202539, 4153, 4154, 4163, 4162, 4486, 4487, 4496, 4495
  202540, 4154, 4155, 4164, 4163, 4487, 4488, 4497, 4496
  202541, 4155, 4156, 4165, 4164, 4488, 4489, 4498, 4497
  202542, 4156, 4157, 4166, 4165, 4489, 4490, 4499, 4498
  202543, 4157, 4158, 4167, 4166, 4490, 4491, 4500, 4499
  202544, 4159, 4160, 4169, 4168, 4492, 4493, 4502, 4501
  202545, 4160, 4161, 4170, 4169, 4493, 4494, 4503, 4502
  202546, 4161, 4162, 4171, 4170, 4494, 4495, 4504, 4503
  202547, 4162, 4163, 4172, 4171, 4495, 4496, 4505, 4504
  202548, 4163, 4164, 4173, 4172, 4496, 4497, 4506, 4505
  202549, 4164, 4165, 4174, 4173, 4497, 4498, 4507, 4506
  202550, 4165, 4166, 4175, 4174, 4498, 4499, 4508, 4507
  202551, 4166, 4167, 4176, 4175, 4499, 4500, 4509, 4508
  202552, 4168, 4169, 4178, 4177, 4501, 4502, 4511, 4510
  202553, 4169, 4170, 4179, 4178, 4502, 4503, 4512, 4511
  202554, 4170, 4171, 4180, 4179, 4503, 4504, 4513, 4512
  202555, 4171, 4172, 4181, 4180, 4504, 4505, 4514, 4513
  202556, 4172, 4173, 4182, 4181, 4505, 4506, 4515, 4514
  202557, 4173, 4174, 4183, 4182, 4506, 4507, 4516, 4515
  202558, 4174, 4175, 4184, 4183, 4507, 4508, 4517, 4516
  202559, 4175, 4176, 4185, 4184, 4508, 4509, 4518, 4517
  202560, 4177, 4178, 4187, 4186, 4510, 4511, 4520, 4519
  202561, 4178, 4179, 4188, 4187, 4511, 4512, 4521, 4520
  202562, 4179, 4180, 4189, 4188, 4512, 4513, 4522, 4521
  202563, 4180, 4181, 4190, 4189, 4513, 4514, 4523, 4522
  202564, 4181, 4182, 4191, 4190, 4514, 4515, 4524, 4523
  202565, 4182, 4183, 4192, 4191, 4515, 4516, 4525, 4524
  202566, 4183, 4184, 4193, 4192, 4516, 4517, 4526, 4525
  202567, 4184, 4185, 4194, 4193, 4517, 4518, 4527, 4526
  202568, 4186, 4187, 4196, 4195, 4519, 4520, 4529, 4528
  202569, 4187, 4188, 4197, 4196, 4520, 4521, 4530, 4529
  202570, 4188, 4189, 4198, 4197, 4521, 4522, 4531, 4530
  202571, 4189, 4190, 4199, 4198, 4522, 4523, 4532, 4531
  202572, 4190, 4191, 4200, 4199, 4523, 4524, 4533, 4532
  202573, 4191, 4192, 4201, 4200, 4524, 4525, 4534, 4533
  202574, 4192, 4193, 4202, 4201, 4525, 4526, 4535, 4534
  202575, 4193, 4194, 4203, 4202, 4526, 4527, 4536, 4535
  202576, 4195, 4196, 4205, 4204, 4528, 4529, 4538, 4537
  202577, 4196, 4197, 4206, 4205, 4529, 4530, 4539, 4538
  202578, 4197, 4198, 4207, 4206, 4530, 4531, 4540, 4539
  202579, 4198, 4199, 4208, 4207, 4531, 4532, 4541, 4540
  202580, 4199, 4200, 4209, 4208, 4532, 4533, 4542, 4541
  202581, 4200, 4201, 4210, 4209, 4533, 4534, 4543, 4542
  202582, 4201, 4202, 4211, 4210, 4534, 4535, 4544, 4543
  202583, 4202, 4203, 4212, 4211, 4535, 4536, 4545, 4544
  202584, 4204, 4205, 4214, 4213, 4537, 4538, 4547, 4546
  202585, 4205, 4206, 4215, 4214, 4538, 4539, 4548, 4547
  202586, 4206, 4207, 4216, 4215, 4539, 4540, 4549, 4548
  202587, 4207, 4208, 4217, 4216, 4540, 4541, 4550, 4549
  202588, 4208, 4209, 4218, 4217, 4541, 4542, 4551, 4550
  202589, 4209, 4210, 4219, 4218, 4542, 4543, 4552, 4551
  202590, 4210, 4211, 4220, 4219, 4543, 4544, 4553, 4552
  202591, 4211, 4212, 4221, 4220, 4544, 4545, 4554, 4553
  202592, 4222, 4223, 4232, 4231, 4555, 4556, 4565, 4564
  202593, 4223, 4224, 4233, 4232, 4556, 4557, 4566, 4565
  202594, 4224, 4225, 4234, 4233, 4557, 4558, 4567, 4566
  202595, 4225, 4226, 4235, 4234, 4558, 4559, 4568, 4567
  202596, 4226, 4227, 4236, 4235, 4559, 4560, 4569, 4568
  202597, 4227, 4228, 4237, 4236, 4560, 4561, 4570, 4569
  202598, 4228, 4229, 4238, 4237, 4561, 4562, 4571, 4570
  202599, 4229, 4230, 4239, 4238, 4562, 4563, 4572, 4571
  202600, 4231, 4232, 4241, 4240, 4564, 4565, 4574, 4573
  202601, 4232, 4233, 4242, 4241, 4565, 4566, 4575, 4574
  202602, 4233, 4234, 4243, 4242, 4566, 4567, 4576, 4575
  202603, 4234, 4235, 4244, 4243, 4567, 4568, 4577, 4576
  202604, 4235, 4236, 4245, 4244, 4568, 4569, 4578, 4577
  202605, 4236, 4237, 4246, 4245, 4569, 4570, 4579, 4578
  202606, 4237, 4238, 4247, 4246, 4570, 4571, 4580, 4579
  202607, 4238, 4239, 4248, 4247, 4571, 4572, 4581, 4580
  202608, 4240, 4241, 4250, 4249, 4573, 4574, 4583, 4582
  202609, 4241, 4242, 4251, 4250, 4574, 4575, 4584, 4583
  202610, 4242, 4243, 4252, 4251, 4575, 4576, 4585, 4584
  202611, 4243, 4244, 4253, 4252, 4576, 4577, 4586, 4585
  202612, 4244, 4245, 4254, 4253, 4577, 4578, 4587, 4586
  202613, 4245, 4246, 4255, 4254, 4578, 4579, 4588, 4587
  202614, 4246, 4247, 4256, 4255, 4579, 4580, 4589, 4588
  202615, 4247, 4248, 4257, 4256, 4580, 4581, 4590, 4589
  202616, 4249, 4250, 4259, 4258, 4582, 4583, 4592, 4591
  202617, 4250, 4251, 4260, 4259, 4583, 4584, 4593, 4592
  202618, 4251, 4252, 4261, 4260, 4584, 4585, 4594, 4593
  202619, 4252, 4253, 4262, 4261, 4585, 4586, 4595, 4594
  202620, 4253, 4254, 4263, 4262, 4586, 4587, 4596, 4595
  202621, 4254, 4255, 4264, 4263, 4587, 4588, 4597, 4596
  202622, 4255, 4256, 4265, 4264, 4588, 4589, 4598, 4597
  202623, 4256, 4257, 4266, 4265, 4589, 4590, 4599, 4598
  202624, 4258, 4259, 4268, 4267, 4591, 4592, 4601, 4600
  202625, 4259, 4260, 4269, 4268, 4592, 4593, 4602, 4601
  202626, 4260, 4261, 4270, 4269, 4593, 4594, 4603, 4602
  202627, 4261, 4262, 4271, 4270, 4594, 4595, 4604, 4603
  202628, 4262, 4263, 4272, 4271, 4595, 4596, 4605, 4604
  202629, 4263, 4264, 4273, 4272, 4596, 4597, 4606, 4605
  202630, 4264, 4265, 4274, 4273, 4597, 4598, 4607, 4606
  202631, 4265, 4266, 4275, 4274, 4598, 4599, 4608, 4607
  202632, 4267, 4268, 4277, 4276, 4600, 4601, 4610, 4609
  202633, 4268, 4269, 4278, 4277, 4601, 4602, 4611, 4610
  202634, 4269, 4270, 4279, 4278, 4602, 4603, 4612, 4611
  202635, 4270, 4271, 4280, 4279, 4603, 4604, 4613, 4612
  202636, 4271, 4272, 4281, 4280, 4604, 4605, 4614, 4613
  202637, 4272, 4273, 4282, 4281, 4605, 4606, 4615, 4614
  202638, 4273, 4274, 4283, 4282, 4606, 4607, 4616, 4615
  202639, 4274, 4275, 4284, 4283, 4607, 4608, 4617, 4616
  202640, 4276, 4277, 4286, 4285, 4609, 4610, 4619, 4618
  202641, 4277, 4278, 4287, 4286, 4610, 4611, 4620, 4619
  202642, 4278, 4279, 4288, 4287, 4611, 4612, 4621, 4620
  202643, 4279, 4280, 4289, 4288, 4612, 4613, 4622, 4621
  202644, 4280, 4281, 4290, 4289, 4613, 4614, 4623, 4622
  202645, 4281, 4282, 4291, 4290, 4614, 4615, 4624, 4623
  202646, 4282, 4283, 4292, 4291, 4615, 4616, 4625, 4624
  202647, 4283, 4284, 4293, 4292, 4616, 4617, 4626, 4625
  202648, 4285, 4286, 4295, 4294, 4618, 4619, 4628, 4627
  202649, 4286, 4287, 4296, 4295, 4619, 4620, 4629, 4628
  202650, 4287, 4288, 4297, 4296, 4620, 4621, 4630, 4629
  202651, 4288, 4289, 4298, 4297, 4621, 4622, 4631, 4630
  202652, 4289, 4290, 4299, 4298, 4622, 4623, 4632, 4631
  202653, 4290, 4291, 4300, 4299, 4623, 4624, 4633, 4632
  202654, 4291, 4292, 4301, 4300, 4624, 4625, 4634, 4633
  202655, 4292, 4293, 4302, 4301, 4625, 4626, 4635, 4634
  202656, 4294, 4295, 4304, 4303, 4627, 4628, 4637, 4636
  202657, 4295, 4296, 4305, 4304, 4628, 4629, 4638, 4637
  202658, 4296, 4297, 4306, 4305, 4629, 4630, 4639, 4638
  202659, 4297, 4298, 4307, 4306, 4630, 4631, 4640, 4639
  202660, 4298, 4299, 4308, 4307, 4631, 4632, 4641, 4640
  202661, 4299, 4300, 4309, 4308, 4632, 4633, 4642, 4641
  202662, 4300, 4301, 4310, 4309, 4633, 4634, 4643, 4642
  202663, 4301, 4302, 4311, 4310, 4634, 4635, 4644, 4643
  202664, 4303, 4304, 4313, 4312, 4636, 4637, 4646, 4645
  202665, 4304, 4305, 4314, 4313, 4637, 4638, 4647, 4646
  202666, 4305, 4306, 4315, 4314, 4638, 4639, 4648, 4647
  202667, 4306, 4307, 4316, 4315, 4639, 4640, 4649, 4648
  202668, 4307, 4308, 4317, 4316, 4640, 4641, 4650, 4649
  202669, 4308, 4309, 4318, 4317, 4641, 4642, 4651, 4650
  202670, 4309, 4310, 4319, 4318, 4642, 4643, 4652, 4651
  202671, 4310, 4311, 4320, 4319, 4643, 4644, 4653, 4652
  202672, 4312, 4313, 4322, 4321, 4645, 4646, 4655, 4654
  202673, 4313, 4314, 4323, 4322, 4646, 4647, 4656, 4655
  202674, 4314, 4315, 4324, 4323, 4647, 4648, 4657, 4656
  202675, 4315, 4316, 4325, 4324, 4648, 4649, 4658, 4657
  202676, 4316, 4317, 4326, 4325, 4649, 4650, 4659, 4658
  202677, 4317, 4318, 4327, 4326, 4650, 4651, 4660, 4659
  202678, 4318, 4319, 4328, 4327, 4651, 4652, 4661, 4660
  202679, 4319, 4320, 4329, 4328, 4652, 4653, 4662, 4661
  202680, 4321, 4322, 4331, 4330, 4654, 4655, 4664, 4663
  202681, 4322, 4323, 4332, 4331, 4655, 4656, 4665, 4664
  202682, 4323, 4324, 4333, 4332, 4656, 4657, 4666, 4665
  202683, 4324, 4325, 4334, 4333, 4657, 4658, 4667, 4666
  202684, 4325, 4326, 4335, 4334, 4658, 4659, 4668, 4667
  202685, 4326, 4327, 4336, 4335, 4659, 4660, 4669, 4668
  202686, 4327, 4328, 4337, 4336, 4660, 4661, 4670, 4669
  202687, 4328, 4329, 4338, 4337, 4661, 4662, 4671, 4670
  202688, 4330, 4331, 4340, 4339, 4663, 4664, 4673, 4672
  202689, 4331, 4332, 4341, 4340, 4664, 4665, 4674, 4673
  202690, 4332, 4333, 4342, 4341, 4665, 4666, 4675, 4674
  202691, 4333, 4334, 4343, 4342, 4666, 4667, 4676, 4675
  202692, 4334, 4335, 4344, 4343, 4667, 4668, 4677, 4676
  202693, 4335, 4336, 4345, 4344, 4668, 4669, 4678, 4677
  202694, 4336, 4337, 4346, 4345, 4669, 4670, 4679, 4678
  202695, 4337, 4338, 4347, 4346, 4670, 4671, 4680, 4679
  202696, 4339, 4340, 4349, 4348, 4672, 4673, 4682, 4681
  202697, 4340, 4341, 4350, 4349, 4673, 4674, 4683, 4682
  202698, 4341, 4342, 4351, 4350, 4674, 4675, 4684, 4683
  202699, 4342, 4343, 4352, 4351, 4675, 4676, 4685, 4684
  202700, 4343, 4344, 4353, 4352, 4676, 4677, 4686, 4685
  202701, 4344, 4345, 4354, 4353, 4677, 4678, 4687, 4686
  202702, 4345, 4346, 4355, 4354, 4678, 4679, 4688, 4687
  202703, 4346, 4347, 4356, 4355, 4679, 4680, 4689, 4688
  202704, 4348, 4349, 4358, 4357, 4681, 4682, 4691, 4690
  202705, 4349, 4350, 4359, 4358, 4682, 4683, 4692, 4691
  202706, 4350, 4351, 4360, 4359, 4683, 4684, 4693, 4692
  202707, 4351, 4352, 4361, 4360, 4684, 4685, 4694, 4693
  202708, 4352, 4353, 4362, 4361, 4685, 4686, 4695, 4694
  202709, 4353, 4354, 4363, 4362, 4686, 4687, 4696, 4695
  202710, 4354, 4355, 4364, 4363, 4687, 4688, 4697, 4696
  202711, 4355, 4356, 4365, 4364, 4688, 4689, 4698, 4697
  202712, 4357, 4358, 4367, 4366, 4690, 4691, 4700, 4699
  202713, 4358, 4359, 4368, 4367, 4691, 4692, 4701, 4700
  202714, 4359, 4360, 4369, 4368, 4692, 4693, 4702, 4701
  202715, 4360, 4361, 4370, 4369, 4693, 4694, 4703, 4702
  202716, 4361, 4362, 4371, 4370, 4694, 4695, 4704, 4703
  202717, 4362, 4363, 4372, 4371, 4695, 4696, 4705, 4704
  202718, 4363, 4364, 4373, 4372, 4696, 4697, 4706, 4705
  202719, 4364, 4365, 4374, 4373, 4697, 4698, 4707, 4706
  202720, 4366, 4367, 4376, 4375, 4699, 4700, 4709, 4708
  202721, 4367, 4368, 4377, 4376, 4700, 4701, 4710, 4709
  202722, 4368, 4369, 4378, 4377, 4701, 4702, 4711, 4710
  202723, 4369, 4370, 4379, 4378, 4702, 4703, 4712, 4711
  202724, 4370, 4371, 4380, 4379, 4703, 4704, 4713, 4712
  202725, 4371, 4372, 4381, 4380, 4704, 4705, 4714, 4713
  202726, 4372, 4373, 4382, 4381, 4705, 4706, 4715, 4714
  202727, 4373, 4374, 4383, 4382, 4706, 4707, 4716, 4715
  202728, 4375, 4376, 4385, 4384, 4708, 4709, 4718, 4717
  202729, 4376, 4377, 4386, 4385, 4709, 4710, 4719, 4718
  202730, 4377, 4378, 4387, 4386, 4710, 4711, 4720, 4719
  202731, 4378, 4379, 4388, 4387, 4711, 4712, 4721, 4720
  202732, 4379, 4380, 4389, 4388, 4712, 4713, 4722, 4721
  202733, 4380, 4381, 4390, 4389, 4713, 4714, 4723, 4722
  202734, 4381, 4382, 4391, 4390, 4714, 4715, 4724, 4723
  202735, 4382, 4383, 4392, 4391, 4715, 4716, 4725, 4724
  202736, 4384, 4385, 4394, 4393, 4717, 4718, 4727, 4726
  202737, 4385, 4386, 4395, 4394, 4718, 4719, 4728, 4727
  202738, 4386, 4387, 4396, 4395, 4719, 4720, 4729, 4728
  202739, 4387, 4388, 4397, 4396, 4720, 4721, 4730, 4729
  202740, 4388, 4389, 4398, 4397, 4721, 4722, 4731, 4730
  202741, 4389, 4390, 4399, 4398, 4722, 4723, 4732, 4731
  202742, 4390, 4391, 4400, 4399, 4723, 4724, 4733, 4732
  202743, 4391, 4392, 4401, 4400, 4724, 4725, 4734, 4733
  202744, 4393, 4394, 4403, 4402, 4726, 4727, 4736, 4735
  202745, 4394, 4395, 4404, 4403, 4727, 4728, 4737, 4736
  202746, 4395, 4396, 4405, 4404, 4728, 4729, 4738, 4737
  202747, 4396, 4397, 4406, 4405, 4729, 4730, 4739, 4738
  202748, 4397, 4398, 4407, 4406, 4730, 4731, 4740, 4739
  202749, 4398, 4399, 4408, 4407, 4731, 4732, 4741, 4740
  202750, 4399, 4400, 4409, 4408, 4732, 4733, 4742, 4741
  202751, 4400, 4401, 4410, 4409, 4733, 4734, 4743, 4742
  202752, 4402, 4403, 4412, 4411, 4735, 4736, 4745, 4744
  202753, 4403, 4404, 4413, 4412, 4736, 4737, 4746, 4745
  202754, 4404, 4405, 4414, 4413, 4737, 4738, 4747, 4746
  202755, 4405, 4406, 4415, 4414, 4738, 4739, 4748, 4747
  202756, 4406, 4407, 4416, 4415, 4739, 4740, 4749, 4748
  202757, 4407, 4408, 4417, 4416, 4740, 4741, 4750, 4749
  202758, 4408, 4409, 4418, 4417, 4741, 4742, 4751, 4750
  202759, 4409, 4410, 4419, 4418, 4742, 4743, 4752, 4751
  202760, 4411, 4412, 4421, 4420, 4744, 4745, 4754, 4753
  202761, 4412, 4413, 4422, 4421, 4745, 4746, 4755, 4754
  202762, 4413, 4414, 4423, 4422, 4746, 4747, 4756, 4755
  202763, 4414, 4415, 4424, 4423, 4747, 4748, 4757, 4756
  202764, 4415, 4416, 4425, 4424, 4748, 4749, 4758, 4757
  202765, 4416, 4417, 4426, 4425, 4749, 4750, 4759, 4758
  202766, 4417, 4418, 4427, 4426, 4750, 4751, 4760, 4759
  202767, 4418, 4419, 4428, 4427, 4751, 4752, 4761, 4760
  202768, 4420, 4421, 4430, 4429, 4753, 4754, 4763, 4762
  202769, 4421, 4422, 4431, 4430, 4754, 4755, 4764, 4763
  202770, 4422, 4423, 4432, 4431, 4755, 4756, 4765, 4764
  202771, 4423, 4424, 4433, 4432, 4756, 4757, 4766, 4765
  202772, 4424, 4425, 4434, 4433, 4757, 4758, 4767, 4766
  202773, 4425, 4426, 4435, 4434, 4758, 4759, 4768, 4767
  202774, 4426, 4427, 4436, 4435, 4759, 4760, 4769, 4768
  202775, 4427, 4428, 4437, 4436, 4760, 4761, 4770, 4769
  202776, 4429, 4430, 4439, 4438, 4762, 4763, 4772, 4771
  202777, 4430, 4431, 4440, 4439, 4763, 4764, 4773, 4772
  202778, 4431, 4432, 4441, 4440, 4764, 4765, 4774, 4773
  202779, 4432, 4433, 4442, 4441, 4765, 4766, 4775, 4774
  202780, 4433, 4434, 4443, 4442, 4766, 4767, 4776, 4775
  202781, 4434, 4435, 4444, 4443, 4767, 4768, 4777, 4776
  202782, 4435, 4436, 4445, 4444, 4768, 4769, 4778, 4777
  202783, 4436, 4437, 4446, 4445, 4769, 4770, 4779, 4778
  202784, 4438, 4439, 4448, 4447, 4771, 4772, 4781, 4780
  202785, 4439, 4440, 4449, 4448, 4772, 4773, 4782, 4781
  202786, 4440, 4441, 4450, 4449, 4773, 4774, 4783, 4782
  202787, 4441, 4442, 4451, 4450, 4774, 4775, 4784, 4783
  202788, 4442, 4443, 4452, 4451, 4775, 4776, 4785, 4784
  202789, 4443, 4444, 4453, 4452, 4776, 4777, 4786, 4785
  202790, 4444, 4445, 4454, 4453, 4777, 4778, 4787, 4786
  202791, 4445, 4446, 4455, 4454, 4778, 4779, 4788, 4787
  202792, 4447, 4448, 4457, 4456, 4780, 4781, 4790, 4789
  202793, 4448, 4449, 4458, 4457, 4781, 4782, 4791, 4790
  202794, 4449, 4450, 4459, 4458, 4782, 4783, 4792, 4791
  202795, 4450, 4451, 4460, 4459, 4783, 4784, 4793, 4792
  202796, 4451, 4452, 4461, 4460, 4784, 4785, 4794, 4793
  202797, 4452, 4453, 4462, 4461, 4785, 4786, 4795, 4794
  202798, 4453, 4454, 4463, 4462, 4786, 4787, 4796, 4795
  202799, 4454, 4455, 4464, 4463, 4787, 4788, 4797, 4796
  202800, 4456, 4457, 4466, 4465, 4789, 4790, 4799, 4798
  202801, 4457, 4458, 4467, 4466, 4790, 4791, 4800, 4799
  202802, 4458, 4459, 4468, 4467, 4791, 4792, 4801, 4800
  202803, 4459, 4460, 4469, 4468, 4792, 4793, 4802, 4801
  202804, 4460, 4461, 4470, 4469, 4793, 4794, 4803, 4802
  202805, 4461, 4462, 4471, 4470, 4794, 4795, 4804, 4803
  202806, 4462, 4463, 4472, 4471, 4795, 4796, 4805, 4804
  202807, 4463, 4464, 4473, 4472, 4796, 4797, 4806, 4805
  202808, 4465, 4466, 4475, 4474, 4798, 4799, 4808, 4807
  202809, 4466, 4467, 4476, 4475, 4799, 4800, 4809, 4808
  202810, 4467, 4468, 4477, 4476, 4800, 4801, 4810, 4809
  202811, 4468, 4469, 4478, 4477, 4801, 4802, 4811, 4810
  202812, 4469, 4470, 4479, 4478, 4802, 4803, 4812, 4811
  202813, 4470, 4471, 4480, 4479, 4803, 4804, 4813, 4812
  202814, 4471, 4472, 4481, 4480, 4804, 4805, 4814, 4813
  202815, 4472, 4473, 4482, 4481, 4805, 4806, 4815, 4814
  202816, 4474, 4475, 4484, 4483, 4807, 4808, 4817, 4816
  202817, 4475, 4476, 4485, 4484, 4808, 4809, 4818, 4817
  202818, 4476, 4477, 4486, 4485, 4809, 4810, 4819, 4818
  202819, 4477, 4478, 4487, 4486, 4810, 4811, 4820, 4819
  202820, 4478, 4479, 4488, 4487, 4811, 4812, 4821, 4820
  202821, 4479, 4480, 4489, 4488, 4812, 4813, 4822, 4821
  202822, 4480, 4481, 4490, 4489, 4813, 4814, 4823, 4822
  202823, 4481, 4482, 4491, 4490, 4814, 4815, 4824, 4823
  202824, 4483, 4484, 4493, 4492, 4816, 4817, 4826, 4825
  202825, 4484, 4485, 4494, 4493, 4817, 4818, 4827, 4826
  202826, 4485, 4486, 4495, 4494, 4818, 4819, 4828, 4827
  202827, 4486, 4487, 4496, 4495, 4819, 4820, 4829, 4828
  202828, 4487, 4488, 4497, 4496, 4820, 4821, 4830, 4829
  202829, 4488, 4489, 4498, 4497, 4821, 4822, 4831, 4830
  202830, 4489, 4490, 4499, 4498, 4822, 4823, 4832, 4831
  202831, 4490, 4491, 4500, 4499, 4823, 4824, 4833, 4832
  202832, 4492, 4493, 4502, 4501, 4825, 4826, 4835, 4834
  202833, 4493, 4494, 4503, 4502, 4826, 4827, 4836, 4835
  202834, 4494, 4495, 4504, 4503, 4827, 4828, 4837, 4836
  202835, 4495, 4496, 4505, 4504, 4828, 4829, 4838, 4837
  202836, 4496, 4497, 4506, 4505, 4829, 4830, 4839, 4838
  202837, 4497, 4498, 4507, 4506, 4830, 4831, 4840, 4839
  202838, 4498, 4499, 4508, 4507, 4831, 4832, 4841, 4840
  202839, 4499, 4500, 4509, 4508, 4832, 4833, 4842, 4841
  202840, 4501, 4502, 4511, 4510, 4834, 4835, 4844, 4843
  202841, 4502, 4503, 4512, 4511, 4835, 4836, 4845, 4844
  202842, 4503, 4504, 4513, 4512, 4836, 4837, 4846, 4845
  202843, 4504, 4505, 4514, 4513, 4837, 4838, 4847, 4846
  202844, 4505, 4506, 4515, 4514, 4838, 4839, 4848, 4847
  202845, 4506, 4507, 4516, 4515, 4839, 4840, 4849, 4848
  202846, 4507, 4508, 4517, 4516, 4840, 4841, 4850, 4849
  202847, 4508, 4509, 4518, 4517, 4841, 4842, 4851, 4850
  202848, 4510, 4511, 4520, 4519, 4843, 4844, 4853, 4852
  202849, 4511, 4512, 4521, 4520, 4844, 4845, 4854, 4853
  202850, 4512, 4513, 4522, 4521, 4845, 4846, 4855, 4854
  202851, 4513, 4514, 4523, 4522, 4846, 4847, 4856, 4855
  202852, 4514, 4515, 4524, 4523, 4847, 4848, 4857, 4856
  202853, 4515, 4516, 4525, 4524, 4848, 4849, 4858, 4857
  202854, 4516, 4517, 4526, 4525, 4849, 4850, 4859, 4858
  202855, 4517, 4518, 4527, 4526, 4850, 4851, 4860, 4859
  202856, 4519, 4520, 4529, 4528, 4852, 4853, 4862, 4861
  202857, 4520, 4521, 4530, 4529, 4853, 4854, 4863, 4862
  202858, 4521, 4522, 4531, 4530, 4854, 4855, 4864, 4863
  202859, 4522, 4523, 4532, 4531, 4855, 4856, 4865, 4864
  202860, 4523, 4524, 4533, 4532, 4856, 4857, 4866, 4865
  202861, 4524, 4525, 4534, 4533, 4857, 4858, 4867, 4866
  202862, 4525, 4526, 4535, 4534, 4858, 4859, 4868, 4867
  202863, 4526, 4527, 4536, 4535, 4859, 4860, 4869, 4868
  202864, 4528, 4529, 4538, 4537, 4861, 4862, 4871, 4870
  202865, 4529, 4530, 4539, 4538, 4862, 4863, 4872, 4871
  202866, 4530, 4531, 4540, 4539, 4863, 4864, 4873, 4872
  202867, 4531, 4532, 4541, 4540, 4864, 4865, 4874, 4873
  202868, 4532, 4533, 4542, 4541, 4865, 4866, 4875, 4874
  202869, 4533, 4534, 4543, 4542, 4866, 4867, 4876, 4875
  202870, 4534, 4535, 4544, 4543, 4867, 4868, 4877, 4876
  202871, 4535, 4536, 4545, 4544, 4868, 4869, 4878, 4877
  202872, 4537, 4538, 4547, 4546, 4870, 4871, 4880, 4879
  202873, 4538, 4539, 4548, 4547, 4871, 4872, 4881, 4880
  202874, 4539, 4540, 4549, 4548, 4872, 4873, 4882, 4881
  202875, 4540, 4541, 4550, 4549, 4873, 4874, 4883, 4882
  202876, 4541, 4542, 4551, 4550, 4874, 4875, 4884, 4883
  202877, 4542, 4543, 4552, 4551, 4875, 4876, 4885, 4884
  202878, 4543, 4544, 4553, 4552, 4876, 4877, 4886, 4885
  202879, 4544, 4545, 4554, 4553, 4877, 4878, 4887, 4886
  202880, 4555, 4556, 4565, 4564, 4888, 4889, 4898, 4897
  202881, 4556, 4557, 4566, 4565, 4889, 4890, 4899, 4898
  202882, 4557, 4558, 4567, 4566, 4890, 4891, 4900, 4899
  202883, 4558, 4559, 4568, 4567, 4891, 4892, 4901, 4900
  202884, 4559, 4560, 4569, 4568, 4892, 4893, 4902, 4901
  202885, 4560, 4561, 4570, 4569, 4893, 4894, 4903, 4902
  202886, 4561, 4562, 4571, 4570, 4894, 4895, 4904, 4903
  202887, 4562, 4563, 4572, 4571, 4895, 4896, 4905, 4904
  202888, 4564, 4565, 4574, 4573, 4897, 4898, 4907, 4906
  202889, 4565, 4566, 4575, 4574, 4898, 4899, 4908, 4907
  202890, 4566, 4567, 4576, 4575, 4899, 4900, 4909, 4908
  202891, 4567, 4568, 4577, 4576, 4900, 4901, 4910, 4909
  202892, 4568, 4569, 4578, 4577, 4901, 4902, 4911, 4910
  202893, 4569, 4570, 4579, 4578, 4902, 4903, 4912, 4911
  202894, 4570, 4571, 4580, 4579, 4903, 4904, 4913, 4912
  202895, 4571, 4572, 4581, 4580, 4904, 4905, 4914, 4913
  202896, 4573, 4574, 4583, 4582, 4906, 4907, 4916, 4915
  202897, 4574, 4575, 4584, 4583, 4907, 4908, 4917, 4916
  202898, 4575, 4576, 4585, 4584, 4908, 4909, 4918, 4917
  202899, 4576, 4577, 4586, 4585, 4909, 4910, 4919, 4918
  202900, 4577, 4578, 4587, 4586, 4910, 4911, 4920, 4919
  202901, 4578, 4579, 4588, 4587, 4911, 4912, 4921, 4920
  202902, 4579, 4580, 4589, 4588, 4912, 4913, 4922, 4921
  202903, 4580, 4581, 4590, 4589, 4913, 4914, 4923, 4922
  202904, 4582, 4583, 4592, 4591, 4915, 4916, 4925, 4924
  202905, 4583, 4584, 4593, 4592, 4916, 4917, 4926, 4925
  202906, 4584, 4585, 4594, 4593, 4917, 4918, 4927, 4926
  202907, 4585, 4586, 4595, 4594, 4918, 4919, 4928, 4927
  202908, 4586, 4587, 4596, 4595, 4919, 4920, 4929, 4928
  202909, 4587, 4588, 4597, 4596, 4920, 4921, 4930, 4929
  202910, 4588, 4589, 4598, 4597, 4921, 4922, 4931, 4930
  202911, 4589, 4590, 4599, 4598, 4922, 4923, 4932, 4931
  202912, 4591, 4592, 4601, 4600, 4924, 4925, 4934, 4933
  202913, 4592, 4593, 4602, 4601, 4925, 4926, 4935, 4934
  202914, 4593, 4594, 4603, 4602, 4926, 4927, 4936, 4935
  202915, 4594, 4595, 4604, 4603, 4927, 4928, 4937, 4936
  202916, 4595, 4596, 4605, 4604, 4928, 4929, 4938, 4937
  202917, 4596, 4597, 4606, 4605, 4929, 4930, 4939, 4938
  202918, 4597, 4598, 4607, 4606, 4930, 4931, 4940, 4939
  202919, 4598, 4599, 4608, 4607, 4931, 4932, 4941, 4940
  202920, 4600, 4601, 4610, 4609, 4933, 4934, 4943, 4942
  202921, 4601, 4602, 4611, 4610, 4934, 4935, 4944, 4943
  202922, 4602, 4603, 4612, 4611, 4935, 4936, 4945, 4944
  202923, 4603, 4604, 4613, 4612, 4936, 4937, 4946, 4945
  202924, 4604, 4605, 4614, 4613, 4937, 4938, 4947, 4946
  202925, 4605, 4606, 4615, 4614, 4938, 4939, 4948, 4947
  202926, 4606, 4607, 4616, 4615, 4939, 4940, 4949, 4948
  202927, 4607, 4608, 4617, 4616, 4940, 4941, 4950, 4949
  202928, 4609, 4610, 4619, 4618, 4942, 4943, 4952, 4951
  202929, 4610, 4611, 4620, 4619, 4943, 4944, 4953, 4952
  202930, 4611, 4612, 4621, 4620, 4944, 4945, 4954, 4953
  202931, 4612, 4613, 4622, 4621, 4945, 4946, 4955, 4954
  202932, 4613, 4614, 4623, 4622, 4946, 4947, 4956, 4955
  202933, 4614, 4615, 4624, 4623, 4947, 4948, 4957, 4956
  202934, 4615, 4616, 4625, 4624, 4948, 4949, 4958, 4957
  202935, 4616, 4617, 4626, 4625, 4949, 4950, 4959, 4958
  202936, 4618, 4619, 4628, 4627, 4951, 4952, 4961, 4960
  202937, 4619, 4620, 4629, 4628, 4952, 4953, 4962, 4961
  202938, 4620, 4621, 4630, 4629, 4953, 4954, 4963, 4962
  202939, 4621, 4622, 4631, 4630, 4954, 4955, 4964, 4963
  202940, 4622, 4623, 4632, 4631, 4955, 4956, 4965, 4964
  202941, 4623, 4624, 4633, 4632, 4956, 4957, 4966, 4965
  202942, 4624, 4625, 4634, 4633, 4957, 4958, 4967, 4966
  202943, 4625, 4626, 4635, 4634, 4958, 4959, 4968, 4967
  202944, 4627, 4628, 4637, 4636, 4960, 4961, 4970, 4969
  202945, 4628, 4629, 4638, 4637, 4961, 4962, 4971, 4970
  202946, 4629, 4630, 4639, 4638, 4962, 4963, 4972, 4971
  202947, 4630, 4631, 4640, 4639, 4963, 4964, 4973, 4972
  202948, 4631, 4632, 4641, 4640, 4964, 4965, 4974, 4973
  202949, 4632, 4633, 4642, 4641, 4965, 4966, 4975, 4974
  202950, 4633, 4634, 4643, 4642, 4966, 4967, 4976, 4975
  202951, 4634, 4635, 4644, 4643, 4967, 4968, 4977, 4976
  202952, 4636, 4637, 4646, 4645, 4969, 4970, 4979, 4978
  202953, 4637, 4638, 4647, 4646, 4970, 4971, 4980, 4979
  202954, 4638, 4639, 4648, 4647, 4971, 4972, 4981, 4980
  202955, 4639, 4640, 4649, 4648, 4972, 4973, 4982, 4981
  202956, 4640, 4641, 4650, 4649, 4973, 4974, 4983, 4982
  202957, 4641, 4642, 4651, 4650, 4974, 4975, 4984, 4983
  202958, 4642, 4643, 4652, 4651, 4975, 4976, 4985, 4984
  202959, 4643, 4644, 4653, 4652, 4976, 4977, 4986, 4985
  202960, 4645, 4646, 4655, 4654, 4978, 4979, 4988, 4987
  202961, 4646, 4647, 4656, 4655, 4979, 4980, 4989, 4988
  202962, 4647, 4648, 4657, 4656, 4980, 4981, 4990, 4989
  202963, 4648, 4649, 4658, 4657, 4981, 4982, 4991, 4990
  202964, 4649, 4650, 4659, 4658, 4982, 4983, 4992, 4991
  202965, 4650, 4651, 4660, 4659, 4983, 4984, 4993, 4992
  202966, 4651, 4652, 4661, 4660, 4984, 4985, 4994, 4993
  202967, 4652, 4653, 4662, 4661, 4985, 4986, 4995, 4994
  202968, 4654, 4655, 4664, 4663, 4987, 4988, 4997, 4996
  202969, 4655, 4656, 4665, 4664, 4988, 4989, 4998, 4997
  202970, 4656, 4657, 4666, 4665, 4989, 4990, 4999, 4998
  202971, 4657, 4658, 4667, 4666, 4990, 4991, 5000, 4999
  202972, 4658, 4659, 4668, 4667, 4991, 4992, 5001, 5000
  202973, 4659, 4660, 4669, 4668, 4992, 4993, 5002, 5001
  202974, 4660, 4661, 4670, 4669, 4993, 4994, 5003, 5002
  202975, 4661, 4662, 4671, 4670, 4994, 4995, 5004, 5003
  202976, 4663, 4664, 4673, 4672, 4996, 4997, 5006, 5005
  202977, 4664, 4665, 4674, 4673, 4997, 4998, 5007, 5006
  202978, 4665, 4666, 4675, 4674, 4998, 4999, 5008, 5007
  202979, 4666, 4667, 4676, 4675, 4999, 5000, 5009, 5008
  202980, 4667, 4668, 4677, 4676, 5000, 5001, 5010, 5009
  202981, 4668, 4669, 4678, 4677, 5001, 5002, 5011, 5010
  202982, 4669, 4670, 4679, 4678, 5002, 5003, 5012, 5011
  202983, 4670, 4671, 4680, 4679, 5003, 5004, 5013, 5012
  202984, 4672, 4673, 4682, 4681, 5005, 5006, 5015, 5014
  202985, 4673, 4674, 4683, 4682, 5006, 5007, 5016, 5015
  202986, 4674, 4675, 4684, 4683, 5007, 5008, 5017, 5016
  202987, 4675, 4676, 4685, 4684, 5008, 5009, 5018, 5017
  202988, 4676, 4677, 4686, 4685, 5009, 5010, 5019, 5018
  202989, 4677, 4678, 4687, 4686, 5010, 5011, 5020, 5019
  202990, 4678, 4679, 4688, 4687, 5011, 5012, 5021, 5020
  202991, 4679, 4680, 4689, 4688, 5012, 5013, 5022, 5021
  202992, 4681, 4682, 4691, 4690, 5014, 5015, 5024, 5023
  202993, 4682, 4683, 4692, 4691, 5015, 5016, 5025, 5024
  202994, 4683, 4684, 4693, 4692, 5016, 5017, 5026, 5025
  202995, 4684, 4685, 4694, 4693, 5017, 5018, 5027, 5026
  202996, 4685, 4686, 4695, 4694, 5018, 5019, 5028, 5027
  202997, 4686, 4687, 4696, 4695, 5019, 5020, 5029, 5028
  202998, 4687, 4688, 4697, 4696, 5020, 5021, 5030, 5029
  202999, 4688, 4689, 4698, 4697, 5021, 5022, 5031, 5030
  203000, 4690, 4691, 4700, 4699, 5023, 5024, 5033, 5032
  203001, 4691, 4692, 4701, 4700, 5024, 5025, 5034, 5033
  203002, 4692, 4693, 4702, 4701, 5025, 5026, 5035, 5034
  203003, 4693, 4694, 4703, 4702, 5026, 5027, 5036, 5035
  203004, 4694, 4695, 4704, 4703, 5027, 5028, 5037, 5036
  203005, 4695, 4696, 4705, 4704, 5028, 5029, 5038, 5037
  203006, 4696, 4697, 4706, 4705, 5029, 5030, 5039, 5038
  203007, 4697, 4698, 4707, 4706, 5030, 5031, 5040, 5039
  203008, 4699, 4700, 4709, 4708, 5032, 5033, 5042, 5041
  203009, 4700, 4701, 4710, 4709, 5033, 5034, 5043, 5042
  203010, 4701, 4702, 4711, 4710, 5034, 5035, 5044, 5043
  203011, 4702, 4703, 4712, 4711, 5035, 5036, 5045, 5044
  203012, 4703, 4704, 4713, 4712, 5036, 5037, 5046, 5045
  203013, 4704, 4705, 4714, 4713, 5037, 5038, 5047, 5046
  203014, 4705, 4706, 4715, 4714, 5038, 5039, 5048, 5047
  203015, 4706, 4707, 4716, 4715, 5039, 5040, 5049, 5048
  203016, 4708, 4709, 4718, 4717, 5041, 5042, 5051, 5050
  203017, 4709, 4710, 4719, 4718, 5042, 5043, 5052, 5051
  203018, 4710, 4711, 4720, 4719, 5043, 5044, 5053, 5052
  203019, 4711, 4712, 4721, 4720, 5044, 5045, 5054, 5053
  203020, 4712, 4713, 4722, 4721, 5045, 5046, 5055, 5054
  203021, 4713, 4714, 4723, 4722, 5046, 5047, 5056, 5055
  203022, 4714, 4715, 4724, 4723, 5047, 5048, 5057, 5056
  203023, 4715, 4716, 4725, 4724, 5048, 5049, 5058, 5057
  203024, 4717, 4718, 4727, 4726, 5050, 5051, 5060, 5059
  203025, 4718, 4719, 4728, 4727, 5051, 5052, 5061, 5060
  203026, 4719, 4720, 4729, 4728, 5052, 5053, 5062, 5061
  203027, 4720, 4721, 4730, 4729, 5053, 5054, 5063, 5062
  203028, 4721, 4722, 4731, 4730, 5054, 5055, 5064, 5063
  203029, 4722, 4723, 4732, 4731, 5055, 5056, 5065, 5064
  203030, 4723, 4724, 4733, 4732, 5056, 5057, 5066, 5065
  203031, 4724, 4725, 4734, 4733, 5057, 5058, 5067, 5066
  203032, 4726, 4727, 4736, 4735, 5059, 5060, 5069, 5068
  203033, 4727, 4728, 4737, 4736, 5060, 5061, 5070, 5069
  203034, 4728, 4729, 4738, 4737, 5061, 5062, 5071, 5070
  203035, 4729, 4730, 4739, 4738, 5062, 5063, 5072, 5071
  203036, 4730, 4731, 4740, 4739, 5063, 5064, 5073, 5072
  203037, 4731, 4732, 4741, 4740, 5064, 5065, 5074, 5073
  203038, 4732, 4733, 4742, 4741, 5065, 5066, 5075, 5074
  203039, 4733, 4734, 4743, 4742, 5066, 5067, 5076, 5075
  203040, 4735, 4736, 4745, 4744, 5068, 5069, 5078, 5077
  203041, 4736, 4737, 4746, 4745, 5069, 5070, 5079, 5078
  203042, 4737, 4738, 4747, 4746, 5070, 5071, 5080, 5079
  203043, 4738, 4739, 4748, 4747, 5071, 5072, 5081, 5080
  203044, 4739, 4740, 4749, 4748, 5072, 5073, 5082, 5081
  203045, 4740, 4741, 4750, 4749, 5073, 5074, 5083, 5082
  203046, 4741, 4742, 4751, 4750, 5074, 5075, 5084, 5083
  203047, 4742, 4743, 4752, 4751, 5075, 5076, 5085, 5084
  203048, 4744, 4745, 4754, 4753, 5077, 5078, 5087, 5086
  203049, 4745, 4746, 4755, 4754, 5078, 5079, 5088, 5087
  203050, 4746, 4747, 4756, 4755, 5079, 5080, 5089, 5088
  203051, 4747, 4748, 4757, 4756, 5080, 5081, 5090, 5089
  203052, 4748, 4749, 4758, 4757, 5081, 5082, 5091, 5090
  203053, 4749, 4750, 4759, 4758, 5082, 5083, 5092, 5091
  203054, 4750, 4751, 4760, 4759, 5083, 5084, 5093, 5092
  203055, 4751, 4752, 4761, 4760, 5084, 5085, 5094, 5093
  203056, 4753, 4754, 4763, 4762, 5086, 5087, 5096, 5095
  203057, 4754, 4755, 4764, 4763, 5087, 5088, 5097, 5096
  203058, 4755, 4756, 4765, 4764, 5088, 5089, 5098, 5097
  203059, 4756, 4757, 4766, 4765, 5089, 5090, 5099, 5098
  203060, 4757, 4758, 4767, 4766, 5090, 5091, 5100, 5099
  203061, 4758, 4759, 4768, 4767, 5091, 5092, 5101, 5100
  203062, 4759, 4760, 4769, 4768, 5092, 5093, 5102, 5101
  203063, 4760, 4761, 4770, 4769, 5093, 5094, 5103, 5102
  203064, 4762, 4763, 4772, 4771, 5095, 5096, 5105, 5104
  203065, 4763, 4764, 4773, 4772, 5096, 5097, 5106, 5105
  203066, 4764, 4765, 4774, 4773, 5097, 5098, 5107, 5106
  203067, 4765, 4766, 4775, 4774, 5098, 5099, 5108, 5107
  203068, 4766, 4767, 4776, 4775, 5099, 5100, 5109, 5108
  203069, 4767, 4768, 4777, 4776, 5100, 5101, 5110, 5109
  203070, 4768, 4769, 4778, 4777, 5101, 5102, 5111, 5110
  203071, 4769, 4770, 4779, 4778, 5102, 5103, 5112, 5111
  203072, 4771, 4772, 4781, 4780, 5104, 5105, 5114, 5113
  203073, 4772, 4773, 4782, 4781, 5105, 5106, 5115, 5114
  203074, 4773, 4774, 4783, 4782, 5106, 5107, 5116, 5115
  203075, 4774, 4775, 4784, 4783, 5107, 5108, 5117, 5116
  203076, 4775, 4776, 4785, 4784, 5108, 5109, 5118, 5117
  203077, 4776, 4777, 4786, 4785, 5109, 5110, 5119, 5118
  203078, 4777, 4778, 4787, 4786, 5110, 5111, 5120, 5119
  203079, 4778, 4779, 4788, 4787, 5111, 5112, 5121, 5120
  203080, 4780, 4781, 4790, 4789, 5113, 5114, 5123, 5122
  203081, 4781, 4782, 4791, 4790, 5114, 5115, 5124, 5123
  203082, 4782, 4783, 4792, 4791, 5115, 5116, 5125, 5124
  203083, 4783, 4784, 4793, 4792, 5116, 5117, 5126, 5125
  203084, 4784, 4785, 4794, 4793, 5117, 5118, 5127, 5126
  203085, 4785, 4786, 4795, 4794, 5118, 5119, 5128, 5127
  203086, 4786, 4787, 4796, 4795, 5119, 5120, 5129, 5128
  203087, 4787, 4788, 4797, 4796, 5120, 5121, 5130, 5129
  203088, 4789, 4790, 4799, 4798, 5122, 5123, 5132, 5131
  203089, 4790, 4791, 4800, 4799, 5123, 5124, 5133, 5132
  203090, 4791, 4792, 4801, 4800, 5124, 5125, 5134, 5133
  203091, 4792, 4793, 4802, 4801, 5125, 5126, 5135, 5134
  203092, 4793, 4794, 4803, 4802, 5126, 5127, 5136, 5135
  203093, 4794, 4795, 4804, 4803, 5127, 5128, 5137, 5136
  203094, 4795, 4796, 4805, 4804, 5128, 5129, 5138, 5137
  203095, 4796, 4797, 4806, 4805, 5129, 5130, 5139, 5138
  203096, 4798, 4799, 4808, 4807, 5131, 5132, 5141, 5140
  203097, 4799, 4800, 4809, 4808, 5132, 5133, 5142, 5141
  203098, 4800, 4801, 4810, 4809, 5133, 5134, 5143, 5142
  203099, 4801, 4802, 4811, 4810, 5134, 5135, 5144, 5143
  203100, 4802, 4803, 4812, 4811, 5135, 5136, 5145, 5144
  203101, 4803, 4804, 4813, 4812, 5136, 5137, 5146, 5145
  203102, 4804, 4805, 4814, 4813, 5137, 5138, 5147, 5146
  203103, 4805, 4806, 4815, 4814, 5138, 5139, 5148, 5147
  203104, 4807, 4808, 4817, 4816, 5140, 5141, 5150, 5149
  203105, 4808, 4809, 4818, 4817, 5141, 5142, 5151, 5150
  203106, 4809, 4810, 4819, 4818, 5142, 5143, 5152, 5151
  203107, 4810, 4811, 4820, 4819, 5143, 5144, 5153, 5152
  203108, 4811, 4812, 4821, 4820, 5144, 5145, 5154, 5153
  203109, 4812, 4813, 4822, 4821, 5145, 5146, 5155, 5154
  203110, 4813, 4814, 4823, 4822, 5146, 5147, 5156, 5155
  203111, 4814, 4815, 4824, 4823, 5147, 5148, 5157, 5156
  203112, 4816, 4817, 4826, 4825, 5149, 5150, 5159, 5158
  203113, 4817, 4818, 4827, 4826, 5150, 5151, 5160, 5159
  203114, 4818, 4819, 4828, 4827, 5151, 5152, 5161, 5160
  203115, 4819, 4820, 4829, 4828, 5152, 5153, 5162, 5161
  203116, 4820, 4821, 4830, 4829, 5153, 5154, 5163, 5162
  203117, 4821, 4822, 4831, 4830, 5154, 5155, 5164, 5163
  203118, 4822, 4823, 4832, 4831, 5155, 5156, 5165, 5164
  203119, 4823, 4824, 4833, 4832, 5156, 5157, 5166, 5165
  203120, 4825, 4826, 4835, 4834, 5158, 5159, 5168, 5167
  203121, 4826, 4827, 4836, 4835, 5159, 5160, 5169, 5168
  203122, 4827, 4828, 4837, 4836, 5160, 5161, 5170, 5169
  203123, 4828, 4829, 4838, 4837, 5161, 5162, 5171, 5170
  203124, 4829, 4830, 4839, 4838, 5162, 5163, 5172, 5171
  203125, 4830, 4831, 4840, 4839, 5163, 5164, 5173, 5172
  203126, 4831, 4832, 4841, 4840, 5164, 5165, 5174, 5173
  203127, 4832, 4833, 4842, 4841, 5165, 5166, 5175, 5174
  203128, 4834, 4835, 4844, 4843, 5167, 5168, 5177, 5176
  203129, 4835, 4836, 4845, 4844, 5168, 5169, 5178, 5177
  203130, 4836, 4837, 4846, 4845, 5169, 5170, 5179, 5178
  203131, 4837, 4838, 4847, 4846, 5170, 5171, 5180, 5179
  203132, 4838, 4839, 4848, 4847, 5171, 5172, 5181, 5180
  203133, 4839, 4840, 4849, 4848, 5172, 5173, 5182, 5181
  203134, 4840, 4841, 4850, 4849, 5173, 5174, 5183, 5182
  203135, 4841, 4842, 4851, 4850, 5174, 5175, 5184, 5183
  203136, 4843, 4844, 4853, 4852, 5176, 5177, 5186, 5185
  203137, 4844, 4845, 4854, 4853, 5177, 5178, 5187, 5186
  203138, 4845, 4846, 4855, 4854, 5178, 5179, 5188, 5187
  203139, 4846, 4847, 4856, 4855, 5179, 5180, 5189, 5188
  203140, 4847, 4848, 4857, 4856, 5180, 5181, 5190, 5189
  203141, 4848, 4849, 4858, 4857, 5181, 5182, 5191, 5190
  203142, 4849, 4850, 4859, 4858, 5182, 5183, 5192, 5191
  203143, 4850, 4851, 4860, 4859, 5183, 5184, 5193, 5192
  203144, 4852, 4853, 4862, 4861, 5185, 5186, 5195, 5194
  203145, 4853, 4854, 4863, 4862, 5186, 5187, 5196, 5195
  203146, 4854, 4855, 4864, 4863, 5187, 5188, 5197, 5196
  203147, 4855, 4856, 4865, 4864, 5188, 5189, 5198, 5197
  203148, 4856, 4857, 4866, 4865, 5189, 5190, 5199, 5198
  203149, 4857, 4858, 4867, 4866, 5190, 5191, 5200, 5199
  203150, 4858, 4859, 4868, 4867, 5191, 5192, 5201, 5200
  203151, 4859, 4860, 4869, 4868, 5192, 5193, 5202, 5201
  203152, 4861, 4862, 4871, 4870, 5194, 5195, 5204, 5203
  203153, 4862, 4863, 4872, 4871, 5195, 5196, 5205, 5204
  203154, 4863, 4864, 4873, 4872, 5196, 5197, 5206, 5205
  203155, 4864, 4865, 4874, 4873, 5197, 5198, 5207, 5206
  203156, 4865, 4866, 4875, 4874, 5198, 5199, 5208, 5207
  203157, 4866, 4867, 4876, 4875, 5199, 5200, 5209, 5208
  203158, 4867, 4868, 4877, 4876, 5200, 5201, 5210, 5209
  203159, 4868, 4869, 4878, 4877, 5201, 5202, 5211, 5210
  203160, 4870, 4871, 4880, 4879, 5203, 5204, 5213, 5212
  203161, 4871, 4872, 4881, 4880, 5204, 5205, 5214, 5213
  203162, 4872, 4873, 4882, 4881, 5205, 5206, 5215, 5214
  203163, 4873, 4874, 4883, 4882, 5206, 5207, 5216, 5215
  203164, 4874, 4875, 4884, 4883, 5207, 5208, 5217, 5216
  203165, 4875, 4876, 4885, 4884, 5208, 5209, 5218, 5217
  203166, 4876, 4877, 4886, 4885, 5209, 5210, 5219, 5218
  203167, 4877, 4878, 4887, 4886, 5210, 5211, 5220, 5219
  203168, 4888, 4889, 4898, 4897, 5221, 5222, 5231, 5230
  203169, 4889, 4890, 4899, 4898, 5222, 5223, 5232, 5231
  203170, 4890, 4891, 4900, 4899, 5223, 5224, 5233, 5232
  203171, 4891, 4892, 4901, 4900, 5224, 5225, 5234, 5233
  203172, 4892, 4893, 4902, 4901, 5225, 5226, 5235, 5234
  203173, 4893, 4894, 4903, 4902, 5226, 5227, 5236, 5235
  203174, 4894, 4895, 4904, 4903, 5227, 5228, 5237, 5236
  203175, 4895, 4896, 4905, 4904, 5228, 5229, 5238, 5237
  203176, 4897, 4898, 4907, 4906, 5230, 5231, 5240, 5239
  203177, 4898, 4899, 4908, 4907, 5231, 5232, 5241, 5240
  203178, 4899, 4900, 4909, 4908, 5232, 5233, 5242, 5241
  203179, 4900, 4901, 4910, 4909, 5233, 5234, 5243, 5242
  203180, 4901, 4902, 4911, 4910, 5234, 5235, 5244, 5243
  203181, 4902, 4903, 4912, 4911, 5235, 5236, 5245, 5244
  203182, 4903, 4904, 4913, 4912, 5236, 5237, 5246, 5245
  203183, 4904, 4905, 4914, 4913, 5237, 5238, 5247, 5246
  203184, 4906, 4907, 4916, 4915, 5239, 5240, 5249, 5248
  203185, 4907, 4908, 4917, 4916, 5240, 5241, 5250, 5249
  203186, 4908, 4909, 4918, 4917, 5241, 5242, 5251, 5250
  203187, 4909, 4910, 4919, 4918, 5242, 5243, 5252, 5251
  203188, 4910, 4911, 4920, 4919, 5243, 5244, 5253, 5252
  203189, 4911, 4912, 4921, 4920, 5244, 5245, 5254, 5253
  203190, 4912, 4913, 4922, 4921, 5245, 5246, 5255, 5254
  203191, 4913, 4914, 4923, 4922, 5246, 5247, 5256, 5255
  203192, 4915, 4916, 4925, 4924, 5248, 5249, 5258, 5257
  203193, 4916, 4917, 4926, 4925, 5249, 5250, 5259, 5258
  203194, 4917, 4918, 4927, 4926, 5250, 5251, 5260, 5259
  203195, 4918, 4919, 4928, 4927, 5251, 5252, 5261, 5260
  203196, 4919, 4920, 4929, 4928, 5252, 5253, 5262, 5261
  203197, 4920, 4921, 4930, 4929, 5253, 5254, 5263, 5262
  203198, 4921, 4922, 4931, 4930, 5254, 5255, 5264, 5263
  203199, 4922, 4923, 4932, 4931, 5255, 5256, 5265, 5264
  203200, 4924, 4925, 4934, 4933, 5257, 5258, 5267, 5266
  203201, 4925, 4926, 4935, 4934, 5258, 5259, 5268, 5267
  203202, 4926, 4927, 4936, 4935, 5259, 5260, 5269, 5268
  203203, 4927, 4928, 4937, 4936, 5260, 5261, 5270, 5269
  203204, 4928, 4929, 4938, 4937, 5261, 5262, 5271, 5270
  203205, 4929, 4930, 4939, 4938, 5262, 5263, 5272, 5271
  203206, 4930, 4931, 4940, 4939, 5263, 5264, 5273, 5272
  203207, 4931, 4932, 4941, 4940, 5264, 5265, 5274, 5273
  203208, 4933, 4934, 4943, 4942, 5266, 5267, 5276, 5275
  203209, 4934, 4935, 4944, 4943, 5267, 5268, 5277, 5276
  203210, 4935, 4936, 4945, 4944, 5268, 5269, 5278, 5277
  203211, 4936, 4937, 4946, 4945, 5269, 5270, 5279, 5278
  203212, 4937, 4938, 4947, 4946, 5270, 5271, 5280, 5279
  203213, 4938, 4939, 4948, 4947, 5271, 5272, 5281, 5280
  203214, 4939, 4940, 4949, 4948, 5272, 5273, 5282, 5281
  203215, 4940, 4941, 4950, 4949, 5273, 5274, 5283, 5282
  203216, 4942, 4943, 4952, 4951, 5275, 5276, 5285, 5284
  203217, 4943, 4944, 4953, 4952, 5276, 5277, 5286, 5285
  203218, 4944, 4945, 4954, 4953, 5277, 5278, 5287, 5286
  203219, 4945, 4946, 4955, 4954, 5278, 5279, 5288, 5287
  203220, 4946, 4947, 4956, 4955, 5279, 5280, 5289, 5288
  203221, 4947, 4948, 4957, 4956, 5280, 5281, 5290, 5289
  203222, 4948, 4949, 4958, 4957, 5281, 5282, 5291, 5290
  203223, 4949, 4950, 4959, 4958, 5282, 5283, 5292, 5291
  203224, 4951, 4952, 4961, 4960, 5284, 5285, 5294, 5293
  203225, 4952, 4953, 4962, 4961, 5285, 5286, 5295, 5294
  203226, 4953, 4954, 4963, 4962, 5286, 5287, 5296, 5295
  203227, 4954, 4955, 4964, 4963, 5287, 5288, 5297, 5296
  203228, 4955, 4956, 4965, 4964, 5288, 5289, 5298, 5297
  203229, 4956, 4957, 4966, 4965, 5289, 5290, 5299, 5298
  203230, 4957, 4958, 4967, 4966, 5290, 5291, 5300, 5299
  203231, 4958, 4959, 4968, 4967, 5291, 5292, 5301, 5300
  203232, 4960, 4961, 4970, 4969, 5293, 5294, 5303, 5302
  203233, 4961, 4962, 4971, 4970, 5294, 5295, 5304, 5303
  203234, 4962, 4963, 4972, 4971, 5295, 5296, 5305, 5304
  203235, 4963, 4964, 4973, 4972, 5296, 5297, 5306, 5305
  203236, 4964, 4965, 4974, 4973, 5297, 5298, 5307, 5306
  203237, 4965, 4966, 4975, 4974, 5298, 5299, 5308, 5307
  203238, 4966, 4967, 4976, 4975, 5299, 5300, 5309, 5308
  203239, 4967, 4968, 4977, 4976, 5300, 5301, 5310, 5309
  203240, 4969, 4970, 4979, 4978, 5302, 5303, 5312, 5311
  203241, 4970, 4971, 4980, 4979, 5303, 5304, 5313, 5312
  203242, 4971, 4972, 4981, 4980, 5304, 5305, 5314, 5313
  203243, 4972, 4973, 4982, 4981, 5305, 5306, 5315, 5314
  203244, 4973, 4974, 4983, 4982, 5306, 5307, 5316, 5315
  203245, 4974, 4975, 4984, 4983, 5307, 5308, 5317, 5316
  203246, 4975, 4976, 4985, 4984, 5308, 5309, 5318, 5317
  203247, 4976, 4977, 4986, 4985, 5309, 5310, 5319, 5318
  203248, 4978, 4979, 4988, 4987, 5311, 5312, 5321, 5320
  203249, 4979, 4980, 4989, 4988, 5312, 5313, 5322, 5321
  203250, 4980, 4981, 4990, 4989, 5313, 5314, 5323, 5322
  203251, 4981, 4982, 4991, 4990, 5314, 5315, 5324, 5323
  203252, 4982, 4983, 4992, 4991, 5315, 5316, 5325, 5324
  203253, 4983, 4984, 4993, 4992, 5316, 5317, 5326, 5325
  203254, 4984, 4985, 4994, 4993, 5317, 5318, 5327, 5326
  203255, 4985, 4986, 4995, 4994, 5318, 5319, 5328, 5327
  203256, 4987, 4988, 4997, 4996, 5320, 5321, 5330, 5329
  203257, 4988, 4989, 4998, 4997, 5321, 5322, 5331, 5330
  203258, 4989, 4990, 4999, 4998, 5322, 5323, 5332, 5331
  203259, 4990, 4991, 5000, 4999, 5323, 5324, 5333, 5332
  203260, 4991, 4992, 5001, 5000, 5324, 5325, 5334, 5333
  203261, 4992, 4993, 5002, 5001, 5325, 5326, 5335, 5334
  203262, 4993, 4994, 5003, 5002, 5326, 5327, 5336, 5335
  203263, 4994, 4995, 5004, 5003, 5327, 5328, 5337, 5336
  203264, 4996, 4997, 5006, 5005, 5329, 5330, 5339, 5338
  203265, 4997, 4998, 5007, 5006, 5330, 5331, 5340, 5339
  203266, 4998, 4999, 5008, 5007, 5331, 5332, 5341, 5340
  203267, 4999, 5000, 5009, 5008, 5332, 5333, 5342, 5341
  203268, 5000, 5001, 5010, 5009, 5333, 5334, 5343, 5342
  203269, 5001, 5002, 5011, 5010, 5334, 5335, 5344, 5343
  203270, 5002, 5003, 5012, 5011, 5335, 5336, 5345, 5344
  203271, 5003, 5004, 5013, 5012, 5336, 5337, 5346, 5345
  203272, 5005, 5006, 5015, 5014, 5338, 5339, 5348, 5347
  203273, 5006, 5007, 5016, 5015, 5339, 5340, 5349, 5348
  203274, 5007, 5008, 5017, 5016, 5340, 5341, 5350, 5349
  203275, 5008, 5009, 5018, 5017, 5341, 5342, 5351, 5350
  203276, 5009, 5010, 5019, 5018, 5342, 5343, 5352, 5351
  203277, 5010, 5011, 5020, 5019, 5343, 5344, 5353, 5352
  203278, 5011, 5012, 5021, 5020, 5344, 5345, 5354, 5353
  203279, 5012, 5013, 5022, 5021, 5345, 5346, 5355, 5354
  203280, 5014, 5015, 5024, 5023, 5347, 5348, 5357, 5356
  203281, 5015, 5016, 5025, 5024, 5348, 5349, 5358, 5357
  203282, 5016, 5017, 5026, 5025, 5349, 5350, 5359, 5358
  203283, 5017, 5018, 5027, 5026, 5350, 5351, 5360, 5359
  203284, 5018, 5019, 5028, 5027, 5351, 5352, 5361, 5360
  203285, 5019, 5020, 5029, 5028, 5352, 5353, 5362, 5361
  203286, 5020, 5021, 5030, 5029, 5353, 5354, 5363, 5362
  203287, 5021, 5022, 5031, 5030, 5354, 5355, 5364, 5363
  203288, 5023, 5024, 5033, 5032, 5356, 5357, 5366, 5365
  203289, 5024, 5025, 5034, 5033, 5357, 5358, 5367, 5366
  203290, 5025, 5026, 5035, 5034, 5358, 5359, 5368, 5367
  203291, 5026, 5027, 5036, 5035, 5359, 5360, 5369, 5368
  203292, 5027, 5028, 5037, 5036, 5360, 5361, 5370, 5369
  203293, 5028, 5029, 5038, 5037, 5361, 5362, 5371, 5370
  203294, 5029, 5030, 5039, 5038, 5362, 5363, 5372, 5371
  203295, 5030, 5031, 5040, 5039, 5363, 5364, 5373, 5372
  203296, 5032, 5033, 5042, 5041, 5365, 5366, 5375, 5374
  203297, 5033, 5034, 5043, 5042, 5366, 5367, 5376, 5375
  203298, 5034, 5035, 5044, 5043, 5367, 5368, 5377, 5376
  203299, 5035, 5036, 5045, 5044, 5368, 5369, 5378, 5377
  203300, 5036, 5037, 5046, 5045, 5369, 5370, 5379, 5378
  203301, 5037, 5038, 5047, 5046, 5370, 5371, 5380, 5379
  203302, 5038, 5039, 5048, 5047, 5371, 5372, 5381, 5380
  203303, 5039, 5040, 5049, 5048, 5372, 5373, 5382, 5381
  203304, 5041, 5042, 5051, 5050, 5374, 5375, 5384, 5383
  203305, 5042, 5043, 5052, 5051, 5375, 5376, 5385, 5384
  203306, 5043, 5044, 5053, 5052, 5376, 5377, 5386, 5385
  203307, 5044, 5045, 5054, 5053, 5377, 5378, 5387, 5386
  203308, 5045, 5046, 5055, 5054, 5378, 5379, 5388, 5387
  203309, 5046, 5047, 5056, 5055, 5379, 5380, 5389, 5388
  203310, 5047, 5048, 5057, 5056, 5380, 5381, 5390, 5389
  203311, 5048, 5049, 5058, 5057, 5381, 5382, 5391, 5390
  203312, 5050, 5051, 5060, 5059, 5383, 5384, 5393, 5392
  203313, 5051, 5052, 5061, 5060, 5384, 5385, 5394, 5393
  203314, 5052, 5053, 5062, 5061, 5385, 5386, 5395, 5394
  203315, 5053, 5054, 5063, 5062, 5386, 5387, 5396, 5395
  203316, 5054, 5055, 5064, 5063, 5387, 5388, 5397, 5396
  203317, 5055, 5056, 5065, 5064, 5388, 5389, 5398, 5397
  203318, 5056, 5057, 5066, 5065, 5389, 5390, 5399, 5398
  203319, 5057, 5058, 5067, 5066, 5390, 5391, 5400, 5399
  203320, 5059, 5060, 5069, 5068, 5392, 5393, 5402, 5401
  203321, 5060, 5061, 5070, 5069, 5393, 5394, 5403, 5402
  203322, 5061, 5062, 5071, 5070, 5394, 5395, 5404, 5403
  203323, 5062, 5063, 5072, 5071, 5395, 5396, 5405, 5404
  203324, 5063, 5064, 5073, 5072, 5396, 5397, 5406, 5405
  203325, 5064, 5065, 5074, 5073, 5397, 5398, 5407, 5406
  203326, 5065, 5066, 5075, 5074, 5398, 5399, 5408, 5407
  203327, 5066, 5067, 5076, 5075, 5399, 5400, 5409, 5408
  203328, 5068, 5069, 5078, 5077, 5401, 5402, 5411, 5410
  203329, 5069, 5070, 5079, 5078, 5402, 5403, 5412, 5411
  203330, 5070, 5071, 5080, 5079, 5403, 5404, 5413, 5412
  203331, 5071, 5072, 5081, 5080, 5404, 5405, 5414, 5413
  203332, 5072, 5073, 5082, 5081, 5405, 5406, 5415, 5414
  203333, 5073, 5074, 5083, 5082, 5406, 5407, 5416, 5415
  203334, 5074, 5075, 5084, 5083, 5407, 5408, 5417, 5416
  203335, 5075, 5076, 5085, 5084, 5408, 5409, 5418, 5417
  203336, 5077, 5078, 5087, 5086, 5410, 5411, 5420, 5419
  203337, 5078, 5079, 5088, 5087, 5411, 5412, 5421, 5420
  203338, 5079, 5080, 5089, 5088, 5412, 5413, 5422, 5421
  203339, 5080, 5081, 5090, 5089, 5413, 5414, 5423, 5422
  203340, 5081, 5082, 5091, 5090, 5414, 5415, 5424, 5423
  203341, 5082, 5083, 5092, 5091, 5415, 5416, 5425, 5424
  203342, 5083, 5084, 5093, 5092, 5416, 5417, 5426, 5425
  203343, 5084, 5085, 5094, 5093, 5417, 5418, 5427, 5426
  203344, 5086, 5087, 5096, 5095, 5419, 5420, 5429, 5428
  203345, 5087, 5088, 5097, 5096, 5420, 5421, 5430, 5429
  203346, 5088, 5089, 5098, 5097, 5421, 5422, 5431, 5430
  203347, 5089, 5090, 5099, 5098, 5422, 5423, 5432, 5431
  203348, 5090, 5091, 5100, 5099, 5423, 5424, 5433, 5432
  203349, 5091, 5092, 5101, 5100, 5424, 5425, 5434, 5433
  203350, 5092, 5093, 5102, 5101, 5425, 5426, 5435, 5434
  203351, 5093, 5094, 5103, 5102, 5426, 5427, 5436, 5435
  203352, 5095, 5096, 5105, 5104, 5428, 5429, 5438, 5437
  203353, 5096, 5097, 5106, 5105, 5429, 5430, 5439, 5438
  203354, 5097, 5098, 5107, 5106, 5430, 5431, 5440, 5439
  203355, 5098, 5099, 5108, 5107, 5431, 5432, 5441, 5440
  203356, 5099, 5100, 5109, 5108, 5432, 5433, 5442, 5441
  203357, 5100, 5101, 5110, 5109, 5433, 5434, 5443, 5442
  203358, 5101, 5102, 5111, 5110, 5434, 5435, 5444, 5443
  203359, 5102, 5103, 5112, 5111, 5435, 5436, 5445, 5444
  203360, 5104, 5105, 5114, 5113, 5437, 5438, 5447, 5446
  203361, 5105, 5106, 5115, 5114, 5438, 5439, 5448, 5447
  203362, 5106, 5107, 5116, 5115, 5439, 5440, 5449, 5448
  203363, 5107, 5108, 5117, 5116, 5440, 5441, 5450, 5449
  203364, 5108, 5109, 5118, 5117, 5441, 5442, 5451, 5450
  203365, 5109, 5110, 5119, 5118, 5442, 5443, 5452, 5451
  203366, 5110, 5111, 5120, 5119, 5443, 5444, 5453, 5452
  203367, 5111, 5112, 5121, 5120, 5444, 5445, 5454, 5453
  203368, 5113, 5114, 5123, 5122, 5446, 5447, 5456, 5455
  203369, 5114, 5115, 5124, 5123, 5447, 5448, 5457, 5456
  203370, 5115, 5116, 5125, 5124, 5448, 5449, 5458, 5457
  203371, 5116, 5117, 5126, 5125, 5449, 5450, 5459, 5458
  203372, 5117, 5118, 5127, 5126, 5450, 5451, 5460, 5459
  203373, 5118, 5119, 5128, 5127, 5451, 5452, 5461, 5460
  203374, 5119, 5120, 5129, 5128, 5452, 5453, 5462, 5461
  203375, 5120, 5121, 5130, 5129, 5453, 5454, 5463, 5462
  203376, 5122, 5123, 5132, 5131, 5455, 5456, 5465, 5464
  203377, 5123, 5124, 5133, 5132, 5456, 5457, 5466, 5465
  203378, 5124, 5125, 5134, 5133, 5457, 5458, 5467, 5466
  203379, 5125, 5126, 5135, 5134, 5458, 5459, 5468, 5467
  203380, 5126, 5127, 5136, 5135, 5459, 5460, 5469, 5468
  203381, 5127, 5128, 5137, 5136, 5460, 5461, 5470, 5469
  203382, 5128, 5129, 5138, 5137, 5461, 5462, 5471, 5470
  203383, 5129, 5130, 5139, 5138, 5462, 5463, 5472, 5471
  203384, 5131, 5132, 5141, 5140, 5464, 5465, 5474, 5473
  203385, 5132, 5133, 5142, 5141, 5465, 5466, 5475, 5474
  203386, 5133, 5134, 5143, 5142, 5466, 5467, 5476, 5475
  203387, 5134, 5135, 5144, 5143, 5467, 5468, 5477, 5476
  203388, 5135, 5136, 5145, 5144, 5468, 5469, 5478, 5477
  203389, 5136, 5137, 5146, 5145, 5469, 5470, 5479, 5478
  203390, 5137, 5138, 5147, 5146, 5470, 5471, 5480, 5479
  203391, 5138, 5139, 5148, 5147, 5471, 5472, 5481, 5480
  203392, 5140, 5141, 5150, 5149, 5473, 5474, 5483, 5482
  203393, 5141, 5142, 5151, 5150, 5474, 5475, 5484, 5483
  203394, 5142, 5143, 5152, 5151, 5475, 5476, 5485, 5484
  203395, 5143, 5144, 5153, 5152, 5476, 5477, 5486, 5485
  203396, 5144, 5145, 5154, 5153, 5477, 5478, 5487, 5486
  203397, 5145, 5146, 5155, 5154, 5478, 5479, 5488, 5487
  203398, 5146, 5147, 5156, 5155, 5479, 5480, 5489, 5488
  203399, 5147, 5148, 5157, 5156, 5480, 5481, 5490, 5489
  203400, 5149, 5150, 5159, 5158, 5482, 5483, 5492, 5491
  203401, 5150, 5151, 5160, 5159, 5483, 5484, 5493, 5492
  203402, 5151, 5152, 5161, 5160, 5484, 5485, 5494, 5493
  203403, 5152, 5153, 5162, 5161, 5485, 5486, 5495, 5494
  203404, 5153, 5154, 5163, 5162, 5486, 5487, 5496, 5495
  203405, 5154, 5155, 5164, 5163, 5487, 5488, 5497, 5496
  203406, 5155, 5156, 5165, 5164, 5488, 5489, 5498, 5497
  203407, 5156, 5157, 5166, 5165, 5489, 5490, 5499, 5498
  203408, 5158, 5159, 5168, 5167, 5491, 5492, 5501, 5500
  203409, 5159, 5160, 5169, 5168, 5492, 5493, 5502, 5501
  203410, 5160, 5161, 5170, 5169, 5493, 5494, 5503, 5502
  203411, 5161, 5162, 5171, 5170, 5494, 5495, 5504, 5503
  203412, 5162, 5163, 5172, 5171, 5495, 5496, 5505, 5504
  203413, 5163, 5164, 5173, 5172, 5496, 5497, 5506, 5505
  203414, 5164, 5165, 5174, 5173, 5497, 5498, 5507, 5506
  203415, 5165, 5166, 5175, 5174, 5498, 5499, 5508, 5507
  203416, 5167, 5168, 5177, 5176, 5500, 5501, 5510, 5509
  203417, 5168, 5169, 5178, 5177, 5501, 5502, 5511, 5510
  203418, 5169, 5170, 5179, 5178, 5502, 5503, 5512, 5511
  203419, 5170, 5171, 5180, 5179, 5503, 5504, 5513, 5512
  203420, 5171, 5172, 5181, 5180, 5504, 5505, 5514, 5513
  203421, 5172, 5173, 5182, 5181, 5505, 5506, 5515, 5514
  203422, 5173, 5174, 5183, 5182, 5506, 5507, 5516, 5515
  203423, 5174, 5175, 5184, 5183, 5507, 5508, 5517, 5516
  203424, 5176, 5177, 5186, 5185, 5509, 5510, 5519, 5518
  203425, 5177, 5178, 5187, 5186, 5510, 5511, 5520, 5519
  203426, 5178, 5179, 5188, 5187, 5511, 5512, 5521, 5520
  203427, 5179, 5180, 5189, 5188, 5512, 5513, 5522, 5521
  203428, 5180, 5181, 5190, 5189, 5513, 5514, 5523, 5522
  203429, 5181, 5182, 5191, 5190, 5514, 5515, 5524, 5523
  203430, 5182, 5183, 5192, 5191, 5515, 5516, 5525, 5524
  203431, 5183, 5184, 5193, 5192, 5516, 5517, 5526, 5525
  203432, 5185, 5186, 5195, 5194, 5518, 5519, 5528, 5527
  203433, 5186, 5187, 5196, 5195, 5519, 5520, 5529, 5528
  203434, 5187, 5188, 5197, 5196, 5520, 5521, 5530, 5529
  203435, 5188, 5189, 5198, 5197, 5521, 5522, 5531, 5530
  203436, 5189, 5190, 5199, 5198, 5522, 5523, 5532, 5531
  203437, 5190, 5191, 5200, 5199, 5523, 5524, 5533, 5532
  203438, 5191, 5192, 5201, 5200, 5524, 5525, 5534, 5533
  203439, 5192, 5193, 5202, 5201, 5525, 5526, 5535, 5534
  203440, 5194, 5195, 5204, 5203, 5527, 5528, 5537, 5536
  203441, 5195, 5196, 5205, 5204, 5528, 5529, 5538, 5537
  203442, 5196, 5197, 5206, 5205, 5529, 5530, 5539, 5538
  203443, 5197, 5198, 5207, 5206, 5530, 5531, 5540, 5539
  203444, 5198, 5199, 5208, 5207, 5531, 5532, 5541, 5540
  203445, 5199, 5200, 5209, 5208, 5532, 5533, 5542, 5541
  203446, 5200, 5201, 5210, 5209, 5533, 5534, 5543, 5542
  203447, 5201, 5202, 5211, 5210, 5534, 5535, 5544, 5543
  203448, 5203, 5204, 5213, 5212, 5536, 5537, 5546, 5545
  203449, 5204, 5205, 5214, 5213, 5537, 5538, 5547, 5546
  203450, 5205, 5206, 5215, 5214, 5538, 5539, 5548, 5547
  203451, 5206, 5207, 5216, 5215, 5539, 5540, 5549, 5548
  203452, 5207, 5208, 5217, 5216, 5540, 5541, 5550, 5549
  203453, 5208, 5209, 5218, 5217, 5541, 5542, 5551, 5550
  203454, 5209, 5210, 5219, 5218, 5542, 5543, 5552, 5551
  203455, 5210, 5211, 5220, 5219, 5543, 5544, 5553, 5552
  203456, 5221, 5222, 5231, 5230, 5554, 5555, 5564, 5563
  203457, 5222, 5223, 5232, 5231, 5555, 5556, 5565, 5564
  203458, 5223, 5224, 5233, 5232, 5556, 5557, 5566, 5565
  203459, 5224, 5225, 5234, 5233, 5557, 5558, 5567, 5566
  203460, 5225, 5226, 5235, 5234, 5558, 5559, 5568, 5567
  203461, 5226, 5227, 5236, 5235, 5559, 5560, 5569, 5568
  203462, 5227, 5228, 5237, 5236, 5560, 5561, 5570, 5569
  203463, 5228, 5229, 5238, 5237, 5561, 5562, 5571, 5570
  203464, 5230, 5231, 5240, 5239, 5563, 5564, 5573, 5572
  203465, 5231, 5232, 5241, 5240, 5564, 5565, 5574, 5573
  203466, 5232, 5233, 5242, 5241, 5565, 5566, 5575, 5574
  203467, 5233, 5234, 5243, 5242, 5566, 5567, 5576, 5575
  203468, 5234, 5235, 5244, 5243, 5567, 5568, 5577, 5576
  203469, 5235, 5236, 5245, 5244, 5568, 5569, 5578, 5577
  203470, 5236, 5237, 5246, 5245, 5569, 5570, 5579, 5578
  203471, 5237, 5238, 5247, 5246, 5570, 5571, 5580, 5579
  203472, 5239, 5240, 5249, 5248, 5572, 5573, 5582, 5581
  203473, 5240, 5241, 5250, 5249, 5573, 5574, 5583, 5582
  203474, 5241, 5242, 5251, 5250, 5574, 5575, 5584, 5583
  203475, 5242, 5243, 5252, 5251, 5575, 5576, 5585, 5584
  203476, 5243, 5244, 5253, 5252, 5576, 5577, 5586, 5585
  203477, 5244, 5245, 5254, 5253, 5577, 5578, 5587, 5586
  203478, 5245, 5246, 5255, 5254, 5578, 5579, 5588, 5587
  203479, 5246, 5247, 5256, 5255, 5579, 5580, 5589, 5588
  203480, 5248, 5249, 5258, 5257, 5581, 5582, 5591, 5590
  203481, 5249, 5250, 5259, 5258, 5582, 5583, 5592, 5591
  203482, 5250, 5251, 5260, 5259, 5583, 5584, 5593, 5592
  203483, 5251, 5252, 5261, 5260, 5584, 5585, 5594, 5593
  203484, 5252, 5253, 5262, 5261, 5585, 5586, 5595, 5594
  203485, 5253, 5254, 5263, 5262, 5586, 5587, 5596, 5595
  203486, 5254, 5255, 5264, 5263, 5587, 5588, 5597, 5596
  203487, 5255, 5256, 5265, 5264, 5588, 5589, 5598, 5597
  203488, 5257, 5258, 5267, 5266, 5590, 5591, 5600, 5599
  203489, 5258, 5259, 5268, 5267, 5591, 5592, 5601, 5600
  203490, 5259, 5260, 5269, 5268, 5592, 5593, 5602, 5601
  203491, 5260, 5261, 5270, 5269, 5593, 5594, 5603, 5602
  203492, 5261, 5262, 5271, 5270, 5594, 5595, 5604, 5603
  203493, 5262, 5263, 5272, 5271, 5595, 5596, 5605, 5604
  203494, 5263, 5264, 5273, 5272, 5596, 5597, 5606, 5605
  203495, 5264, 5265, 5274, 5273, 5597, 5598, 5607, 5606
  203496, 5266, 5267, 5276, 5275, 5599, 5600, 5609, 5608
  203497, 5267, 5268, 5277, 5276, 5600, 5601, 5610, 5609
  203498, 5268, 5269, 5278, 5277, 5601, 5602, 5611, 5610
  203499, 5269, 5270, 5279, 5278, 5602, 5603, 5612, 5611
  203500, 5270, 5271, 5280, 5279, 5603, 5604, 5613, 5612
  203501, 5271, 5272, 5281, 5280, 5604, 5605, 5614, 5613
  203502, 5272, 5273, 5282, 5281, 5605, 5606, 5615, 5614
  203503, 5273, 5274, 5283, 5282, 5606, 5607, 5616, 5615
  203504, 5275, 5276, 5285, 5284, 5608, 5609, 5618, 5617
  203505, 5276, 5277, 5286, 5285, 5609, 5610, 5619, 5618
  203506, 5277, 5278, 5287, 5286, 5610, 5611, 5620, 5619
  203507, 5278, 5279, 5288, 5287, 5611, 5612, 5621, 5620
  203508, 5279, 5280, 5289, 5288, 5612, 5613, 5622, 5621
  203509, 5280, 5281, 5290, 5289, 5613, 5614, 5623, 5622
  203510, 5281, 5282, 5291, 5290, 5614, 5615, 5624, 5623
  203511, 5282, 5283, 5292, 5291, 5615, 5616, 5625, 5624
  203512, 5284, 5285, 5294, 5293, 5617, 5618, 5627, 5626
  203513, 5285, 5286, 5295, 5294, 5618, 5619, 5628, 5627
  203514, 5286, 5287, 5296, 5295, 5619, 5620, 5629, 5628
  203515, 5287, 5288, 5297, 5296, 5620, 5621, 5630, 5629
  203516, 5288, 5289, 5298, 5297, 5621, 5622, 5631, 5630
  203517, 5289, 5290, 5299, 5298, 5622, 5623, 5632, 5631
  203518, 5290, 5291, 5300, 5299, 5623, 5624, 5633, 5632
  203519, 5291, 5292, 5301, 5300, 5624, 5625, 5634, 5633
  203520, 5293, 5294, 5303, 5302, 5626, 5627, 5636, 5635
  203521, 5294, 5295, 5304, 5303, 5627, 5628, 5637, 5636
  203522, 5295, 5296, 5305, 5304, 5628, 5629, 5638, 5637
  203523, 5296, 5297, 5306, 5305, 5629, 5630, 5639, 5638
  203524, 5297, 5298, 5307, 5306, 5630, 5631, 5640, 5639
  203525, 5298, 5299, 5308, 5307, 5631, 5632, 5641, 5640
  203526, 5299, 5300, 5309, 5308, 5632, 5633, 5642, 5641
  203527, 5300, 5301, 5310, 5309, 5633, 5634, 5643, 5642
  203528, 5302, 5303, 5312, 5311, 5635, 5636, 5645, 5644
  203529, 5303, 5304, 5313, 5312, 5636, 5637, 5646, 5645
  203530, 5304, 5305, 5314, 5313, 5637, 5638, 5647, 5646
  203531, 5305, 5306, 5315, 5314, 5638, 5639, 5648, 5647
  203532, 5306, 5307, 5316, 5315, 5639, 5640, 5649, 5648
  203533, 5307, 5308, 5317, 5316, 5640, 5641, 5650, 5649
  203534, 5308, 5309, 5318, 5317, 5641, 5642, 5651, 5650
  203535, 5309, 5310, 5319, 5318, 5642, 5643, 5652, 5651
  203536, 5311, 5312, 5321, 5320, 5644, 5645, 5654, 5653
  203537, 5312, 5313, 5322, 5321, 5645, 5646, 5655, 5654
  203538, 5313, 5314, 5323, 5322, 5646, 5647, 5656, 5655
  203539, 5314, 5315, 5324, 5323, 5647, 5648, 5657, 5656
  203540, 5315, 5316, 5325, 5324, 5648, 5649, 5658, 5657
  203541, 5316, 5317, 5326, 5325, 5649, 5650, 5659, 5658
  203542, 5317, 5318, 5327, 5326, 5650, 5651, 5660, 5659
  203543, 5318, 5319, 5328, 5327, 5651, 5652, 5661, 5660
  203544, 5320, 5321, 5330, 5329, 5653, 5654, 5663, 5662
  203545, 5321, 5322, 5331, 5330, 5654, 5655, 5664, 5663
  203546, 5322, 5323, 5332, 5331, 5655, 5656, 5665, 5664
  203547, 5323, 5324, 5333, 5332, 5656, 5657, 5666, 5665
  203548, 5324, 5325, 5334, 5333, 5657, 5658, 5667, 5666
  203549, 5325, 5326, 5335, 5334, 5658, 5659, 5668, 5667
  203550, 5326, 5327, 5336, 5335, 5659, 5660, 5669, 5668
  203551, 5327, 5328, 5337, 5336, 5660, 5661, 5670, 5669
  203552, 5329, 5330, 5339, 5338, 5662, 5663, 5672, 5671
  203553, 5330, 5331, 5340, 5339, 5663, 5664, 5673, 5672
  203554, 5331, 5332, 5341, 5340, 5664, 5665, 5674, 5673
  203555, 5332, 5333, 5342, 5341, 5665, 5666, 5675, 5674
  203556, 5333, 5334, 5343, 5342, 5666, 5667, 5676, 5675
  203557, 5334, 5335, 5344, 5343, 5667, 5668, 5677, 5676
  203558, 5335, 5336, 5345, 5344, 5668, 5669, 5678, 5677
  203559, 5336, 5337, 5346, 5345, 5669, 5670, 5679, 5678
  203560, 5338, 5339, 5348, 5347, 5671, 5672, 5681, 5680
  203561, 5339, 5340, 5349, 5348, 5672, 5673, 5682, 5681
  203562, 5340, 5341, 5350, 5349, 5673, 5674, 5683, 5682
  203563, 5341, 5342, 5351, 5350, 5674, 5675, 5684, 5683
  203564, 5342, 5343, 5352, 5351, 5675, 5676, 5685, 5684
  203565, 5343, 5344, 5353, 5352, 5676, 5677, 5686, 5685
  203566, 5344, 5345, 5354, 5353, 5677, 5678, 5687, 5686
  203567, 5345, 5346, 5355, 5354, 5678, 5679, 5688, 5687
  203568, 5347, 5348, 5357, 5356, 5680, 5681, 5690, 5689
  203569, 5348, 5349, 5358, 5357, 5681, 5682, 5691, 5690
  203570, 5349, 5350, 5359, 5358, 5682, 5683, 5692, 5691
  203571, 5350, 5351, 5360, 5359, 5683, 5684, 5693, 5692
  203572, 5351, 5352, 5361, 5360, 5684, 5685, 5694, 5693
  203573, 5352, 5353, 5362, 5361, 5685, 5686, 5695, 5694
  203574, 5353, 5354, 5363, 5362, 5686, 5687, 5696, 5695
  203575, 5354, 5355, 5364, 5363, 5687, 5688, 5697, 5696
  203576, 5356, 5357, 5366, 5365, 5689, 5690, 5699, 5698
  203577, 5357, 5358, 5367, 5366, 5690, 5691, 5700, 5699
  203578, 5358, 5359, 5368, 5367, 5691, 5692, 5701, 5700
  203579, 5359, 5360, 5369, 5368, 5692, 5693, 5702, 5701
  203580, 5360, 5361, 5370, 5369, 5693, 5694, 5703, 5702
  203581, 5361, 5362, 5371, 5370, 5694, 5695, 5704, 5703
  203582, 5362, 5363, 5372, 5371, 5695, 5696, 5705, 5704
  203583, 5363, 5364, 5373, 5372, 5696, 5697, 5706, 5705
  203584, 5365, 5366, 5375, 5374, 5698, 5699, 5708, 5707
  203585, 5366, 5367, 5376, 5375, 5699, 5700, 5709, 5708
  203586, 5367, 5368, 5377, 5376, 5700, 5701, 5710, 5709
  203587, 5368, 5369, 5378, 5377, 5701, 5702, 5711, 5710
  203588, 5369, 5370, 5379, 5378, 5702, 5703, 5712, 5711
  203589, 5370, 5371, 5380, 5379, 5703, 5704, 5713, 5712
  203590, 5371, 5372, 5381, 5380, 5704, 5705, 5714, 5713
  203591, 5372, 5373, 5382, 5381, 5705, 5706, 5715, 5714
  203592, 5374, 5375, 5384, 5383, 5707, 5708, 5717, 5716
  203593, 5375, 5376, 5385, 5384, 5708, 5709, 5718, 5717
  203594, 5376, 5377, 5386, 5385, 5709, 5710, 5719, 5718
  203595, 5377, 5378, 5387, 5386, 5710, 5711, 5720, 5719
  203596, 5378, 5379, 5388, 5387, 5711, 5712, 5721, 5720
  203597, 5379, 5380, 5389, 5388, 5712, 5713, 5722, 5721
  203598, 5380, 5381, 5390, 5389, 5713, 5714, 5723, 5722
  203599, 5381, 5382, 5391, 5390, 5714, 5715, 5724, 5723
  203600, 5383, 5384, 5393, 5392, 5716, 5717, 5726, 5725
  203601, 5384, 5385, 5394, 5393, 5717, 5718, 5727, 5726
  203602, 5385, 5386, 5395, 5394, 5718, 5719, 5728, 5727
  203603, 5386, 5387, 5396, 5395, 5719, 5720, 5729, 5728
  203604, 5387, 5388, 5397, 5396, 5720, 5721, 5730, 5729
  203605, 5388, 5389, 5398, 5397, 5721, 5722, 5731, 5730
  203606, 5389, 5390, 5399, 5398, 5722, 5723, 5732, 5731
  203607, 5390, 5391, 5400, 5399, 5723, 5724, 5733, 5732
  203608, 5392, 5393, 5402, 5401, 5725, 5726, 5735, 5734
  203609, 5393, 5394, 5403, 5402, 5726, 5727, 5736, 5735
  203610, 5394, 5395, 5404, 5403, 5727, 5728, 5737, 5736
  203611, 5395, 5396, 5405, 5404, 5728, 5729, 5738, 5737
  203612, 5396, 5397, 5406, 5405, 5729, 5730, 5739, 5738
  203613, 5397, 5398, 5407, 5406, 5730, 5731, 5740, 5739
  203614, 5398, 5399, 5408, 5407, 5731, 5732, 5741, 5740
  203615, 5399, 5400, 5409, 5408, 5732, 5733, 5742, 5741
  203616, 5401, 5402, 5411, 5410, 5734, 5735, 5744, 5743
  203617, 5402, 5403, 5412, 5411, 5735, 5736, 5745, 5744
  203618, 5403, 5404, 5413, 5412, 5736, 5737, 5746, 5745
  203619, 5404, 5405, 5414, 5413, 5737, 5738, 5747, 5746
  203620, 5405, 5406, 5415, 5414, 5738, 5739, 5748, 5747
  203621, 5406, 5407, 5416, 5415, 5739, 5740, 5749, 5748
  203622, 5407, 5408, 5417, 5416, 5740, 5741, 5750, 5749
  203623, 5408, 5409, 5418, 5417, 5741, 5742, 5751, 5750
  203624, 5410, 5411, 5420, 5419, 5743, 5744, 5753, 5752
  203625, 5411, 5412, 5421, 5420, 5744, 5745, 5754, 5753
  203626, 5412, 5413, 5422, 5421, 5745, 5746, 5755, 5754
  203627, 5413, 5414, 5423, 5422, 5746, 5747, 5756, 5755
  203628, 5414, 5415, 5424, 5423, 5747, 5748, 5757, 5756
  203629, 5415, 5416, 5425, 5424, 5748, 5749, 5758, 5757
  203630, 5416, 5417, 5426, 5425, 5749, 5750, 5759, 5758
  203631, 5417, 5418, 5427, 5426, 5750, 5751, 5760, 5759
  203632, 5419, 5420, 5429, 5428, 5752, 5753, 5762, 5761
  203633, 5420, 5421, 5430, 5429, 5753, 5754, 5763, 5762
  203634, 5421, 5422, 5431, 5430, 5754, 5755, 5764, 5763
  203635, 5422, 5423, 5432, 5431, 5755, 5756, 5765, 5764
  203636, 5423, 5424, 5433, 5432, 5756, 5757, 5766, 5765
  203637, 5424, 5425, 5434, 5433, 5757, 5758, 5767, 5766
  203638, 5425, 5426, 5435, 5434, 5758, 5759, 5768, 5767
  203639, 5426, 5427, 5436, 5435, 5759, 5760, 5769, 5768
  203640, 5428, 5429, 5438, 5437, 5761, 5762, 5771, 5770
  203641, 5429, 5430, 5439, 5438, 5762, 5763, 5772, 5771
  203642, 5430, 5431, 5440, 5439, 5763, 5764, 5773, 5772
  203643, 5431, 5432, 5441, 5440, 5764, 5765, 5774, 5773
  203644, 5432, 5433, 5442, 5441, 5765, 5766, 5775, 5774
  203645, 5433, 5434, 5443, 5442, 5766, 5767, 5776, 5775
  203646, 5434, 5435, 5444, 5443, 5767, 5768, 5777, 5776
  203647, 5435, 5436, 5445, 5444, 5768, 5769, 5778, 5777
  203648, 5437, 5438, 5447, 5446, 5770, 5771, 5780, 5779
  203649, 5438, 5439, 5448, 5447, 5771, 5772, 5781, 5780
  203650, 5439, 5440, 5449, 5448, 5772, 5773, 5782, 5781
  203651, 5440, 5441, 5450, 5449, 5773, 5774, 5783, 5782
  203652, 5441, 5442, 5451, 5450, 5774, 5775, 5784, 5783
  203653, 5442, 5443, 5452, 5451, 5775, 5776, 5785, 5784
  203654, 5443, 5444, 5453, 5452, 5776, 5777, 5786, 5785
  203655, 5444, 5445, 5454, 5453, 5777, 5778, 5787, 5786
  203656, 5446, 5447, 5456, 5455, 5779, 5780, 5789, 5788
  203657, 5447, 5448, 5457, 5456, 5780, 5781, 5790, 5789
  203658, 5448, 5449, 5458, 5457, 5781, 5782, 5791, 5790
  203659, 5449, 5450, 5459, 5458, 5782, 5783, 5792, 5791
  203660, 5450, 5451, 5460, 5459, 5783, 5784, 5793, 5792
  203661, 5451, 5452, 5461, 5460, 5784, 5785, 5794, 5793
  203662, 5452, 5453, 5462, 5461, 5785, 5786, 5795, 5794
  203663, 5453, 5454, 5463, 5462, 5786, 5787, 5796, 5795
  203664, 5455, 5456, 5465, 5464, 5788, 5789, 5798, 5797
  203665, 5456, 5457, 5466, 5465, 5789, 5790, 5799, 5798
  203666, 5457, 5458, 5467, 5466, 5790, 5791, 5800, 5799
  203667, 5458, 5459, 5468, 5467, 5791, 5792, 5801, 5800
  203668, 5459, 5460, 5469, 5468, 5792, 5793, 5802, 5801
  203669, 5460, 5461, 5470, 5469, 5793, 5794, 5803, 5802
  203670, 5461, 5462, 5471, 5470, 5794, 5795, 5804, 5803
  203671, 5462, 5463, 5472, 5471, 5795, 5796, 5805, 5804
  203672, 5464, 5465, 5474, 5473, 5797, 5798, 5807, 5806
  203673, 5465, 5466, 5475, 5474, 5798, 5799, 5808, 5807
  203674, 5466, 5467, 5476, 5475, 5799, 5800, 5809, 5808
  203675, 5467, 5468, 5477, 5476, 5800, 5801, 5810, 5809
  203676, 5468, 5469, 5478, 5477, 5801, 5802, 5811, 5810
  203677, 5469, 5470, 5479, 5478, 5802, 5803, 5812, 5811
  203678, 5470, 5471, 5480, 5479, 5803, 5804, 5813, 5812
  203679, 5471, 5472, 5481, 5480, 5804, 5805, 5814, 5813
  203680, 5473, 5474, 5483, 5482, 5806, 5807, 5816, 5815
  203681, 5474, 5475, 5484, 5483, 5807, 5808, 5817, 5816
  203682, 5475, 5476, 5485, 5484, 5808, 5809, 5818, 5817
  203683, 5476, 5477, 5486, 5485, 5809, 5810, 5819, 5818
  203684, 5477, 5478, 5487, 5486, 5810, 5811, 5820, 5819
  203685, 5478, 5479, 5488, 5487, 5811, 5812, 5821, 5820
  203686, 5479, 5480, 5489, 5488, 5812, 5813, 5822, 5821
  203687, 5480, 5481, 5490, 5489, 5813, 5814, 5823, 5822
  203688, 5482, 5483, 5492, 5491, 5815, 5816, 5825, 5824
  203689, 5483, 5484, 5493, 5492, 5816, 5817, 5826, 5825
  203690, 5484, 5485, 5494, 5493, 5817, 5818, 5827, 5826
  203691, 5485, 5486, 5495, 5494, 5818, 5819, 5828, 5827
  203692, 5486, 5487, 5496, 5495, 5819, 5820, 5829, 5828
  203693, 5487, 5488, 5497, 5496, 5820, 5821, 5830, 5829
  203694, 5488, 5489, 5498, 5497, 5821, 5822, 5831, 5830
  203695, 5489, 5490, 5499, 5498, 5822, 5823, 5832, 5831
  203696, 5491, 5492, 5501, 5500, 5824, 5825, 5834, 5833
  203697, 5492, 5493, 5502, 5501, 5825, 5826, 5835, 5834
  203698, 5493, 5494, 5503, 5502, 5826, 5827, 5836, 5835
  203699, 5494, 5495, 5504, 5503, 5827, 5828, 5837, 5836
  203700, 5495, 5496, 5505, 5504, 5828, 5829, 5838, 5837
  203701, 5496, 5497, 5506, 5505, 5829, 5830, 5839, 5838
  203702, 5497, 5498, 5507, 5506, 5830, 5831, 5840, 5839
  203703, 5498, 5499, 5508, 5507, 5831, 5832, 5841, 5840
  203704, 5500, 5501, 5510, 5509, 5833, 5834, 5843, 5842
  203705, 5501, 5502, 5511, 5510, 5834, 5835, 5844, 5843
  203706, 5502, 5503, 5512, 5511, 5835, 5836, 5845, 5844
  203707, 5503, 5504, 5513, 5512, 5836, 5837, 5846, 5845
  203708, 5504, 5505, 5514, 5513, 5837, 5838, 5847, 5846
  203709, 5505, 5506, 5515, 5514, 5838, 5839, 5848, 5847
  203710, 5506, 5507, 5516, 5515, 5839, 5840, 5849, 5848
  203711, 5507, 5508, 5517, 5516, 5840, 5841, 5850, 5849
  203712, 5509, 5510, 5519, 5518, 5842, 5843, 5852, 5851
  203713, 5510, 5511, 5520, 5519, 5843, 5844, 5853, 5852
  203714, 5511, 5512, 5521, 5520, 5844, 5845, 5854, 5853
  203715, 5512, 5513, 5522, 5521, 5845, 5846, 5855, 5854
  203716, 5513, 5514, 5523, 5522, 5846, 5847, 5856, 5855
  203717, 5514, 5515, 5524, 5523, 5847, 5848, 5857, 5856
  203718, 5515, 5516, 5525, 5524, 5848, 5849, 5858, 5857
  203719, 5516, 5517, 5526, 5525, 5849, 5850, 5859, 5858
  203720, 5518, 5519, 5528, 5527, 5851, 5852, 5861, 5860
  203721, 5519, 5520, 5529, 5528, 5852, 5853, 5862, 5861
  203722, 5520, 5521, 5530, 5529, 5853, 5854, 5863, 5862
  203723, 5521, 5522, 5531, 5530, 5854, 5855, 5864, 5863
  203724, 5522, 5523, 5532, 5531, 5855, 5856, 5865, 5864
  203725, 5523, 5524, 5533, 5532, 5856, 5857, 5866, 5865
  203726, 5524, 5525, 5534, 5533, 5857, 5858, 5867, 5866
  203727, 5525, 5526, 5535, 5534, 5858, 5859, 5868, 5867
  203728, 5527, 5528, 5537, 5536, 5860, 5861, 5870, 5869
  203729, 5528, 5529, 5538, 5537, 5861, 5862, 5871, 5870
  203730, 5529, 5530, 5539, 5538, 5862, 5863, 5872, 5871
  203731, 5530, 5531, 5540, 5539, 5863, 5864, 5873, 5872
  203732, 5531, 5532, 5541, 5540, 5864, 5865, 5874, 5873
  203733, 5532, 5533, 5542, 5541, 5865, 5866, 5875, 5874
  203734, 5533, 5534, 5543, 5542, 5866, 5867, 5876, 5875
  203735, 5534, 5535, 5544, 5543, 5867, 5868, 5877, 5876
  203736, 5536, 5537, 5546, 5545, 5869, 5870, 5879, 5878
  203737, 5537, 5538, 5547, 5546, 5870, 5871, 5880, 5879
  203738, 5538, 5539, 5548, 5547, 5871, 5872, 5881, 5880
  203739, 5539, 5540, 5549, 5548, 5872, 5873, 5882, 5881
  203740, 5540, 5541, 5550, 5549, 5873, 5874, 5883, 5882
  203741, 5541, 5542, 5551, 5550, 5874, 5875, 5884, 5883
  203742, 5542, 5543, 5552, 5551, 5875, 5876, 5885, 5884
  203743, 5543, 5544, 5553, 5552, 5876, 5877, 5886, 5885
  203744, 5554, 5555, 5564, 5563, 5887, 5888, 5897, 5896
  203745, 5555, 5556, 5565, 5564, 5888, 5889, 5898, 5897
  203746, 5556, 5557, 5566, 5565, 5889, 5890, 5899, 5898
  203747, 5557, 5558, 5567, 5566, 5890, 5891, 5900, 5899
  203748, 5558, 5559, 5568, 5567, 5891, 5892, 5901, 5900
  203749, 5559, 5560, 5569, 5568, 5892, 5893, 5902, 5901
  203750, 5560, 5561, 5570, 5569, 5893, 5894, 5903, 5902
  203751, 5561, 5562, 5571, 5570, 5894, 5895, 5904, 5903
  203752, 5563, 5564, 5573, 5572, 5896, 5897, 5906, 5905
  203753, 5564, 5565, 5574, 5573, 5897, 5898, 5907, 5906
  203754, 5565, 5566, 5575, 5574, 5898, 5899, 5908, 5907
  203755, 5566, 5567, 5576, 5575, 5899, 5900, 5909, 5908
  203756, 5567, 5568, 5577, 5576, 5900, 5901, 5910, 5909
  203757, 5568, 5569, 5578, 5577, 5901, 5902, 5911, 5910
  203758, 5569, 5570, 5579, 5578, 5902, 5903, 5912, 5911
  203759, 5570, 5571, 5580, 5579, 5903, 5904, 5913, 5912
  203760, 5572, 5573, 5582, 5581, 5905, 5906, 5915, 5914
  203761, 5573, 5574, 5583, 5582, 5906, 5907, 5916, 5915
  203762, 5574, 5575, 5584, 5583, 5907, 5908, 5917, 5916
  203763, 5575, 5576, 5585, 5584, 5908, 5909, 5918, 5917
  203764, 5576, 5577, 5586, 5585, 5909, 5910, 5919, 5918
  203765, 5577, 5578, 5587, 5586, 5910, 5911, 5920, 5919
  203766, 5578, 5579, 5588, 5587, 5911, 5912, 5921, 5920
  203767, 5579, 5580, 5589, 5588, 5912, 5913, 5922, 5921
  203768, 5581, 5582, 5591, 5590, 5914, 5915, 5924, 5923
  203769, 5582, 5583, 5592, 5591, 5915, 5916, 5925, 5924
  203770, 5583, 5584, 5593, 5592, 5916, 5917, 5926, 5925
  203771, 5584, 5585, 5594, 5593, 5917, 5918, 5927, 5926
  203772, 5585, 5586, 5595, 5594, 5918, 5919, 5928, 5927
  203773, 5586, 5587, 5596, 5595, 5919, 5920, 5929, 5928
  203774, 5587, 5588, 5597, 5596, 5920, 5921, 5930, 5929
  203775, 5588, 5589, 5598, 5597, 5921, 5922, 5931, 5930
  203776, 5590, 5591, 5600, 5599, 5923, 5924, 5933, 5932
  203777, 5591, 5592, 5601, 5600, 5924, 5925, 5934, 5933
  203778, 5592, 5593, 5602, 5601, 5925, 5926, 5935, 5934
  203779, 5593, 5594, 5603, 5602, 5926, 5927, 5936, 5935
  203780, 5594, 5595, 5604, 5603, 5927, 5928, 5937, 5936
  203781, 5595, 5596, 5605, 5604, 5928, 5929, 5938, 5937
  203782, 5596, 5597, 5606, 5605, 5929, 5930, 5939, 5938
  203783, 5597, 5598, 5607, 5606, 5930, 5931, 5940, 5939
  203784, 5599, 5600, 5609, 5608, 5932, 5933, 5942, 5941
  203785, 5600, 5601, 5610, 5609, 5933, 5934, 5943, 5942
  203786, 5601, 5602, 5611, 5610, 5934, 5935, 5944, 5943
  203787, 5602, 5603, 5612, 5611, 5935, 5936, 5945, 5944
  203788, 5603, 5604, 5613, 5612, 5936, 5937, 5946, 5945
  203789, 5604, 5605, 5614, 5613, 5937, 5938, 5947, 5946
  203790, 5605, 5606, 5615, 5614, 5938, 5939, 5948, 5947
  203791, 5606, 5607, 5616, 5615, 5939, 5940, 5949, 5948
  203792, 5608, 5609, 5618, 5617, 5941, 5942, 5951, 5950
  203793, 5609, 5610, 5619, 5618, 5942, 5943, 5952, 5951
  203794, 5610, 5611, 5620, 5619, 5943, 5944, 5953, 5952
  203795, 5611, 5612, 5621, 5620, 5944, 5945, 5954, 5953
  203796, 5612, 5613, 5622, 5621, 5945, 5946, 5955, 5954
  203797, 5613, 5614, 5623, 5622, 5946, 5947, 5956, 5955
  203798, 5614, 5615, 5624, 5623, 5947, 5948, 5957, 5956
  203799, 5615, 5616, 5625, 5624, 5948, 5949, 5958, 5957
  203800, 5617, 5618, 5627, 5626, 5950, 5951, 5960, 5959
  203801, 5618, 5619, 5628, 5627, 5951, 5952, 5961, 5960
  203802, 5619, 5620, 5629, 5628, 5952, 5953, 5962, 5961
  203803, 5620, 5621, 5630, 5629, 5953, 5954, 5963, 5962
  203804, 5621, 5622, 5631, 5630, 5954, 5955, 5964, 5963
  203805, 5622, 5623, 5632, 5631, 5955, 5956, 5965, 5964
  203806, 5623, 5624, 5633, 5632, 5956, 5957, 5966, 5965
  203807, 5624, 5625, 5634, 5633, 5957, 5958, 5967, 5966
  203808, 5626, 5627, 5636, 5635, 5959, 5960, 5969, 5968
  203809, 5627, 5628, 5637, 5636, 5960, 5961, 5970, 5969
  203810, 5628, 5629, 5638, 5637, 5961, 5962, 5971, 5970
  203811, 5629, 5630, 5639, 5638, 5962, 5963, 5972, 5971
  203812, 5630, 5631, 5640, 5639, 5963, 5964, 5973, 5972
  203813, 5631, 5632, 5641, 5640, 5964, 5965, 5974, 5973
  203814, 5632, 5633, 5642, 5641, 5965, 5966, 5975, 5974
  203815, 5633, 5634, 5643, 5642, 5966, 5967, 5976, 5975
  203816, 5635, 5636, 5645, 5644, 5968, 5969, 5978, 5977
  203817, 5636, 5637, 5646, 5645, 5969, 5970, 5979, 5978
  203818, 5637, 5638, 5647, 5646, 5970, 5971, 5980, 5979
  203819, 5638, 5639, 5648, 5647, 5971, 5972, 5981, 5980
  203820, 5639, 5640, 5649, 5648, 5972, 5973, 5982, 5981
  203821, 5640, 5641, 5650, 5649, 5973, 5974, 5983, 5982
  203822, 5641, 5642, 5651, 5650, 5974, 5975, 5984, 5983
  203823, 5642, 5643, 5652, 5651, 5975, 5976, 5985, 5984
  203824, 5644, 5645, 5654, 5653, 5977, 5978, 5987, 5986
  203825, 5645, 5646, 5655, 5654, 5978, 5979, 5988, 5987
  203826, 5646, 5647, 5656, 5655, 5979, 5980, 5989, 5988
  203827, 5647, 5648, 5657, 5656, 5980, 5981, 5990, 5989
  203828, 5648, 5649, 5658, 5657, 5981, 5982, 5991, 5990
  203829, 5649, 5650, 5659, 5658, 5982, 5983, 5992, 5991
  203830, 5650, 5651, 5660, 5659, 5983, 5984, 5993, 5992
  203831, 5651, 5652, 5661, 5660, 5984, 5985, 5994, 5993
  203832, 5653, 5654, 5663, 5662, 5986, 5987, 5996, 5995
  203833, 5654, 5655, 5664, 5663, 5987, 5988, 5997, 5996
  203834, 5655, 5656, 5665, 5664, 5988, 5989, 5998, 5997
  203835, 5656, 5657, 5666, 5665, 5989, 5990, 5999, 5998
  203836, 5657, 5658, 5667, 5666, 5990, 5991, 6000, 5999
  203837, 5658, 5659, 5668, 5667, 5991, 5992, 6001, 6000
  203838, 5659, 5660, 5669, 5668, 5992, 5993, 6002, 6001
  203839, 5660, 5661, 5670, 5669, 5993, 5994, 6003, 6002
  203840, 5662, 5663, 5672, 5671, 5995, 5996, 6005, 6004
  203841, 5663, 5664, 5673, 5672, 5996, 5997, 6006, 6005
  203842, 5664, 5665, 5674, 5673, 5997, 5998, 6007, 6006
  203843, 5665, 5666, 5675, 5674, 5998, 5999, 6008, 6007
  203844, 5666, 5667, 5676, 5675, 5999, 6000, 6009, 6008
  203845, 5667, 5668, 5677, 5676, 6000, 6001, 6010, 6009
  203846, 5668, 5669, 5678, 5677, 6001, 6002, 6011, 6010
  203847, 5669, 5670, 5679, 5678, 6002, 6003, 6012, 6011
  203848, 5671, 5672, 5681, 5680, 6004, 6005, 6014, 6013
  203849, 5672, 5673, 5682, 5681, 6005, 6006, 6015, 6014
  203850, 5673, 5674, 5683, 5682, 6006, 6007, 6016, 6015
  203851, 5674, 5675, 5684, 5683, 6007, 6008, 6017, 6016
  203852, 5675, 5676, 5685, 5684, 6008, 6009, 6018, 6017
  203853, 5676, 5677, 5686, 5685, 6009, 6010, 6019, 6018
  203854, 5677, 5678, 5687, 5686, 6010, 6011, 6020, 6019
  203855, 5678, 5679, 5688, 5687, 6011, 6012, 6021, 6020
  203856, 5680, 5681, 5690, 5689, 6013, 6014, 6023, 6022
  203857, 5681, 5682, 5691, 5690, 6014, 6015, 6024, 6023
  203858, 5682, 5683, 5692, 5691, 6015, 6016, 6025, 6024
  203859, 5683, 5684, 5693, 5692, 6016, 6017, 6026, 6025
  203860, 5684, 5685, 5694, 5693, 6017, 6018, 6027, 6026
  203861, 5685, 5686, 5695, 5694, 6018, 6019, 6028, 6027
  203862, 5686, 5687, 5696, 5695, 6019, 6020, 6029, 6028
  203863, 5687, 5688, 5697, 5696, 6020, 6021, 6030, 6029
  203864, 5689, 5690, 5699, 5698, 6022, 6023, 6032, 6031
  203865, 5690, 5691, 5700, 5699, 6023, 6024, 6033, 6032
  203866, 5691, 5692, 5701, 5700, 6024, 6025, 6034, 6033
  203867, 5692, 5693, 5702, 5701, 6025, 6026, 6035, 6034
  203868, 5693, 5694, 5703, 5702, 6026, 6027, 6036, 6035
  203869, 5694, 5695, 5704, 5703, 6027, 6028, 6037, 6036
  203870, 5695, 5696, 5705, 5704, 6028, 6029, 6038, 6037
  203871, 5696, 5697, 5706, 5705, 6029, 6030, 6039, 6038
  203872, 5698, 5699, 5708, 5707, 6031, 6032, 6041, 6040
  203873, 5699, 5700, 5709, 5708, 6032, 6033, 6042, 6041
  203874, 5700, 5701, 5710, 5709, 6033, 6034, 6043, 6042
  203875, 5701, 5702, 5711, 5710, 6034, 6035, 6044, 6043
  203876, 5702, 5703, 5712, 5711, 6035, 6036, 6045, 6044
  203877, 5703, 5704, 5713, 5712, 6036, 6037, 6046, 6045
  203878, 5704, 5705, 5714, 5713, 6037, 6038, 6047, 6046
  203879, 5705, 5706, 5715, 5714, 6038, 6039, 6048, 6047
  203880, 5707, 5708, 5717, 5716, 6040, 6041, 6050, 6049
  203881, 5708, 5709, 5718, 5717, 6041, 6042, 6051, 6050
  203882, 5709, 5710, 5719, 5718, 6042, 6043, 6052, 6051
  203883, 5710, 5711, 5720, 5719, 6043, 6044, 6053, 6052
  203884, 5711, 5712, 5721, 5720, 6044, 6045, 6054, 6053
  203885, 5712, 5713, 5722, 5721, 6045, 6046, 6055, 6054
  203886, 5713, 5714, 5723, 5722, 6046, 6047, 6056, 6055
  203887, 5714, 5715, 5724, 5723, 6047, 6048, 6057, 6056
  203888, 5716, 5717, 5726, 5725, 6049, 6050, 6059, 6058
  203889, 5717, 5718, 5727, 5726, 6050, 6051, 6060, 6059
  203890, 5718, 5719, 5728, 5727, 6051, 6052, 6061, 6060
  203891, 5719, 5720, 5729, 5728, 6052, 6053, 6062, 6061
  203892, 5720, 5721, 5730, 5729, 6053, 6054, 6063, 6062
  203893, 5721, 5722, 5731, 5730, 6054, 6055, 6064, 6063
  203894, 5722, 5723, 5732, 5731, 6055, 6056, 6065, 6064
  203895, 5723, 5724, 5733, 5732, 6056, 6057, 6066, 6065
  203896, 5725, 5726, 5735, 5734, 6058, 6059, 6068, 6067
  203897, 5726, 5727, 5736, 5735, 6059, 6060, 6069, 6068
  203898, 5727, 5728, 5737, 5736, 6060, 6061, 6070, 6069
  203899, 5728, 5729, 5738, 5737, 6061, 6062, 6071, 6070
  203900, 5729, 5730, 5739, 5738, 6062, 6063, 6072, 6071
  203901, 5730, 5731, 5740, 5739, 6063, 6064, 6073, 6072
  203902, 5731, 5732, 5741, 5740, 6064, 6065, 6074, 6073
  203903, 5732, 5733, 5742, 5741, 6065, 6066, 6075, 6074
  203904, 5734, 5735, 5744, 5743, 6067, 6068, 6077, 6076
  203905, 5735, 5736, 5745, 5744, 6068, 6069, 6078, 6077
  203906, 5736, 5737, 5746, 5745, 6069, 6070, 6079, 6078
  203907, 5737, 5738, 5747, 5746, 6070, 6071, 6080, 6079
  203908, 5738, 5739, 5748, 5747, 6071, 6072, 6081, 6080
  203909, 5739, 5740, 5749, 5748, 6072, 6073, 6082, 6081
  203910, 5740, 5741, 5750, 5749, 6073, 6074, 6083, 6082
  203911, 5741, 5742, 5751, 5750, 6074, 6075, 6084, 6083
  203912, 5743, 5744, 5753, 5752, 6076, 6077, 6086, 6085
  203913, 5744, 5745, 5754, 5753, 6077, 6078, 6087, 6086
  203914, 5745, 5746, 5755, 5754, 6078, 6079, 6088, 6087
  203915, 5746, 5747, 5756, 5755, 6079, 6080, 6089, 6088
  203916, 5747, 5748, 5757, 5756, 6080, 6081, 6090, 6089
  203917, 5748, 5749, 5758, 5757, 6081, 6082, 6091, 6090
  203918, 5749, 5750, 5759, 5758, 6082, 6083, 6092, 6091
  203919, 5750, 5751, 5760, 5759, 6083, 6084, 6093, 6092
  203920, 5752, 5753, 5762, 5761, 6085, 6086, 6095, 6094
  203921, 5753, 5754, 5763, 5762, 6086, 6087, 6096, 6095
  203922, 5754, 5755, 5764, 5763, 6087, 6088, 6097, 6096
  203923, 5755, 5756, 5765, 5764, 6088, 6089, 6098, 6097
  203924, 5756, 5757, 5766, 5765, 6089, 6090, 6099, 6098
  203925, 5757, 5758, 5767, 5766, 6090, 6091, 6100, 6099
  203926, 5758, 5759, 5768, 5767, 6091, 6092, 6101, 6100
  203927, 5759, 5760, 5769, 5768, 6092, 6093, 6102, 6101
  203928, 5761, 5762, 5771, 5770, 6094, 6095, 6104, 6103
  203929, 5762, 5763, 5772, 5771, 6095, 6096, 6105, 6104
  203930, 5763, 5764, 5773, 5772, 6096, 6097, 6106, 6105
  203931, 5764, 5765, 5774, 5773, 6097, 6098, 6107, 6106
  203932, 5765, 5766, 5775, 5774, 6098, 6099, 6108, 6107
  203933, 5766, 5767, 5776, 5775, 6099, 6100, 6109, 6108
  203934, 5767, 5768, 5777, 5776, 6100, 6101, 6110, 6109
  203935, 5768, 5769, 5778, 5777, 6101, 6102, 6111, 6110
  203936, 5770, 5771, 5780, 5779, 6103, 6104, 6113, 6112
  203937, 5771, 5772, 5781, 5780, 6104, 6105, 6114, 6113
  203938, 5772, 5773, 5782, 5781, 6105, 6106, 6115, 6114
  203939, 5773, 5774, 5783, 5782, 6106, 6107, 6116, 6115
  203940, 5774, 5775, 5784, 5783, 6107, 6108, 6117, 6116
  203941, 5775, 5776, 5785, 5784, 6108, 6109, 6118, 6117
  203942, 5776, 5777, 5786, 5785, 6109, 6110, 6119, 6118
  203943, 5777, 5778, 5787, 5786, 6110, 6111, 6120, 6119
  203944, 5779, 5780, 5789, 5788, 6112, 6113, 6122, 6121
  203945, 5780, 5781, 5790, 5789, 6113, 6114, 6123, 6122
  203946, 5781, 5782, 5791, 5790, 6114, 6115, 6124, 6123
  203947, 5782, 5783, 5792, 5791, 6115, 6116, 6125, 6124
  203948, 5783, 5784, 5793, 5792, 6116, 6117, 6126, 6125
  203949, 5784, 5785, 5794, 5793, 6117, 6118, 6127, 6126
  203950, 5785, 5786, 5795, 5794, 6118, 6119, 6128, 6127
  203951, 5786, 5787, 5796, 5795, 6119, 6120, 6129, 6128
  203952, 5788, 5789, 5798, 5797, 6121, 6122, 6131, 6130
  203953, 5789, 5790, 5799, 5798, 6122, 6123, 6132, 6131
  203954, 5790, 5791, 5800, 5799, 6123, 6124, 6133, 6132
  203955, 5791, 5792, 5801, 5800, 6124, 6125, 6134, 6133
  203956, 5792, 5793, 5802, 5801, 6125, 6126, 6135, 6134
  203957, 5793, 5794, 5803, 5802, 6126, 6127, 6136, 6135
  203958, 5794, 5795, 5804, 5803, 6127, 6128, 6137, 6136
  203959, 5795, 5796, 5805, 5804, 6128, 6129, 6138, 6137
  203960, 5797, 5798, 5807, 5806, 6130, 6131, 6140, 6139
  203961, 5798, 5799, 5808, 5807, 6131, 6132, 6141, 6140
  203962, 5799, 5800, 5809, 5808, 6132, 6133, 6142, 6141
  203963, 5800, 5801, 5810, 5809, 6133, 6134, 6143, 6142
  203964, 5801, 5802, 5811, 5810, 6134, 6135, 6144, 6143
  203965, 5802, 5803, 5812, 5811, 6135, 6136, 6145, 6144
  203966, 5803, 5804, 5813, 5812, 6136, 6137, 6146, 6145
  203967, 5804, 5805, 5814, 5813, 6137, 6138, 6147, 6146
  203968, 5806, 5807, 5816, 5815, 6139, 6140, 6149, 6148
  203969, 5807, 5808, 5817, 5816, 6140, 6141, 6150, 6149
  203970, 5808, 5809, 5818, 5817, 6141, 6142, 6151, 6150
  203971, 5809, 5810, 5819, 5818, 6142, 6143, 6152, 6151
  203972, 5810, 5811, 5820, 5819, 6143, 6144, 6153, 6152
  203973, 5811, 5812, 5821, 5820, 6144, 6145, 6154, 6153
  203974, 5812, 5813, 5822, 5821, 6145, 6146, 6155, 6154
  203975, 5813, 5814, 5823, 5822, 6146, 6147, 6156, 6155
  203976, 5815, 5816, 5825, 5824, 6148, 6149, 6158, 6157
  203977, 5816, 5817, 5826, 5825, 6149, 6150, 6159, 6158
  203978, 5817, 5818, 5827, 5826, 6150, 6151, 6160, 6159
  203979, 5818, 5819, 5828, 5827, 6151, 6152, 6161, 6160
  203980, 5819, 5820, 5829, 5828, 6152, 6153, 6162, 6161
  203981, 5820, 5821, 5830, 5829, 6153, 6154, 6163, 6162
  203982, 5821, 5822, 5831, 5830, 6154, 6155, 6164, 6163
  203983, 5822, 5823, 5832, 5831, 6155, 6156, 6165, 6164
  203984, 5824, 5825, 5834, 5833, 6157, 6158, 6167, 6166
  203985, 5825, 5826, 5835, 5834, 6158, 6159, 6168, 6167
  203986, 5826, 5827, 5836, 5835, 6159, 6160, 6169, 6168
  203987, 5827, 5828, 5837, 5836, 6160, 6161, 6170, 6169
  203988, 5828, 5829, 5838, 5837, 6161, 6162, 6171, 6170
  203989, 5829, 5830, 5839, 5838, 6162, 6163, 6172, 6171
  203990, 5830, 5831, 5840, 5839, 6163, 6164, 6173, 6172
  203991, 5831, 5832, 5841, 5840, 6164, 6165, 6174, 6173
  203992, 5833, 5834, 5843, 5842, 6166, 6167, 6176, 6175
  203993, 5834, 5835, 5844, 5843, 6167, 6168, 6177, 6176
  203994, 5835, 5836, 5845, 5844, 6168, 6169, 6178, 6177
  203995, 5836, 5837, 5846, 5845, 6169, 6170, 6179, 6178
  203996, 5837, 5838, 5847, 5846, 6170, 6171, 6180, 6179
  203997, 5838, 5839, 5848, 5847, 6171, 6172, 6181, 6180
  203998, 5839, 5840, 5849, 5848, 6172, 6173, 6182, 6181
  203999, 5840, 5841, 5850, 5849, 6173, 6174, 6183, 6182
  204000, 5842, 5843, 5852, 5851, 6175, 6176, 6185, 6184
  204001, 5843, 5844, 5853, 5852, 6176, 6177, 6186, 6185
  204002, 5844, 5845, 5854, 5853, 6177, 6178, 6187, 6186
  204003, 5845, 5846, 5855, 5854, 6178, 6179, 6188, 6187
  204004, 5846, 5847, 5856, 5855, 6179, 6180, 6189, 6188
  204005, 5847, 5848, 5857, 5856, 6180, 6181, 6190, 6189
  204006, 5848, 5849, 5858, 5857, 6181, 6182, 6191, 6190
  204007, 5849, 5850, 5859, 5858, 6182, 6183, 6192, 6191
  204008, 5851, 5852, 5861, 5860, 6184, 6185, 6194, 6193
  204009, 5852, 5853, 5862, 5861, 6185, 6186, 6195, 6194
  204010, 5853, 5854, 5863, 5862, 6186, 6187, 6196, 6195
  204011, 5854, 5855, 5864, 5863, 6187, 6188, 6197, 6196
  204012, 5855, 5856, 5865, 5864, 6188, 6189, 6198, 6197
  204013, 5856, 5857, 5866, 5865, 6189, 6190, 6199, 6198
  204014, 5857, 5858, 5867, 5866, 6190, 6191, 6200, 6199
  204015, 5858, 5859, 5868, 5867, 6191, 6192, 6201, 6200
  204016, 5860, 5861, 5870, 5869, 6193, 6194, 6203, 6202
  204017, 5861, 5862, 5871, 5870, 6194, 6195, 6204, 6203
  204018, 5862, 5863, 5872, 5871, 6195, 6196, 6205, 6204
  204019, 5863, 5864, 5873, 5872, 6196, 6197, 6206, 6205
  204020, 5864, 5865, 5874, 5873, 6197, 6198, 6207, 6206
  204021, 5865, 5866, 5875, 5874, 6198, 6199, 6208, 6207
  204022, 5866, 5867, 5876, 5875, 6199, 6200, 6209, 6208
  204023, 5867, 5868, 5877, 5876, 6200, 6201, 6210, 6209
  204024, 5869, 5870, 5879, 5878, 6202, 6203, 6212, 6211
  204025, 5870, 5871, 5880, 5879, 6203, 6204, 6213, 6212
  204026, 5871, 5872, 5881, 5880, 6204, 6205, 6214, 6213
  204027, 5872, 5873, 5882, 5881, 6205, 6206, 6215, 6214
  204028, 5873, 5874, 5883, 5882, 6206, 6207, 6216, 6215
  204029, 5874, 5875, 5884, 5883, 6207, 6208, 6217, 6216
  204030, 5875, 5876, 5885, 5884, 6208, 6209, 6218, 6217
  204031, 5876, 5877, 5886, 5885, 6209, 6210, 6219, 6218
  204032, 5887, 5888, 5897, 5896, 6220, 6221, 6230, 6229
  204033, 5888, 5889, 5898, 5897, 6221, 6222, 6231, 6230
  204034, 5889, 5890, 5899, 5898, 6222, 6223, 6232, 6231
  204035, 5890, 5891, 5900, 5899, 6223, 6224, 6233, 6232
  204036, 5891, 5892, 5901, 5900, 6224, 6225, 6234, 6233
  204037, 5892, 5893, 5902, 5901, 6225, 6226, 6235, 6234
  204038, 5893, 5894, 5903, 5902, 6226, 6227, 6236, 6235
  204039, 5894, 5895, 5904, 5903, 6227, 6228, 6237, 6236
  204040, 5896, 5897, 5906, 5905, 6229, 6230, 6239, 6238
  204041, 5897, 5898, 5907, 5906, 6230, 6231, 6240, 6239
  204042, 5898, 5899, 5908, 5907, 6231, 6232, 6241, 6240
  204043, 5899, 5900, 5909, 5908, 6232, 6233, 6242, 6241
  204044, 5900, 5901, 5910, 5909, 6233, 6234, 6243, 6242
  204045, 5901, 5902, 5911, 5910, 6234, 6235, 6244, 6243
  204046, 5902, 5903, 5912, 5911, 6235, 6236, 6245, 6244
  204047, 5903, 5904, 5913, 5912, 6236, 6237, 6246, 6245
  204048, 5905, 5906, 5915, 5914, 6238, 6239, 6248, 6247
  204049, 5906, 5907, 5916, 5915, 6239, 6240, 6249, 6248
  204050, 5907, 5908, 5917, 5916, 6240, 6241, 6250, 6249
  204051, 5908, 5909, 5918, 5917, 6241, 6242, 6251, 6250
  204052, 5909, 5910, 5919, 5918, 6242, 6243, 6252, 6251
  204053, 5910, 5911, 5920, 5919, 6243, 6244, 6253, 6252
  204054, 5911, 5912, 5921, 5920, 6244, 6245, 6254, 6253
  204055, 5912, 5913, 5922, 5921, 6245, 6246, 6255, 6254
  204056, 5914, 5915, 5924, 5923, 6247, 6248, 6257, 6256
  204057, 5915, 5916, 5925, 5924, 6248, 6249, 6258, 6257
  204058, 5916, 5917, 5926, 5925, 6249, 6250, 6259, 6258
  204059, 5917, 5918, 5927, 5926, 6250, 6251, 6260, 6259
  204060, 5918, 5919, 5928, 5927, 6251, 6252, 6261, 6260
  204061, 5919, 5920, 5929, 5928, 6252, 6253, 6262, 6261
  204062, 5920, 5921, 5930, 5929, 6253, 6254, 6263, 6262
  204063, 5921, 5922, 5931, 5930, 6254, 6255, 6264, 6263
  204064, 5923, 5924, 5933, 5932, 6256, 6257, 6266, 6265
  204065, 5924, 5925, 5934, 5933, 6257, 6258, 6267, 6266
  204066, 5925, 5926, 5935, 5934, 6258, 6259, 6268, 6267
  204067, 5926, 5927, 5936, 5935, 6259, 6260, 6269, 6268
  204068, 5927, 5928, 5937, 5936, 6260, 6261, 6270, 6269
  204069, 5928, 5929, 5938, 5937, 6261, 6262, 6271, 6270
  204070, 5929, 5930, 5939, 5938, 6262, 6263, 6272, 6271
  204071, 5930, 5931, 5940, 5939, 6263, 6264, 6273, 6272
  204072, 5932, 5933, 5942, 5941, 6265, 6266, 6275, 6274
  204073, 5933, 5934, 5943, 5942, 6266, 6267, 6276, 6275
  204074, 5934, 5935, 5944, 5943, 6267, 6268, 6277, 6276
  204075, 5935, 5936, 5945, 5944, 6268, 6269, 6278, 6277
  204076, 5936, 5937, 5946, 5945, 6269, 6270, 6279, 6278
  204077, 5937, 5938, 5947, 5946, 6270, 6271, 6280, 6279
  204078, 5938, 5939, 5948, 5947, 6271, 6272, 6281, 6280
  204079, 5939, 5940, 5949, 5948, 6272, 6273, 6282, 6281
  204080, 5941, 5942, 5951, 5950, 6274, 6275, 6284, 6283
  204081, 5942, 5943, 5952, 5951, 6275, 6276, 6285, 6284
  204082, 5943, 5944, 5953, 5952, 6276, 6277, 6286, 6285
  204083, 5944, 5945, 5954, 5953, 6277, 6278, 6287, 6286
  204084, 5945, 5946, 5955, 5954, 6278, 6279, 6288, 6287
  204085, 5946, 5947, 5956, 5955, 6279, 6280, 6289, 6288
  204086, 5947, 5948, 5957, 5956, 6280, 6281, 6290, 6289
  204087, 5948, 5949, 5958, 5957, 6281, 6282, 6291, 6290
  204088, 5950, 5951, 5960, 5959, 6283, 6284, 6293, 6292
  204089, 5951, 5952, 5961, 5960, 6284, 6285, 6294, 6293
  204090, 5952, 5953, 5962, 5961, 6285, 6286, 6295, 6294
  204091, 5953, 5954, 5963, 5962, 6286, 6287, 6296, 6295
  204092, 5954, 5955, 5964, 5963, 6287, 6288, 6297, 6296
  204093, 5955, 5956, 5965, 5964, 6288, 6289, 6298, 6297
  204094, 5956, 5957, 5966, 5965, 6289, 6290, 6299, 6298
  204095, 5957, 5958, 5967, 5966, 6290, 6291, 6300, 6299
  204096, 5959, 5960, 5969, 5968, 6292, 6293, 6302, 6301
  204097, 5960, 5961, 5970, 5969, 6293, 6294, 6303, 6302
  204098, 5961, 5962, 5971, 5970, 6294, 6295, 6304, 6303
  204099, 5962, 5963, 5972, 5971, 6295, 6296, 6305, 6304
  204100, 5963, 5964, 5973, 5972, 6296, 6297, 6306, 6305
  204101, 5964, 5965, 5974, 5973, 6297, 6298, 6307, 6306
  204102, 5965, 5966, 5975, 5974, 6298, 6299, 6308, 6307
  204103, 5966, 5967, 5976, 5975, 6299, 6300, 6309, 6308
  204104, 5968, 5969, 5978, 5977, 6301, 6302, 6311, 6310
  204105, 5969, 5970, 5979, 5978, 6302, 6303, 6312, 6311
  204106, 5970, 5971, 5980, 5979, 6303, 6304, 6313, 6312
  204107, 5971, 5972, 5981, 5980, 6304, 6305, 6314, 6313
  204108, 5972, 5973, 5982, 5981, 6305, 6306, 6315, 6314
  204109, 5973, 5974, 5983, 5982, 6306, 6307, 6316, 6315
  204110, 5974, 5975, 5984, 5983, 6307, 6308, 6317, 6316
  204111, 5975, 5976, 5985, 5984, 6308, 6309, 6318, 6317
  204112, 5977, 5978, 5987, 5986, 6310, 6311, 6320, 6319
  204113, 5978, 5979, 5988, 5987, 6311, 6312, 6321, 6320
  204114, 5979, 5980, 5989, 5988, 6312, 6313, 6322, 6321
  204115, 5980, 5981, 5990, 5989, 6313, 6314, 6323, 6322
  204116, 5981, 5982, 5991, 5990, 6314, 6315, 6324, 6323
  204117, 5982, 5983, 5992, 5991, 6315, 6316, 6325, 6324
  204118, 5983, 5984, 5993, 5992, 6316, 6317, 6326, 6325
  204119, 5984, 5985, 5994, 5993, 6317, 6318, 6327, 6326
  204120, 5986, 5987, 5996, 5995, 6319, 6320, 6329, 6328
  204121, 5987, 5988, 5997, 5996, 6320, 6321, 6330, 6329
  204122, 5988, 5989, 5998, 5997, 6321, 6322, 6331, 6330
  204123, 5989, 5990, 5999, 5998, 6322, 6323, 6332, 6331
  204124, 5990, 5991, 6000, 5999, 6323, 6324, 6333, 6332
  204125, 5991, 5992, 6001, 6000, 6324, 6325, 6334, 6333
  204126, 5992, 5993, 6002, 6001, 6325, 6326, 6335, 6334
  204127, 5993, 5994, 6003, 6002, 6326, 6327, 6336, 6335
  204128, 5995, 5996, 6005, 6004, 6328, 6329, 6338, 6337
  204129, 5996, 5997, 6006, 6005, 6329, 6330, 6339, 6338
  204130, 5997, 5998, 6007, 6006, 6330, 6331, 6340, 6339
  204131, 5998, 5999, 6008, 6007, 6331, 6332, 6341, 6340
  204132, 5999, 6000, 6009, 6008, 6332, 6333, 6342, 6341
  204133, 6000, 6001, 6010, 6009, 6333, 6334, 6343, 6342
  204134, 6001, 6002, 6011, 6010, 6334, 6335, 6344, 6343
  204135, 6002, 6003, 6012, 6011, 6335, 6336, 6345, 6344
  204136, 6004, 6005, 6014, 6013, 6337, 6338, 6347, 6346
  204137, 6005, 6006, 6015, 6014, 6338, 6339, 6348, 6347
  204138, 6006, 6007, 6016, 6015, 6339, 6340, 6349, 6348
  204139, 6007, 6008, 6017, 6016, 6340, 6341, 6350, 6349
  204140, 6008, 6009, 6018, 6017, 6341, 6342, 6351, 6350
  204141, 6009, 6010, 6019, 6018, 6342, 6343, 6352, 6351
  204142, 6010, 6011, 6020, 6019, 6343, 6344, 6353, 6352
  204143, 6011, 6012, 6021, 6020, 6344, 6345, 6354, 6353
  204144, 6013, 6014, 6023, 6022, 6346, 6347, 6356, 6355
  204145, 6014, 6015, 6024, 6023, 6347, 6348, 6357, 6356
  204146, 6015, 6016, 6025, 6024, 6348, 6349, 6358, 6357
  204147, 6016, 6017, 6026, 6025, 6349, 6350, 6359, 6358
  204148, 6017, 6018, 6027, 6026, 6350, 6351, 6360, 6359
  204149, 6018, 6019, 6028, 6027, 6351, 6352, 6361, 6360
  204150, 6019, 6020, 6029, 6028, 6352, 6353, 6362, 6361
  204151, 6020, 6021, 6030, 6029, 6353, 6354, 6363, 6362
  204152, 6022, 6023, 6032, 6031, 6355, 6356, 6365, 6364
  204153, 6023, 6024, 6033, 6032, 6356, 6357, 6366, 6365
  204154, 6024, 6025, 6034, 6033, 6357, 6358, 6367, 6366
  204155, 6025, 6026, 6035, 6034, 6358, 6359, 6368, 6367
  204156, 6026, 6027, 6036, 6035, 6359, 6360, 6369, 6368
  204157, 6027, 6028, 6037, 6036, 6360, 6361, 6370, 6369
  204158, 6028, 6029, 6038, 6037, 6361, 6362, 6371, 6370
  204159, 6029, 6030, 6039, 6038, 6362, 6363, 6372, 6371
  204160, 6031, 6032, 6041, 6040, 6364, 6365, 6374, 6373
  204161, 6032, 6033, 6042, 6041, 6365, 6366, 6375, 6374
  204162, 6033, 6034, 6043, 6042, 6366, 6367, 6376, 6375
  204163, 6034, 6035, 6044, 6043, 6367, 6368, 6377, 6376
  204164, 6035, 6036, 6045, 6044, 6368, 6369, 6378, 6377
  204165, 6036, 6037, 6046, 6045, 6369, 6370, 6379, 6378
  204166, 6037, 6038, 6047, 6046, 6370, 6371, 6380, 6379
  204167, 6038, 6039, 6048, 6047, 6371, 6372, 6381, 6380
  204168, 6040, 6041, 6050, 6049, 6373, 6374, 6383, 6382
  204169, 6041, 6042, 6051, 6050, 6374, 6375, 6384, 6383
  204170, 6042, 6043, 6052, 6051, 6375, 6376, 6385, 6384
  204171, 6043, 6044, 6053, 6052, 6376, 6377, 6386, 6385
  204172, 6044, 6045, 6054, 6053, 6377, 6378, 6387, 6386
  204173, 6045, 6046, 6055, 6054, 6378, 6379, 6388, 6387
  204174, 6046, 6047, 6056, 6055, 6379, 6380, 6389, 6388
  204175, 6047, 6048, 6057, 6056, 6380, 6381, 6390, 6389
  204176, 6049, 6050, 6059, 6058, 6382, 6383, 6392, 6391
  204177, 6050, 6051, 6060, 6059, 6383, 6384, 6393, 6392
  204178, 6051, 6052, 6061, 6060, 6384, 6385, 6394, 6393
  204179, 6052, 6053, 6062, 6061, 6385, 6386, 6395, 6394
  204180, 6053, 6054, 6063, 6062, 6386, 6387, 6396, 6395
  204181, 6054, 6055, 6064, 6063, 6387, 6388, 6397, 6396
  204182, 6055, 6056, 6065, 6064, 6388, 6389, 6398, 6397
  204183, 6056, 6057, 6066, 6065, 6389, 6390, 6399, 6398
  204184, 6058, 6059, 6068, 6067, 6391, 6392, 6401, 6400
  204185, 6059, 6060, 6069, 6068, 6392, 6393, 6402, 6401
  204186, 6060, 6061, 6070, 6069, 6393, 6394, 6403, 6402
  204187, 6061, 6062, 6071, 6070, 6394, 6395, 6404, 6403
  204188, 6062, 6063, 6072, 6071, 6395, 6396, 6405, 6404
  204189, 6063, 6064, 6073, 6072, 6396, 6397, 6406, 6405
  204190, 6064, 6065, 6074, 6073, 6397, 6398, 6407, 6406
  204191, 6065, 6066, 6075, 6074, 6398, 6399, 6408, 6407
  204192, 6067, 6068, 6077, 6076, 6400, 6401, 6410, 6409
  204193, 6068, 6069, 6078, 6077, 6401, 6402, 6411, 6410
  204194, 6069, 6070, 6079, 6078, 6402, 6403, 6412, 6411
  204195, 6070, 6071, 6080, 6079, 6403, 6404, 6413, 6412
  204196, 6071, 6072, 6081, 6080, 6404, 6405, 6414, 6413
  204197, 6072, 6073, 6082, 6081, 6405, 6406, 6415, 6414
  204198, 6073, 6074, 6083, 6082, 6406, 6407, 6416, 6415
  204199, 6074, 6075, 6084, 6083, 6407, 6408, 6417, 6416
  204200, 6076, 6077, 6086, 6085, 6409, 6410, 6419, 6418
  204201, 6077, 6078, 6087, 6086, 6410, 6411, 6420, 6419
  204202, 6078, 6079, 6088, 6087, 6411, 6412, 6421, 6420
  204203, 6079, 6080, 6089, 6088, 6412, 6413, 6422, 6421
  204204, 6080, 6081, 6090, 6089, 6413, 6414, 6423, 6422
  204205, 6081, 6082, 6091, 6090, 6414, 6415, 6424, 6423
  204206, 6082, 6083, 6092, 6091, 6415, 6416, 6425, 6424
  204207, 6083, 6084, 6093, 6092, 6416, 6417, 6426, 6425
  204208, 6085, 6086, 6095, 6094, 6418, 6419, 6428, 6427
  204209, 6086, 6087, 6096, 6095, 6419, 6420, 6429, 6428
  204210, 6087, 6088, 6097, 6096, 6420, 6421, 6430, 6429
  204211, 6088, 6089, 6098, 6097, 6421, 6422, 6431, 6430
  204212, 6089, 6090, 6099, 6098, 6422, 6423, 6432, 6431
  204213, 6090, 6091, 6100, 6099, 6423, 6424, 6433, 6432
  204214, 6091, 6092, 6101, 6100, 6424, 6425, 6434, 6433
  204215, 6092, 6093, 6102, 6101, 6425, 6426, 6435, 6434
  204216, 6094, 6095, 6104, 6103, 6427, 6428, 6437, 6436
  204217, 6095, 6096, 6105, 6104, 6428, 6429, 6438, 6437
  204218, 6096, 6097, 6106, 6105, 6429, 6430, 6439, 6438
  204219, 6097, 6098, 6107, 6106, 6430, 6431, 6440, 6439
  204220, 6098, 6099, 6108, 6107, 6431, 6432, 6441, 6440
  204221, 6099, 6100, 6109, 6108, 6432, 6433, 6442, 6441
  204222, 6100, 6101, 6110, 6109, 6433, 6434, 6443, 6442
  204223, 6101, 6102, 6111, 6110, 6434, 6435, 6444, 6443
  204224, 6103, 6104, 6113, 6112, 6436, 6437, 6446, 6445
  204225, 6104, 6105, 6114, 6113, 6437, 6438, 6447, 6446
  204226, 6105, 6106, 6115, 6114, 6438, 6439, 6448, 6447
  204227, 6106, 6107, 6116, 6115, 6439, 6440, 6449, 6448
  204228, 6107, 6108, 6117, 6116, 6440, 6441, 6450, 6449
  204229, 6108, 6109, 6118, 6117, 6441, 6442, 6451, 6450
  204230, 6109, 6110, 6119, 6118, 6442, 6443, 6452, 6451
  204231, 6110, 6111, 6120, 6119, 6443, 6444, 6453, 6452
  204232, 6112, 6113, 6122, 6121, 6445, 6446, 6455, 6454
  204233, 6113, 6114, 6123, 6122, 6446, 6447, 6456, 6455
  204234, 6114, 6115, 6124, 6123, 6447, 6448, 6457, 6456
  204235, 6115, 6116, 6125, 6124, 6448, 6449, 6458, 6457
  204236, 6116, 6117, 6126, 6125, 6449, 6450, 6459, 6458
  204237, 6117, 6118, 6127, 6126, 6450, 6451, 6460, 6459
  204238, 6118, 6119, 6128, 6127, 6451, 6452, 6461, 6460
  204239, 6119, 6120, 6129, 6128, 6452, 6453, 6462, 6461
  204240, 6121, 6122, 6131, 6130, 6454, 6455, 6464, 6463
  204241, 6122, 6123, 6132, 6131, 6455, 6456, 6465, 6464
  204242, 6123, 6124, 6133, 6132, 6456, 6457, 6466, 6465
  204243, 6124, 6125, 6134, 6133, 6457, 6458, 6467, 6466
  204244, 6125, 6126, 6135, 6134, 6458, 6459, 6468, 6467
  204245, 6126, 6127, 6136, 6135, 6459, 6460, 6469, 6468
  204246, 6127, 6128, 6137, 6136, 6460, 6461, 6470, 6469
  204247, 6128, 6129, 6138, 6137, 6461, 6462, 6471, 6470
  204248, 6130, 6131, 6140, 6139, 6463, 6464, 6473, 6472
  204249, 6131, 6132, 6141, 6140, 6464, 6465, 6474, 6473
  204250, 6132, 6133, 6142, 6141, 6465, 6466, 6475, 6474
  204251, 6133, 6134, 6143, 6142, 6466, 6467, 6476, 6475
  204252, 6134, 6135, 6144, 6143, 6467, 6468, 6477, 6476
  204253, 6135, 6136, 6145, 6144, 6468, 6469, 6478, 6477
  204254, 6136, 6137, 6146, 6145, 6469, 6470, 6479, 6478
  204255, 6137, 6138, 6147, 6146, 6470, 6471, 6480, 6479
  204256, 6139, 6140, 6149, 6148, 6472, 6473, 6482, 6481
  204257, 6140, 6141, 6150, 6149, 6473, 6474, 6483, 6482
  204258, 6141, 6142, 6151, 6150, 6474, 6475, 6484, 6483
  204259, 6142, 6143, 6152, 6151, 6475, 6476, 6485, 6484
  204260, 6143, 6144, 6153, 6152, 6476, 6477, 6486, 6485
  204261, 6144, 6145, 6154, 6153, 6477, 6478, 6487, 6486
  204262, 6145, 6146, 6155, 6154, 6478, 6479, 6488, 6487
  204263, 6146, 6147, 6156, 6155, 6479, 6480, 6489, 6488
  204264, 6148, 6149, 6158, 6157, 6481, 6482, 6491, 6490
  204265, 6149, 6150, 6159, 6158, 6482, 6483, 6492, 6491
  204266, 6150, 6151, 6160, 6159, 6483, 6484, 6493, 6492
  204267, 6151, 6152, 6161, 6160, 6484, 6485, 6494, 6493
  204268, 6152, 6153, 6162, 6161, 6485, 6486, 6495, 6494
  204269, 6153, 6154, 6163, 6162, 6486, 6487, 6496, 6495
  204270, 6154, 6155, 6164, 6163, 6487, 6488, 6497, 6496
  204271, 6155, 6156, 6165, 6164, 6488, 6489, 6498, 6497
  204272, 6157, 6158, 6167, 6166, 6490, 6491, 6500, 6499
  204273, 6158, 6159, 6168, 6167, 6491, 6492, 6501, 6500
  204274, 6159, 6160, 6169, 6168, 6492, 6493, 6502, 6501
  204275, 6160, 6161, 6170, 6169, 6493, 6494, 6503, 6502
  204276, 6161, 6162, 6171, 6170, 6494, 6495, 6504, 6503
  204277, 6162, 6163, 6172, 6171, 6495, 6496, 6505, 6504
  204278, 6163, 6164, 6173, 6172, 6496, 6497, 6506, 6505
  204279, 6164, 6165, 6174, 6173, 6497, 6498, 6507, 6506
  204280, 6166, 6167, 6176, 6175, 6499, 6500, 6509, 6508
  204281, 6167, 6168, 6177, 6176, 6500, 6501, 6510, 6509
  204282, 6168, 6169, 6178, 6177, 6501, 6502, 6511, 6510
  204283, 6169, 6170, 6179, 6178, 6502, 6503, 6512, 6511
  204284, 6170, 6171, 6180, 6179, 6503, 6504, 6513, 6512
  204285, 6171, 6172, 6181, 6180, 6504, 6505, 6514, 6513
  204286, 6172, 6173, 6182, 6181, 6505, 6506, 6515, 6514
  204287, 6173, 6174, 6183, 6182, 6506, 6507, 6516, 6515
  204288, 6175, 6176, 6185, 6184, 6508, 6509, 6518, 6517
  204289, 6176, 6177, 6186, 6185, 6509, 6510, 6519, 6518
  204290, 6177, 6178, 6187, 6186, 6510, 6511, 6520, 6519
  204291, 6178, 6179, 6188, 6187, 6511, 6512, 6521, 6520
  204292, 6179, 6180, 6189, 6188, 6512, 6513, 6522, 6521
  204293, 6180, 6181, 6190, 6189, 6513, 6514, 6523, 6522
  204294, 6181, 6182, 6191, 6190, 6514, 6515, 6524, 6523
  204295, 6182, 6183, 6192, 6191, 6515, 6516, 6525, 6524
  204296, 6184, 6185, 6194, 6193, 6517, 6518, 6527, 6526
  204297, 6185, 6186, 6195, 6194, 6518, 6519, 6528, 6527
  204298, 6186, 6187, 6196, 6195, 6519, 6520, 6529, 6528
  204299, 6187, 6188, 6197, 6196, 6520, 6521, 6530, 6529
  204300, 6188, 6189, 6198, 6197, 6521, 6522, 6531, 6530
  204301, 6189, 6190, 6199, 6198, 6522, 6523, 6532, 6531
  204302, 6190, 6191, 6200, 6199, 6523, 6524, 6533, 6532
  204303, 6191, 6192, 6201, 6200, 6524, 6525, 6534, 6533
  204304, 6193, 6194, 6203, 6202, 6526, 6527, 6536, 6535
  204305, 6194, 6195, 6204, 6203, 6527, 6528, 6537, 6536
  204306, 6195, 6196, 6205, 6204, 6528, 6529, 6538, 6537
  204307, 6196, 6197, 6206, 6205, 6529, 6530, 6539, 6538
  204308, 6197, 6198, 6207, 6206, 6530, 6531, 6540, 6539
  204309, 6198, 6199, 6208, 6207, 6531, 6532, 6541, 6540
  204310, 6199, 6200, 6209, 6208, 6532, 6533, 6542, 6541
  204311, 6200, 6201, 6210, 6209, 6533, 6534, 6543, 6542
  204312, 6202, 6203, 6212, 6211, 6535, 6536, 6545, 6544
  204313, 6203, 6204, 6213, 6212, 6536, 6537, 6546, 6545
  204314, 6204, 6205, 6214, 6213, 6537, 6538, 6547, 6546
  204315, 6205, 6206, 6215, 6214, 6538, 6539, 6548, 6547
  204316, 6206, 6207, 6216, 6215, 6539, 6540, 6549, 6548
  204317, 6207, 6208, 6217, 6216, 6540, 6541, 6550, 6549
  204318, 6208, 6209, 6218, 6217, 6541, 6542, 6551, 6550
  204319, 6209, 6210, 6219, 6218, 6542, 6543, 6552, 6551
  204320, 6220, 6221, 6230, 6229, 6553, 6554, 6563, 6562
  204321, 6221, 6222, 6231, 6230, 6554, 6555, 6564, 6563
  204322, 6222, 6223, 6232, 6231, 6555, 6556, 6565, 6564
  204323, 6223, 6224, 6233, 6232, 6556, 6557, 6566, 6565
  204324, 6224, 6225, 6234, 6233, 6557, 6558, 6567, 6566
  204325, 6225, 6226, 6235, 6234, 6558, 6559, 6568, 6567
  204326, 6226, 6227, 6236, 6235, 6559, 6560, 6569, 6568
  204327, 6227, 6228, 6237, 6236, 6560, 6561, 6570, 6569
  204328, 6229, 6230, 6239, 6238, 6562, 6563, 6572, 6571
  204329, 6230, 6231, 6240, 6239, 6563, 6564, 6573, 6572
  204330, 6231, 6232, 6241, 6240, 6564, 6565, 6574, 6573
  204331, 6232, 6233, 6242, 6241, 6565, 6566, 6575, 6574
  204332, 6233, 6234, 6243, 6242, 6566, 6567, 6576, 6575
  204333, 6234, 6235, 6244, 6243, 6567, 6568, 6577, 6576
  204334, 6235, 6236, 6245, 6244, 6568, 6569, 6578, 6577
  204335, 6236, 6237, 6246, 6245, 6569, 6570, 6579, 6578
  204336, 6238, 6239, 6248, 6247, 6571, 6572, 6581, 6580
  204337, 6239, 6240, 6249, 6248, 6572, 6573, 6582, 6581
  204338, 6240, 6241, 6250, 6249, 6573, 6574, 6583, 6582
  204339, 6241, 6242, 6251, 6250, 6574, 6575, 6584, 6583
  204340, 6242, 6243, 6252, 6251, 6575, 6576, 6585, 6584
  204341, 6243, 6244, 6253, 6252, 6576, 6577, 6586, 6585
  204342, 6244, 6245, 6254, 6253, 6577, 6578, 6587, 6586
  204343, 6245, 6246, 6255, 6254, 6578, 6579, 6588, 6587
  204344, 6247, 6248, 6257, 6256, 6580, 6581, 6590, 6589
  204345, 6248, 6249, 6258, 6257, 6581, 6582, 6591, 6590
  204346, 6249, 6250, 6259, 6258, 6582, 6583, 6592, 6591
  204347, 6250, 6251, 6260, 6259, 6583, 6584, 6593, 6592
  204348, 6251, 6252, 6261, 6260, 6584, 6585, 6594, 6593
  204349, 6252, 6253, 6262, 6261, 6585, 6586, 6595, 6594
  204350, 6253, 6254, 6263, 6262, 6586, 6587, 6596, 6595
  204351, 6254, 6255, 6264, 6263, 6587, 6588, 6597, 6596
  204352, 6256, 6257, 6266, 6265, 6589, 6590, 6599, 6598
  204353, 6257, 6258, 6267, 6266, 6590, 6591, 6600, 6599
  204354, 6258, 6259, 6268, 6267, 6591, 6592, 6601, 6600
  204355, 6259, 6260, 6269, 6268, 6592, 6593, 6602, 6601
  204356, 6260, 6261, 6270, 6269, 6593, 6594, 6603, 6602
  204357, 6261, 6262, 6271, 6270, 6594, 6595, 6604, 6603
  204358, 6262, 6263, 6272, 6271, 6595, 6596, 6605, 6604
  204359, 6263, 6264, 6273, 6272, 6596, 6597, 6606, 6605
  204360, 6265, 6266, 6275, 6274, 6598, 6599, 6608, 6607
  204361, 6266, 6267, 6276, 6275, 6599, 6600, 6609, 6608
  204362, 6267, 6268, 6277, 6276, 6600, 6601, 6610, 6609
  204363, 6268, 6269, 6278, 6277, 6601, 6602, 6611, 6610
  204364, 6269, 6270, 6279, 6278, 6602, 6603, 6612, 6611
  204365, 6270, 6271, 6280, 6279, 6603, 6604, 6613, 6612
  204366, 6271, 6272, 6281, 6280, 6604, 6605, 6614, 6613
  204367, 6272, 6273, 6282, 6281, 6605, 6606, 6615, 6614
  204368, 6274, 6275, 6284, 6283, 6607, 6608, 6617, 6616
  204369, 6275, 6276, 6285, 6284, 6608, 6609, 6618, 6617
  204370, 6276, 6277, 6286, 6285, 6609, 6610, 6619, 6618
  204371, 6277, 6278, 6287, 6286, 6610, 6611, 6620, 6619
  204372, 6278, 6279, 6288, 6287, 6611, 6612, 6621, 6620
  204373, 6279, 6280, 6289, 6288, 6612, 6613, 6622, 6621
  204374, 6280, 6281, 6290, 6289, 6613, 6614, 6623, 6622
  204375, 6281, 6282, 6291, 6290, 6614, 6615, 6624, 6623
  204376, 6283, 6284, 6293, 6292, 6616, 6617, 6626, 6625
  204377, 6284, 6285, 6294, 6293, 6617, 6618, 6627, 6626
  204378, 6285, 6286, 6295, 6294, 6618, 6619, 6628, 6627
  204379, 6286, 6287, 6296, 6295, 6619, 6620, 6629, 6628
  204380, 6287, 6288, 6297, 6296, 6620, 6621, 6630, 6629
  204381, 6288, 6289, 6298, 6297, 6621, 6622, 6631, 6630
  204382, 6289, 6290, 6299, 6298, 6622, 6623, 6632, 6631
  204383, 6290, 6291, 6300, 6299, 6623, 6624, 6633, 6632
  204384, 6292, 6293, 6302, 6301, 6625, 6626, 6635, 6634
  204385, 6293, 6294, 6303, 6302, 6626, 6627, 6636, 6635
  204386, 6294, 6295, 6304, 6303, 6627, 6628, 6637, 6636
  204387, 6295, 6296, 6305, 6304, 6628, 6629, 6638, 6637
  204388, 6296, 6297, 6306, 6305, 6629, 6630, 6639, 6638
  204389, 6297, 6298, 6307, 6306, 6630, 6631, 6640, 6639
  204390, 6298, 6299, 6308, 6307, 6631, 6632, 6641, 6640
  204391, 6299, 6300, 6309, 6308, 6632, 6633, 6642, 6641
  204392, 6301, 6302, 6311, 6310, 6634, 6635, 6644, 6643
  204393, 6302, 6303, 6312, 6311, 6635, 6636, 6645, 6644
  204394, 6303, 6304, 6313, 6312, 6636, 6637, 6646, 6645
  204395, 6304, 6305, 6314, 6313, 6637, 6638, 6647, 6646
  204396, 6305, 6306, 6315, 6314, 6638, 6639, 6648, 6647
  204397, 6306, 6307, 6316, 6315, 6639, 6640, 6649, 6648
  204398, 6307, 6308, 6317, 6316, 6640, 6641, 6650, 6649
  204399, 6308, 6309, 6318, 6317, 6641, 6642, 6651, 6650
  204400, 6310, 6311, 6320, 6319, 6643, 6644, 6653, 6652
  204401, 6311, 6312, 6321, 6320, 6644, 6645, 6654, 6653
  204402, 6312, 6313, 6322, 6321, 6645, 6646, 6655, 6654
  204403, 6313, 6314, 6323, 6322, 6646, 6647, 6656, 6655
  204404, 6314, 6315, 6324, 6323, 6647, 6648, 6657, 6656
  204405, 6315, 6316, 6325, 6324, 6648, 6649, 6658, 6657
  204406, 6316, 6317, 6326, 6325, 6649, 6650, 6659, 6658
  204407, 6317, 6318, 6327, 6326, 6650, 6651, 6660, 6659
  204408, 6319, 6320, 6329, 6328, 6652, 6653, 6662, 6661
  204409, 6320, 6321, 6330, 6329, 6653, 6654, 6663, 6662
  204410, 6321, 6322, 6331, 6330, 6654, 6655, 6664, 6663
  204411, 6322, 6323, 6332, 6331, 6655, 6656, 6665, 6664
  204412, 6323, 6324, 6333, 6332, 6656, 6657, 6666, 6665
  204413, 6324, 6325, 6334, 6333, 6657, 6658, 6667, 6666
  204414, 6325, 6326, 6335, 6334, 6658, 6659, 6668, 6667
  204415, 6326, 6327, 6336, 6335, 6659, 6660, 6669, 6668
  204416, 6328, 6329, 6338, 6337, 6661, 6662, 6671, 6670
  204417, 6329, 6330, 6339, 6338, 6662, 6663, 6672, 6671
  204418, 6330, 6331, 6340, 6339, 6663, 6664, 6673, 6672
  204419, 6331, 6332, 6341, 6340, 6664, 6665, 6674, 6673
  204420, 6332, 6333, 6342, 6341, 6665, 6666, 6675, 6674
  204421, 6333, 6334, 6343, 6342, 6666, 6667, 6676, 6675
  204422, 6334, 6335, 6344, 6343, 6667, 6668, 6677, 6676
  204423, 6335, 6336, 6345, 6344, 6668, 6669, 6678, 6677
  204424, 6337, 6338, 6347, 6346, 6670, 6671, 6680, 6679
  204425, 6338, 6339, 6348, 6347, 6671, 6672, 6681, 6680
  204426, 6339, 6340, 6349, 6348, 6672, 6673, 6682, 6681
  204427, 6340, 6341, 6350, 6349, 6673, 6674, 6683, 6682
  204428, 6341, 6342, 6351, 6350, 6674, 6675, 6684, 6683
  204429, 6342, 6343, 6352, 6351, 6675, 6676, 6685, 6684
  204430, 6343, 6344, 6353, 6352, 6676, 6677, 6686, 6685
  204431, 6344, 6345, 6354, 6353, 6677, 6678, 6687, 6686
  204432, 6346, 6347, 6356, 6355, 6679, 6680, 6689, 6688
  204433, 6347, 6348, 6357, 6356, 6680, 6681, 6690, 6689
  204434, 6348, 6349, 6358, 6357, 6681, 6682, 6691, 6690
  204435, 6349, 6350, 6359, 6358, 6682, 6683, 6692, 6691
  204436, 6350, 6351, 6360, 6359, 6683, 6684, 6693, 6692
  204437, 6351, 6352, 6361, 6360, 6684, 6685, 6694, 6693
  204438, 6352, 6353, 6362, 6361, 6685, 6686, 6695, 6694
  204439, 6353, 6354, 6363, 6362, 6686, 6687, 6696, 6695
  204440, 6355, 6356, 6365, 6364, 6688, 6689, 6698, 6697
  204441, 6356, 6357, 6366, 6365, 6689, 6690, 6699, 6698
  204442, 6357, 6358, 6367, 6366, 6690, 6691, 6700, 6699
  204443, 6358, 6359, 6368, 6367, 6691, 6692, 6701, 6700
  204444, 6359, 6360, 6369, 6368, 6692, 6693, 6702, 6701
  204445, 6360, 6361, 6370, 6369, 6693, 6694, 6703, 6702
  204446, 6361, 6362, 6371, 6370, 6694, 6695, 6704, 6703
  204447, 6362, 6363, 6372, 6371, 6695, 6696, 6705, 6704
  204448, 6364, 6365, 6374, 6373, 6697, 6698, 6707, 6706
  204449, 6365, 6366, 6375, 6374, 6698, 6699, 6708, 6707
  204450, 6366, 6367, 6376, 6375, 6699, 6700, 6709, 6708
  204451, 6367, 6368, 6377, 6376, 6700, 6701, 6710, 6709
  204452, 6368, 6369, 6378, 6377, 6701, 6702, 6711, 6710
  204453, 6369, 6370, 6379, 6378, 6702, 6703, 6712, 6711
  204454, 6370, 6371, 6380, 6379, 6703, 6704, 6713, 6712
  204455, 6371, 6372, 6381, 6380, 6704, 6705, 6714, 6713
  204456, 6373, 6374, 6383, 6382, 6706, 6707, 6716, 6715
  204457, 6374, 6375, 6384, 6383, 6707, 6708, 6717, 6716
  204458, 6375, 6376, 6385, 6384, 6708, 6709, 6718, 6717
  204459, 6376, 6377, 6386, 6385, 6709, 6710, 6719, 6718
  204460, 6377, 6378, 6387, 6386, 6710, 6711, 6720, 6719
  204461, 6378, 6379, 6388, 6387, 6711, 6712, 6721, 6720
  204462, 6379, 6380, 6389, 6388, 6712, 6713, 6722, 6721
  204463, 6380, 6381, 6390, 6389, 6713, 6714, 6723, 6722
  204464, 6382, 6383, 6392, 6391, 6715, 6716, 6725, 6724
  204465, 6383, 6384, 6393, 6392, 6716, 6717, 6726, 6725
  204466, 6384, 6385, 6394, 6393, 6717, 6718, 6727, 6726
  204467, 6385, 6386, 6395, 6394, 6718, 6719, 6728, 6727
  204468, 6386, 6387, 6396, 6395, 6719, 6720, 6729, 6728
  204469, 6387, 6388, 6397, 6396, 6720, 6721, 6730, 6729
  204470, 6388, 6389, 6398, 6397, 6721, 6722, 6731, 6730
  204471, 6389, 6390, 6399, 6398, 6722, 6723, 6732, 6731
  204472, 6391, 6392, 6401, 6400, 6724, 6725, 6734, 6733
  204473, 6392, 6393, 6402, 6401, 6725, 6726, 6735, 6734
  204474, 6393, 6394, 6403, 6402, 6726, 6727, 6736, 6735
  204475, 6394, 6395, 6404, 6403, 6727, 6728, 6737, 6736
  204476, 6395, 6396, 6405, 6404, 6728, 6729, 6738, 6737
  204477, 6396, 6397, 6406, 6405, 6729, 6730, 6739, 6738
  204478, 6397, 6398, 6407, 6406, 6730, 6731, 6740, 6739
  204479, 6398, 6399, 6408, 6407, 6731, 6732, 6741, 6740
  204480, 6400, 6401, 6410, 6409, 6733, 6734, 6743, 6742
  204481, 6401, 6402, 6411, 6410, 6734, 6735, 6744, 6743
  204482, 6402, 6403, 6412, 6411, 6735, 6736, 6745, 6744
  204483, 6403, 6404, 6413, 6412, 6736, 6737, 6746, 6745
  204484, 6404, 6405, 6414, 6413, 6737, 6738, 6747, 6746
  204485, 6405, 6406, 6415, 6414, 6738, 6739, 6748, 6747
  204486, 6406, 6407, 6416, 6415, 6739, 6740, 6749, 6748
  204487, 6407, 6408, 6417, 6416, 6740, 6741, 6750, 6749
  204488, 6409, 6410, 6419, 6418, 6742, 6743, 6752, 6751
  204489, 6410, 6411, 6420, 6419, 6743, 6744, 6753, 6752
  204490, 6411, 6412, 6421, 6420, 6744, 6745, 6754, 6753
  204491, 6412, 6413, 6422, 6421, 6745, 6746, 6755, 6754
  204492, 6413, 6414, 6423, 6422, 6746, 6747, 6756, 6755
  204493, 6414, 6415, 6424, 6423, 6747, 6748, 6757, 6756
  204494, 6415, 6416, 6425, 6424, 6748, 6749, 6758, 6757
  204495, 6416, 6417, 6426, 6425, 6749, 6750, 6759, 6758
  204496, 6418, 6419, 6428, 6427, 6751, 6752, 6761, 6760
  204497, 6419, 6420, 6429, 6428, 6752, 6753, 6762, 6761
  204498, 6420, 6421, 6430, 6429, 6753, 6754, 6763, 6762
  204499, 6421, 6422, 6431, 6430, 6754, 6755, 6764, 6763
  204500, 6422, 6423, 6432, 6431, 6755, 6756, 6765, 6764
  204501, 6423, 6424, 6433, 6432, 6756, 6757, 6766, 6765
  204502, 6424, 6425, 6434, 6433, 6757, 6758, 6767, 6766
  204503, 6425, 6426, 6435, 6434, 6758, 6759, 6768, 6767
  204504, 6427, 6428, 6437, 6436, 6760, 6761, 6770, 6769
  204505, 6428, 6429, 6438, 6437, 6761, 6762, 6771, 6770
  204506, 6429, 6430, 6439, 6438, 6762, 6763, 6772, 6771
  204507, 6430, 6431, 6440, 6439, 6763, 6764, 6773, 6772
  204508, 6431, 6432, 6441, 6440, 6764, 6765, 6774, 6773
  204509, 6432, 6433, 6442, 6441, 6765, 6766, 6775, 6774
  204510, 6433, 6434, 6443, 6442, 6766, 6767, 6776, 6775
  204511, 6434, 6435, 6444, 6443, 6767, 6768, 6777, 6776
  204512, 6436, 6437, 6446, 6445, 6769, 6770, 6779, 6778
  204513, 6437, 6438, 6447, 6446, 6770, 6771, 6780, 6779
  204514, 6438, 6439, 6448, 6447, 6771, 6772, 6781, 6780
  204515, 6439, 6440, 6449, 6448, 6772, 6773, 6782, 6781
  204516, 6440, 6441, 6450, 6449, 6773, 6774, 6783, 6782
  204517, 6441, 6442, 6451, 6450, 6774, 6775, 6784, 6783
  204518, 6442, 6443, 6452, 6451, 6775, 6776, 6785, 6784
  204519, 6443, 6444, 6453, 6452, 6776, 6777, 6786, 6785
  204520, 6445, 6446, 6455, 6454, 6778, 6779, 6788, 6787
  204521, 6446, 6447, 6456, 6455, 6779, 6780, 6789, 6788
  204522, 6447, 6448, 6457, 6456, 6780, 6781, 6790, 6789
  204523, 6448, 6449, 6458, 6457, 6781, 6782, 6791, 6790
  204524, 6449, 6450, 6459, 6458, 6782, 6783, 6792, 6791
  204525, 6450, 6451, 6460, 6459, 6783, 6784, 6793, 6792
  204526, 6451, 6452, 6461, 6460, 6784, 6785, 6794, 6793
  204527, 6452, 6453, 6462, 6461, 6785, 6786, 6795, 6794
  204528, 6454, 6455, 6464, 6463, 6787, 6788, 6797, 6796
  204529, 6455, 6456, 6465, 6464, 6788, 6789, 6798, 6797
  204530, 6456, 6457, 6466, 6465, 6789, 6790, 6799, 6798
  204531, 6457, 6458, 6467, 6466, 6790, 6791, 6800, 6799
  204532, 6458, 6459, 6468, 6467, 6791, 6792, 6801, 6800
  204533, 6459, 6460, 6469, 6468, 6792, 6793, 6802, 6801
  204534, 6460, 6461, 6470, 6469, 6793, 6794, 6803, 6802
  204535, 6461, 6462, 6471, 6470, 6794, 6795, 6804, 6803
  204536, 6463, 6464, 6473, 6472, 6796, 6797, 6806, 6805
  204537, 6464, 6465, 6474, 6473, 6797, 6798, 6807, 6806
  204538, 6465, 6466, 6475, 6474, 6798, 6799, 6808, 6807
  204539, 6466, 6467, 6476, 6475, 6799, 6800, 6809, 6808
  204540, 6467, 6468, 6477, 6476, 6800, 6801, 6810, 6809
  204541, 6468, 6469, 6478, 6477, 6801, 6802, 6811, 6810
  204542, 6469, 6470, 6479, 6478, 6802, 6803, 6812, 6811
  204543, 6470, 6471, 6480, 6479, 6803, 6804, 6813, 6812
  204544, 6472, 6473, 6482, 6481, 6805, 6806, 6815, 6814
  204545, 6473, 6474, 6483, 6482, 6806, 6807, 6816, 6815
  204546, 6474, 6475, 6484, 6483, 6807, 6808, 6817, 6816
  204547, 6475, 6476, 6485, 6484, 6808, 6809, 6818, 6817
  204548, 6476, 6477, 6486, 6485, 6809, 6810, 6819, 6818
  204549, 6477, 6478, 6487, 6486, 6810, 6811, 6820, 6819
  204550, 6478, 6479, 6488, 6487, 6811, 6812, 6821, 6820
  204551, 6479, 6480, 6489, 6488, 6812, 6813, 6822, 6821
  204552, 6481, 6482, 6491, 6490, 6814, 6815, 6824, 6823
  204553, 6482, 6483, 6492, 6491, 6815, 6816, 6825, 6824
  204554, 6483, 6484, 6493, 6492, 6816, 6817, 6826, 6825
  204555, 6484, 6485, 6494, 6493, 6817, 6818, 6827, 6826
  204556, 6485, 6486, 6495, 6494, 6818, 6819, 6828, 6827
  204557, 6486, 6487, 6496, 6495, 6819, 6820, 6829, 6828
  204558, 6487, 6488, 6497, 6496, 6820, 6821, 6830, 6829
  204559, 6488, 6489, 6498, 6497, 6821, 6822, 6831, 6830
  204560, 6490, 6491, 6500, 6499, 6823, 6824, 6833, 6832
  204561, 6491, 6492, 6501, 6500, 6824, 6825, 6834, 6833
  204562, 6492, 6493, 6502, 6501, 6825, 6826, 6835, 6834
  204563, 6493, 6494, 6503, 6502, 6826, 6827, 6836, 6835
  204564, 6494, 6495, 6504, 6503, 6827, 6828, 6837, 6836
  204565, 6495, 6496, 6505, 6504, 6828, 6829, 6838, 6837
  204566, 6496, 6497, 6506, 6505, 6829, 6830, 6839, 6838
  204567, 6497, 6498, 6507, 6506, 6830, 6831, 6840, 6839
  204568, 6499, 6500, 6509, 6508, 6832, 6833, 6842, 6841
  204569, 6500, 6501, 6510, 6509, 6833, 6834, 6843, 6842
  204570, 6501, 6502, 6511, 6510, 6834, 6835, 6844, 6843
  204571, 6502, 6503, 6512, 6511, 6835, 6836, 6845, 6844
  204572, 6503, 6504, 6513, 6512, 6836, 6837, 6846, 6845
  204573, 6504, 6505, 6514, 6513, 6837, 6838, 6847, 6846
  204574, 6505, 6506, 6515, 6514, 6838, 6839, 6848, 6847
  204575, 6506, 6507, 6516, 6515, 6839, 6840, 6849, 6848
  204576, 6508, 6509, 6518, 6517, 6841, 6842, 6851, 6850
  204577, 6509, 6510, 6519, 6518, 6842, 6843, 6852, 6851
  204578, 6510, 6511, 6520, 6519, 6843, 6844, 6853, 6852
  204579, 6511, 6512, 6521, 6520, 6844, 6845, 6854, 6853
  204580, 6512, 6513, 6522, 6521, 6845, 6846, 6855, 6854
  204581, 6513, 6514, 6523, 6522, 6846, 6847, 6856, 6855
  204582, 6514, 6515, 6524, 6523, 6847, 6848, 6857, 6856
  204583, 6515, 6516, 6525, 6524, 6848, 6849, 6858, 6857
  204584, 6517, 6518, 6527, 6526, 6850, 6851, 6860, 6859
  204585, 6518, 6519, 6528, 6527, 6851, 6852, 6861, 6860
  204586, 6519, 6520, 6529, 6528, 6852, 6853, 6862, 6861
  204587, 6520, 6521, 6530, 6529, 6853, 6854, 6863, 6862
  204588, 6521, 6522, 6531, 6530, 6854, 6855, 6864, 6863
  204589, 6522, 6523, 6532, 6531, 6855, 6856, 6865, 6864
  204590, 6523, 6524, 6533, 6532, 6856, 6857, 6866, 6865
  204591, 6524, 6525, 6534, 6533, 6857, 6858, 6867, 6866
  204592, 6526, 6527, 6536, 6535, 6859, 6860, 6869, 6868
  204593, 6527, 6528, 6537, 6536, 6860, 6861, 6870, 6869
  204594, 6528, 6529, 6538, 6537, 6861, 6862, 6871, 6870
  204595, 6529, 6530, 6539, 6538, 6862, 6863, 6872, 6871
  204596, 6530, 6531, 6540, 6539, 6863, 6864, 6873, 6872
  204597, 6531, 6532, 6541, 6540, 6864, 6865, 6874, 6873
  204598, 6532, 6533, 6542, 6541, 6865, 6866, 6875, 6874
  204599, 6533, 6534, 6543, 6542, 6866, 6867, 6876, 6875
  204600, 6535, 6536, 6545, 6544, 6868, 6869, 6878, 6877
  204601, 6536, 6537, 6546, 6545, 6869, 6870, 6879, 6878
  204602, 6537, 6538, 6547, 6546, 6870, 6871, 6880, 6879
  204603, 6538, 6539, 6548, 6547, 6871, 6872, 6881, 6880
  204604, 6539, 6540, 6549, 6548, 6872, 6873, 6882, 6881
  204605, 6540, 6541, 6550, 6549, 6873, 6874, 6883, 6882
  204606, 6541, 6542, 6551, 6550, 6874, 6875, 6884, 6883
  204607, 6542, 6543, 6552, 6551, 6875, 6876, 6885, 6884
  204608, 6553, 6554, 6563, 6562, 6886, 6887, 6896, 6895
  204609, 6554, 6555, 6564, 6563, 6887, 6888, 6897, 6896
  204610, 6555, 6556, 6565, 6564, 6888, 6889, 6898, 6897
  204611, 6556, 6557, 6566, 6565, 6889, 6890, 6899, 6898
  204612, 6557, 6558, 6567, 6566, 6890, 6891, 6900, 6899
  204613, 6558, 6559, 6568, 6567, 6891, 6892, 6901, 6900
  204614, 6559, 6560, 6569, 6568, 6892, 6893, 6902, 6901
  204615, 6560, 6561, 6570, 6569, 6893, 6894, 6903, 6902
  204616, 6562, 6563, 6572, 6571, 6895, 6896, 6905, 6904
  204617, 6563, 6564, 6573, 6572, 6896, 6897, 6906, 6905
  204618, 6564, 6565, 6574, 6573, 6897, 6898, 6907, 6906
  204619, 6565, 6566, 6575, 6574, 6898, 6899, 6908, 6907
  204620, 6566, 6567, 6576, 6575, 6899, 6900, 6909, 6908
  204621, 6567, 6568, 6577, 6576, 6900, 6901, 6910, 6909
  204622, 6568, 6569, 6578, 6577, 6901, 6902, 6911, 6910
  204623, 6569, 6570, 6579, 6578, 6902, 6903, 6912, 6911
  204624, 6571, 6572, 6581, 6580, 6904, 6905, 6914, 6913
  204625, 6572, 6573, 6582, 6581, 6905, 6906, 6915, 6914
  204626, 6573, 6574, 6583, 6582, 6906, 6907, 6916, 6915
  204627, 6574, 6575, 6584, 6583, 6907, 6908, 6917, 6916
  204628, 6575, 6576, 6585, 6584, 6908, 6909, 6918, 6917
  204629, 6576, 6577, 6586, 6585, 6909, 6910, 6919, 6918
  204630, 6577, 6578, 6587, 6586, 6910, 6911, 6920, 6919
  204631, 6578, 6579, 6588, 6587, 6911, 6912, 6921, 6920
  204632, 6580, 6581, 6590, 6589, 6913, 6914, 6923, 6922
  204633, 6581, 6582, 6591, 6590, 6914, 6915, 6924, 6923
  204634, 6582, 6583, 6592, 6591, 6915, 6916, 6925, 6924
  204635, 6583, 6584, 6593, 6592, 6916, 6917, 6926, 6925
  204636, 6584, 6585, 6594, 6593, 6917, 6918, 6927, 6926
  204637, 6585, 6586, 6595, 6594, 6918, 6919, 6928, 6927
  204638, 6586, 6587, 6596, 6595, 6919, 6920, 6929, 6928
  204639, 6587, 6588, 6597, 6596, 6920, 6921, 6930, 6929
  204640, 6589, 6590, 6599, 6598, 6922, 6923, 6932, 6931
  204641, 6590, 6591, 6600, 6599, 6923, 6924, 6933, 6932
  204642, 6591, 6592, 6601, 6600, 6924, 6925, 6934, 6933
  204643, 6592, 6593, 6602, 6601, 6925, 6926, 6935, 6934
  204644, 6593, 6594, 6603, 6602, 6926, 6927, 6936, 6935
  204645, 6594, 6595, 6604, 6603, 6927, 6928, 6937, 6936
  204646, 6595, 6596, 6605, 6604, 6928, 6929, 6938, 6937
  204647, 6596, 6597, 6606, 6605, 6929, 6930, 6939, 6938
  204648, 6598, 6599, 6608, 6607, 6931, 6932, 6941, 6940
  204649, 6599, 6600, 6609, 6608, 6932, 6933, 6942, 6941
  204650, 6600, 6601, 6610, 6609, 6933, 6934, 6943, 6942
  204651, 6601, 6602, 6611, 6610, 6934, 6935, 6944, 6943
  204652, 6602, 6603, 6612, 6611, 6935, 6936, 6945, 6944
  204653, 6603, 6604, 6613, 6612, 6936, 6937, 6946, 6945
  204654, 6604, 6605, 6614, 6613, 6937, 6938, 6947, 6946
  204655, 6605, 6606, 6615, 6614, 6938, 6939, 6948, 6947
  204656, 6607, 6608, 6617, 6616, 6940, 6941, 6950, 6949
  204657, 6608, 6609, 6618, 6617, 6941, 6942, 6951, 6950
  204658, 6609, 6610, 6619, 6618, 6942, 6943, 6952, 6951
  204659, 6610, 6611, 6620, 6619, 6943, 6944, 6953, 6952
  204660, 6611, 6612, 6621, 6620, 6944, 6945, 6954, 6953
  204661, 6612, 6613, 6622, 6621, 6945, 6946, 6955, 6954
  204662, 6613, 6614, 6623, 6622, 6946, 6947, 6956, 6955
  204663, 6614, 6615, 6624, 6623, 6947, 6948, 6957, 6956
  204664, 6616, 6617, 6626, 6625, 6949, 6950, 6959, 6958
  204665, 6617, 6618, 6627, 6626, 6950, 6951, 6960, 6959
  204666, 6618, 6619, 6628, 6627, 6951, 6952, 6961, 6960
  204667, 6619, 6620, 6629, 6628, 6952, 6953, 6962, 6961
  204668, 6620, 6621, 6630, 6629, 6953, 6954, 6963, 6962
  204669, 6621, 6622, 6631, 6630, 6954, 6955, 6964, 6963
  204670, 6622, 6623, 6632, 6631, 6955, 6956, 6965, 6964
  204671, 6623, 6624, 6633, 6632, 6956, 6957, 6966, 6965
  204672, 6625, 6626, 6635, 6634, 6958, 6959, 6968, 6967
  204673, 6626, 6627, 6636, 6635, 6959, 6960, 6969, 6968
  204674, 6627, 6628, 6637, 6636, 6960, 6961, 6970, 6969
  204675, 6628, 6629, 6638, 6637, 6961, 6962, 6971, 6970
  204676, 6629, 6630, 6639, 6638, 6962, 6963, 6972, 6971
  204677, 6630, 6631, 6640, 6639, 6963, 6964, 6973, 6972
  204678, 6631, 6632, 6641, 6640, 6964, 6965, 6974, 6973
  204679, 6632, 6633, 6642, 6641, 6965, 6966, 6975, 6974
  204680, 6634, 6635, 6644, 6643, 6967, 6968, 6977, 6976
  204681, 6635, 6636, 6645, 6644, 6968, 6969, 6978, 6977
  204682, 6636, 6637, 6646, 6645, 6969, 6970, 6979, 6978
  204683, 6637, 6638, 6647, 6646, 6970, 6971, 6980, 6979
  204684, 6638, 6639, 6648, 6647, 6971, 6972, 6981, 6980
  204685, 6639, 6640, 6649, 6648, 6972, 6973, 6982, 6981
  204686, 6640, 6641, 6650, 6649, 6973, 6974, 6983, 6982
  204687, 6641, 6642, 6651, 6650, 6974, 6975, 6984, 6983
  204688, 6643, 6644, 6653, 6652, 6976, 6977, 6986, 6985
  204689, 6644, 6645, 6654, 6653, 6977, 6978, 6987, 6986
  204690, 6645, 6646, 6655, 6654, 6978, 6979, 6988, 6987
  204691, 6646, 6647, 6656, 6655, 6979, 6980, 6989, 6988
  204692, 6647, 6648, 6657, 6656, 6980, 6981, 6990, 6989
  204693, 6648, 6649, 6658, 6657, 6981, 6982, 6991, 6990
  204694, 6649, 6650, 6659, 6658, 6982, 6983, 6992, 6991
  204695, 6650, 6651, 6660, 6659, 6983, 6984, 6993, 6992
  204696, 6652, 6653, 6662, 6661, 6985, 6986, 6995, 6994
  204697, 6653, 6654, 6663, 6662, 6986, 6987, 6996, 6995
  204698, 6654, 6655, 6664, 6663, 6987, 6988, 6997, 6996
  204699, 6655, 6656, 6665, 6664, 6988, 6989, 6998, 6997
  204700, 6656, 6657, 6666, 6665, 6989, 6990, 6999, 6998
  204701, 6657, 6658, 6667, 6666, 6990, 6991, 7000, 6999
  204702, 6658, 6659, 6668, 6667, 6991, 6992, 7001, 7000
  204703, 6659, 6660, 6669, 6668, 6992, 6993, 7002, 7001
  204704, 6661, 6662, 6671, 6670, 6994, 6995, 7004, 7003
  204705, 6662, 6663, 6672, 6671, 6995, 6996, 7005, 7004
  204706, 6663, 6664, 6673, 6672, 6996, 6997, 7006, 7005
  204707, 6664, 6665, 6674, 6673, 6997, 6998, 7007, 7006
  204708, 6665, 6666, 6675, 6674, 6998, 6999, 7008, 7007
  204709, 6666, 6667, 6676, 6675, 6999, 7000, 7009, 7008
  204710, 6667, 6668, 6677, 6676, 7000, 7001, 7010, 7009
  204711, 6668, 6669, 6678, 6677, 7001, 7002, 7011, 7010
  204712, 6670, 6671, 6680, 6679, 7003, 7004, 7013, 7012
  204713, 6671, 6672, 6681, 6680, 7004, 7005, 7014, 7013
  204714, 6672, 6673, 6682, 6681, 7005, 7006, 7015, 7014
  204715, 6673, 6674, 6683, 6682, 7006, 7007, 7016, 7015
  204716, 6674, 6675, 6684, 6683, 7007, 7008, 7017, 7016
  204717, 6675, 6676, 6685, 6684, 7008, 7009, 7018, 7017
  204718, 6676, 6677, 6686, 6685, 7009, 7010, 7019, 7018
  204719, 6677, 6678, 6687, 6686, 7010, 7011, 7020, 7019
  204720, 6679, 6680, 6689, 6688, 7012, 7013, 7022, 7021
  204721, 6680, 6681, 6690, 6689, 7013, 7014, 7023, 7022
  204722, 6681, 6682, 6691, 6690, 7014, 7015, 7024, 7023
  204723, 6682, 6683, 6692, 6691, 7015, 7016, 7025, 7024
  204724, 6683, 6684, 6693, 6692, 7016, 7017, 7026, 7025
  204725, 6684, 6685, 6694, 6693, 7017, 7018, 7027, 7026
  204726, 6685, 6686, 6695, 6694, 7018, 7019, 7028, 7027
  204727, 6686, 6687, 6696, 6695, 7019, 7020, 7029, 7028
  204728, 6688, 6689, 6698, 6697, 7021, 7022, 7031, 7030
  204729, 6689, 6690, 6699, 6698, 7022, 7023, 7032, 7031
  204730, 6690, 6691, 6700, 6699, 7023, 7024, 7033, 7032
  204731, 6691, 6692, 6701, 6700, 7024, 7025, 7034, 7033
  204732, 6692, 6693, 6702, 6701, 7025, 7026, 7035, 7034
  204733, 6693, 6694, 6703, 6702, 7026, 7027, 7036, 7035
  204734, 6694, 6695, 6704, 6703, 7027, 7028, 7037, 7036
  204735, 6695, 6696, 6705, 6704, 7028, 7029, 7038, 7037
  204736, 6697, 6698, 6707, 6706, 7030, 7031, 7040, 7039
  204737, 6698, 6699, 6708, 6707, 7031, 7032, 7041, 7040
  204738, 6699, 6700, 6709, 6708, 7032, 7033, 7042, 7041
  204739, 6700, 6701, 6710, 6709, 7033, 7034, 7043, 7042
  204740, 6701, 6702, 6711, 6710, 7034, 7035, 7044, 7043
  204741, 6702, 6703, 6712, 6711, 7035, 7036, 7045, 7044
  204742, 6703, 6704, 6713, 6712, 7036, 7037, 7046, 7045
  204743, 6704, 6705, 6714, 6713, 7037, 7038, 7047, 7046
  204744, 6706, 6707, 6716, 6715, 7039, 7040, 7049, 7048
  204745, 6707, 6708, 6717, 6716, 7040, 7041, 7050, 7049
  204746, 6708, 6709, 6718, 6717, 7041, 7042, 7051, 7050
  204747, 6709, 6710, 6719, 6718, 7042, 7043, 7052, 7051
  204748, 6710, 6711, 6720, 6719, 7043, 7044, 7053, 7052
  204749, 6711, 6712, 6721, 6720, 7044, 7045, 7054, 7053
  204750, 6712, 6713, 6722, 6721, 7045, 7046, 7055, 7054
  204751, 6713, 6714, 6723, 6722, 7046, 7047, 7056, 7055
  204752, 6715, 6716, 6725, 6724, 7048, 7049, 7058, 7057
  204753, 6716, 6717, 6726, 6725, 7049, 7050, 7059, 7058
  204754, 6717, 6718, 6727, 6726, 7050, 7051, 7060, 7059
  204755, 6718, 6719, 6728, 6727, 7051, 7052, 7061, 7060
  204756, 6719, 6720, 6729, 6728, 7052, 7053, 7062, 7061
  204757, 6720, 6721, 6730, 6729, 7053, 7054, 7063, 7062
  204758, 6721, 6722, 6731, 6730, 7054, 7055, 7064, 7063
  204759, 6722, 6723, 6732, 6731, 7055, 7056, 7065, 7064
  204760, 6724, 6725, 6734, 6733, 7057, 7058, 7067, 7066
  204761, 6725, 6726, 6735, 6734, 7058, 7059, 7068, 7067
  204762, 6726, 6727, 6736, 6735, 7059, 7060, 7069, 7068
  204763, 6727, 6728, 6737, 6736, 7060, 7061, 7070, 7069
  204764, 6728, 6729, 6738, 6737, 7061, 7062, 7071, 7070
  204765, 6729, 6730, 6739, 6738, 7062, 7063, 7072, 7071
  204766, 6730, 6731, 6740, 6739, 7063, 7064, 7073, 7072
  204767, 6731, 6732, 6741, 6740, 7064, 7065, 7074, 7073
  204768, 6733, 6734, 6743, 6742, 7066, 7067, 7076, 7075
  204769, 6734, 6735, 6744, 6743, 7067, 7068, 7077, 7076
  204770, 6735, 6736, 6745, 6744, 7068, 7069, 7078, 7077
  204771, 6736, 6737, 6746, 6745, 7069, 7070, 7079, 7078
  204772, 6737, 6738, 6747, 6746, 7070, 7071, 7080, 7079
  204773, 6738, 6739, 6748, 6747, 7071, 7072, 7081, 7080
  204774, 6739, 6740, 6749, 6748, 7072, 7073, 7082, 7081
  204775, 6740, 6741, 6750, 6749, 7073, 7074, 7083, 7082
  204776, 6742, 6743, 6752, 6751, 7075, 7076, 7085, 7084
  204777, 6743, 6744, 6753, 6752, 7076, 7077, 7086, 7085
  204778, 6744, 6745, 6754, 6753, 7077, 7078, 7087, 7086
  204779, 6745, 6746, 6755, 6754, 7078, 7079, 7088, 7087
  204780, 6746, 6747, 6756, 6755, 7079, 7080, 7089, 7088
  204781, 6747, 6748, 6757, 6756, 7080, 7081, 7090, 7089
  204782, 6748, 6749, 6758, 6757, 7081, 7082, 7091, 7090
  204783, 6749, 6750, 6759, 6758, 7082, 7083, 7092, 7091
  204784, 6751, 6752, 6761, 6760, 7084, 7085, 7094, 7093
  204785, 6752, 6753, 6762, 6761, 7085, 7086, 7095, 7094
  204786, 6753, 6754, 6763, 6762, 7086, 7087, 7096, 7095
  204787, 6754, 6755, 6764, 6763, 7087, 7088, 7097, 7096
  204788, 6755, 6756, 6765, 6764, 7088, 7089, 7098, 7097
  204789, 6756, 6757, 6766, 6765, 7089, 7090, 7099, 7098
  204790, 6757, 6758, 6767, 6766, 7090, 7091, 7100, 7099
  204791, 6758, 6759, 6768, 6767, 7091, 7092, 7101, 7100
  204792, 6760, 6761, 6770, 6769, 7093, 7094, 7103, 7102
  204793, 6761, 6762, 6771, 6770, 7094, 7095, 7104, 7103
  204794, 6762, 6763, 6772, 6771, 7095, 7096, 7105, 7104
  204795, 6763, 6764, 6773, 6772, 7096, 7097, 7106, 7105
  204796, 6764, 6765, 6774, 6773, 7097, 7098, 7107, 7106
  204797, 6765, 6766, 6775, 6774, 7098, 7099, 7108, 7107
  204798, 6766, 6767, 6776, 6775, 7099, 7100, 7109, 7108
  204799, 6767, 6768, 6777, 6776, 7100, 7101, 7110, 7109
  204800, 6769, 6770, 6779, 6778, 7102, 7103, 7112, 7111
  204801, 6770, 6771, 6780, 6779, 7103, 7104, 7113, 7112
  204802, 6771, 6772, 6781, 6780, 7104, 7105, 7114, 7113
  204803, 6772, 6773, 6782, 6781, 7105, 7106, 7115, 7114
  204804, 6773, 6774, 6783, 6782, 7106, 7107, 7116, 7115
  204805, 6774, 6775, 6784, 6783, 7107, 7108, 7117, 7116
  204806, 6775, 6776, 6785, 6784, 7108, 7109, 7118, 7117
  204807, 6776, 6777, 6786, 6785, 7109, 7110, 7119, 7118
  204808, 6778, 6779, 6788, 6787, 7111, 7112, 7121, 7120
  204809, 6779, 6780, 6789, 6788, 7112, 7113, 7122, 7121
  204810, 6780, 6781, 6790, 6789, 7113, 7114, 7123, 7122
  204811, 6781, 6782, 6791, 6790, 7114, 7115, 7124, 7123
  204812, 6782, 6783, 6792, 6791, 7115, 7116, 7125, 7124
  204813, 6783, 6784, 6793, 6792, 7116, 7117, 7126, 7125
  204814, 6784, 6785, 6794, 6793, 7117, 7118, 7127, 7126
  204815, 6785, 6786, 6795, 6794, 7118, 7119, 7128, 7127
  204816, 6787, 6788, 6797, 6796, 7120, 7121, 7130, 7129
  204817, 6788, 6789, 6798, 6797, 7121, 7122, 7131, 7130
  204818, 6789, 6790, 6799, 6798, 7122, 7123, 7132, 7131
  204819, 6790, 6791, 6800, 6799, 7123, 7124, 7133, 7132
  204820, 6791, 6792, 6801, 6800, 7124, 7125, 7134, 7133
  204821, 6792, 6793, 6802, 6801, 7125, 7126, 7135, 7134
  204822, 6793, 6794, 6803, 6802, 7126, 7127, 7136, 7135
  204823, 6794, 6795, 6804, 6803, 7127, 7128, 7137, 7136
  204824, 6796, 6797, 6806, 6805, 7129, 7130, 7139, 7138
  204825, 6797, 6798, 6807, 6806, 7130, 7131, 7140, 7139
  204826, 6798, 6799, 6808, 6807, 7131, 7132, 7141, 7140
  204827, 6799, 6800, 6809, 6808, 7132, 7133, 7142, 7141
  204828, 6800, 6801, 6810, 6809, 7133, 7134, 7143, 7142
  204829, 6801, 6802, 6811, 6810, 7134, 7135, 7144, 7143
  204830, 6802, 6803, 6812, 6811, 7135, 7136, 7145, 7144
  204831, 6803, 6804, 6813, 6812, 7136, 7137, 7146, 7145
  204832, 6805, 6806, 6815, 6814, 7138, 7139, 7148, 7147
  204833, 6806, 6807, 6816, 6815, 7139, 7140, 7149, 7148
  204834, 6807, 6808, 6817, 6816, 7140, 7141, 7150, 7149
  204835, 6808, 6809, 6818, 6817, 7141, 7142, 7151, 7150
  204836, 6809, 6810, 6819, 6818, 7142, 7143, 7152, 7151
  204837, 6810, 6811, 6820, 6819, 7143, 7144, 7153, 7152
  204838, 6811, 6812, 6821, 6820, 7144, 7145, 7154, 7153
  204839, 6812, 6813, 6822, 6821, 7145, 7146, 7155, 7154
  204840, 6814, 6815, 6824, 6823, 7147, 7148, 7157, 7156
  204841, 6815, 6816, 6825, 6824, 7148, 7149, 7158, 7157
  204842, 6816, 6817, 6826, 6825, 7149, 7150, 7159, 7158
  204843, 6817, 6818, 6827, 6826, 7150, 7151, 7160, 7159
  204844, 6818, 6819, 6828, 6827, 7151, 7152, 7161, 7160
  204845, 6819, 6820, 6829, 6828, 7152, 7153, 7162, 7161
  204846, 6820, 6821, 6830, 6829, 7153, 7154, 7163, 7162
  204847, 6821, 6822, 6831, 6830, 7154, 7155, 7164, 7163
  204848, 6823, 6824, 6833, 6832, 7156, 7157, 7166, 7165
  204849, 6824, 6825, 6834, 6833, 7157, 7158, 7167, 7166
  204850, 6825, 6826, 6835, 6834, 7158, 7159, 7168, 7167
  204851, 6826, 6827, 6836, 6835, 7159, 7160, 7169, 7168
  204852, 6827, 6828, 6837, 6836, 7160, 7161, 7170, 7169
  204853, 6828, 6829, 6838, 6837, 7161, 7162, 7171, 7170
  204854, 6829, 6830, 6839, 6838, 7162, 7163, 7172, 7171
  204855, 6830, 6831, 6840, 6839, 7163, 7164, 7173, 7172
  204856, 6832, 6833, 6842, 6841, 7165, 7166, 7175, 7174
  204857, 6833, 6834, 6843, 6842, 7166, 7167, 7176, 7175
  204858, 6834, 6835, 6844, 6843, 7167, 7168, 7177, 7176
  204859, 6835, 6836, 6845, 6844, 7168, 7169, 7178, 7177
  204860, 6836, 6837, 6846, 6845, 7169, 7170, 7179, 7178
  204861, 6837, 6838, 6847, 6846, 7170, 7171, 7180, 7179
  204862, 6838, 6839, 6848, 6847, 7171, 7172, 7181, 7180
  204863, 6839, 6840, 6849, 6848, 7172, 7173, 7182, 7181
  204864, 6841, 6842, 6851, 6850, 7174, 7175, 7184, 7183
  204865, 6842, 6843, 6852, 6851, 7175, 7176, 7185, 7184
  204866, 6843, 6844, 6853, 6852, 7176, 7177, 7186, 7185
  204867, 6844, 6845, 6854, 6853, 7177, 7178, 7187, 7186
  204868, 6845, 6846, 6855, 6854, 7178, 7179, 7188, 7187
  204869, 6846, 6847, 6856, 6855, 7179, 7180, 7189, 7188
  204870, 6847, 6848, 6857, 6856, 7180, 7181, 7190, 7189
  204871, 6848, 6849, 6858, 6857, 7181, 7182, 7191, 7190
  204872, 6850, 6851, 6860, 6859, 7183, 7184, 7193, 7192
  204873, 6851, 6852, 6861, 6860, 7184, 7185, 7194, 7193
  204874, 6852, 6853, 6862, 6861, 7185, 7186, 7195, 7194
  204875, 6853, 6854, 6863, 6862, 7186, 7187, 7196, 7195
  204876, 6854, 6855, 6864, 6863, 7187, 7188, 7197, 7196
  204877, 6855, 6856, 6865, 6864, 7188, 7189, 7198, 7197
  204878, 6856, 6857, 6866, 6865, 7189, 7190, 7199, 7198
  204879, 6857, 6858, 6867, 6866, 7190, 7191, 7200, 7199
  204880, 6859, 6860, 6869, 6868, 7192, 7193, 7202, 7201
  204881, 6860, 6861, 6870, 6869, 7193, 7194, 7203, 7202
  204882, 6861, 6862, 6871, 6870, 7194, 7195, 7204, 7203
  204883, 6862, 6863, 6872, 6871, 7195, 7196, 7205, 7204
  204884, 6863, 6864, 6873, 6872, 7196, 7197, 7206, 7205
  204885, 6864, 6865, 6874, 6873, 7197, 7198, 7207, 7206
  204886, 6865, 6866, 6875, 6874, 7198, 7199, 7208, 7207
  204887, 6866, 6867, 6876, 6875, 7199, 7200, 7209, 7208
  204888, 6868, 6869, 6878, 6877, 7201, 7202, 7211, 7210
  204889, 6869, 6870, 6879, 6878, 7202, 7203, 7212, 7211
  204890, 6870, 6871, 6880, 6879, 7203, 7204, 7213, 7212
  204891, 6871, 6872, 6881, 6880, 7204, 7205, 7214, 7213
  204892, 6872, 6873, 6882, 6881, 7205, 7206, 7215, 7214
  204893, 6873, 6874, 6883, 6882, 7206, 7207, 7216, 7215
  204894, 6874, 6875, 6884, 6883, 7207, 7208, 7217, 7216
  204895, 6875, 6876, 6885, 6884, 7208, 7209, 7218, 7217
  204896, 6886, 6887, 6896, 6895, 7219, 7220, 7229, 7228
  204897, 6887, 6888, 6897, 6896, 7220, 7221, 7230, 7229
  204898, 6888, 6889, 6898, 6897, 7221, 7222, 7231, 7230
  204899, 6889, 6890, 6899, 6898, 7222, 7223, 7232, 7231
  204900, 6890, 6891, 6900, 6899, 7223, 7224, 7233, 7232
  204901, 6891, 6892, 6901, 6900, 7224, 7225, 7234, 7233
  204902, 6892, 6893, 6902, 6901, 7225, 7226, 7235, 7234
  204903, 6893, 6894, 6903, 6902, 7226, 7227, 7236, 7235
  204904, 6895, 6896, 6905, 6904, 7228, 7229, 7238, 7237
  204905, 6896, 6897, 6906, 6905, 7229, 7230, 7239, 7238
  204906, 6897, 6898, 6907, 6906, 7230, 7231, 7240, 7239
  204907, 6898, 6899, 6908, 6907, 7231, 7232, 7241, 7240
  204908, 6899, 6900, 6909, 6908, 7232, 7233, 7242, 7241
  204909, 6900, 6901, 6910, 6909, 7233, 7234, 7243, 7242
  204910, 6901, 6902, 6911, 6910, 7234, 7235, 7244, 7243
  204911, 6902, 6903, 6912, 6911, 7235, 7236, 7245, 7244
  204912, 6904, 6905, 6914, 6913, 7237, 7238, 7247, 7246
  204913, 6905, 6906, 6915, 6914, 7238, 7239, 7248, 7247
  204914, 6906, 6907, 6916, 6915, 7239, 7240, 7249, 7248
  204915, 6907, 6908, 6917, 6916, 7240, 7241, 7250, 7249
  204916, 6908, 6909, 6918, 6917, 7241, 7242, 7251, 7250
  204917, 6909, 6910, 6919, 6918, 7242, 7243, 7252, 7251
  204918, 6910, 6911, 6920, 6919, 7243, 7244, 7253, 7252
  204919, 6911, 6912, 6921, 6920, 7244, 7245, 7254, 7253
  204920, 6913, 6914, 6923, 6922, 7246, 7247, 7256, 7255
  204921, 6914, 6915, 6924, 6923, 7247, 7248, 7257, 7256
  204922, 6915, 6916, 6925, 6924, 7248, 7249, 7258, 7257
  204923, 6916, 6917, 6926, 6925, 7249, 7250, 7259, 7258
  204924, 6917, 6918, 6927, 6926, 7250, 7251, 7260, 7259
  204925, 6918, 6919, 6928, 6927, 7251, 7252, 7261, 7260
  204926, 6919, 6920, 6929, 6928, 7252, 7253, 7262, 7261
  204927, 6920, 6921, 6930, 6929, 7253, 7254, 7263, 7262
  204928, 6922, 6923, 6932, 6931, 7255, 7256, 7265, 7264
  204929, 6923, 6924, 6933, 6932, 7256, 7257, 7266, 7265
  204930, 6924, 6925, 6934, 6933, 7257, 7258, 7267, 7266
  204931, 6925, 6926, 6935, 6934, 7258, 7259, 7268, 7267
  204932, 6926, 6927, 6936, 6935, 7259, 7260, 7269, 7268
  204933, 6927, 6928, 6937, 6936, 7260, 7261, 7270, 7269
  204934, 6928, 6929, 6938, 6937, 7261, 7262, 7271, 7270
  204935, 6929, 6930, 6939, 6938, 7262, 7263, 7272, 7271
  204936, 6931, 6932, 6941, 6940, 7264, 7265, 7274, 7273
  204937, 6932, 6933, 6942, 6941, 7265, 7266, 7275, 7274
  204938, 6933, 6934, 6943, 6942, 7266, 7267, 7276, 7275
  204939, 6934, 6935, 6944, 6943, 7267, 7268, 7277, 7276
  204940, 6935, 6936, 6945, 6944, 7268, 7269, 7278, 7277
  204941, 6936, 6937, 6946, 6945, 7269, 7270, 7279, 7278
  204942, 6937, 6938, 6947, 6946, 7270, 7271, 7280, 7279
  204943, 6938, 6939, 6948, 6947, 7271, 7272, 7281, 7280
  204944, 6940, 6941, 6950, 6949, 7273, 7274, 7283, 7282
  204945, 6941, 6942, 6951, 6950, 7274, 7275, 7284, 7283
  204946, 6942, 6943, 6952, 6951, 7275, 7276, 7285, 7284
  204947, 6943, 6944, 6953, 6952, 7276, 7277, 7286, 7285
  204948, 6944, 6945, 6954, 6953, 7277, 7278, 7287, 7286
  204949, 6945, 6946, 6955, 6954, 7278, 7279, 7288, 7287
  204950, 6946, 6947, 6956, 6955, 7279, 7280, 7289, 7288
  204951, 6947, 6948, 6957, 6956, 7280, 7281, 7290, 7289
  204952, 6949, 6950, 6959, 6958, 7282, 7283, 7292, 7291
  204953, 6950, 6951, 6960, 6959, 7283, 7284, 7293, 7292
  204954, 6951, 6952, 6961, 6960, 7284, 7285, 7294, 7293
  204955, 6952, 6953, 6962, 6961, 7285, 7286, 7295, 7294
  204956, 6953, 6954, 6963, 6962, 7286, 7287, 7296, 7295
  204957, 6954, 6955, 6964, 6963, 7287, 7288, 7297, 7296
  204958, 6955, 6956, 6965, 6964, 7288, 7289, 7298, 7297
  204959, 6956, 6957, 6966, 6965, 7289, 7290, 7299, 7298
  204960, 6958, 6959, 6968, 6967, 7291, 7292, 7301, 7300
  204961, 6959, 6960, 6969, 6968, 7292, 7293, 7302, 7301
  204962, 6960, 6961, 6970, 6969, 7293, 7294, 7303, 7302
  204963, 6961, 6962, 6971, 6970, 7294, 7295, 7304, 7303
  204964, 6962, 6963, 6972, 6971, 7295, 7296, 7305, 7304
  204965, 6963, 6964, 6973, 6972, 7296, 7297, 7306, 7305
  204966, 6964, 6965, 6974, 6973, 7297, 7298, 7307, 7306
  204967, 6965, 6966, 6975, 6974, 7298, 7299, 7308, 7307
  204968, 6967, 6968, 6977, 6976, 7300, 7301, 7310, 7309
  204969, 6968, 6969, 6978, 6977, 7301, 7302, 7311, 7310
  204970, 6969, 6970, 6979, 6978, 7302, 7303, 7312, 7311
  204971, 6970, 6971, 6980, 6979, 7303, 7304, 7313, 7312
  204972, 6971, 6972, 6981, 6980, 7304, 7305, 7314, 7313
  204973, 6972, 6973, 6982, 6981, 7305, 7306, 7315, 7314
  204974, 6973, 6974, 6983, 6982, 7306, 7307, 7316, 7315
  204975, 6974, 6975, 6984, 6983, 7307, 7308, 7317, 7316
  204976, 6976, 6977, 6986, 6985, 7309, 7310, 7319, 7318
  204977, 6977, 6978, 6987, 6986, 7310, 7311, 7320, 7319
  204978, 6978, 6979, 6988, 6987, 7311, 7312, 7321, 7320
  204979, 6979, 6980, 6989, 6988, 7312, 7313, 7322, 7321
  204980, 6980, 6981, 6990, 6989, 7313, 7314, 7323, 7322
  204981, 6981, 6982, 6991, 6990, 7314, 7315, 7324, 7323
  204982, 6982, 6983, 6992, 6991, 7315, 7316, 7325, 7324
  204983, 6983, 6984, 6993, 6992, 7316, 7317, 7326, 7325
  204984, 6985, 6986, 6995, 6994, 7318, 7319, 7328, 7327
  204985, 6986, 6987, 6996, 6995, 7319, 7320, 7329, 7328
  204986, 6987, 6988, 6997, 6996, 7320, 7321, 7330, 7329
  204987, 6988, 6989, 6998, 6997, 7321, 7322, 7331, 7330
  204988, 6989, 6990, 6999, 6998, 7322, 7323, 7332, 7331
  204989, 6990, 6991, 7000, 6999, 7323, 7324, 7333, 7332
  204990, 6991, 6992, 7001, 7000, 7324, 7325, 7334, 7333
  204991, 6992, 6993, 7002, 7001, 7325, 7326, 7335, 7334
  204992, 6994, 6995, 7004, 7003, 7327, 7328, 7337, 7336
  204993, 6995, 6996, 7005, 7004, 7328, 7329, 7338, 7337
  204994, 6996, 6997, 7006, 7005, 7329, 7330, 7339, 7338
  204995, 6997, 6998, 7007, 7006, 7330, 7331, 7340, 7339
  204996, 6998, 6999, 7008, 7007, 7331, 7332, 7341, 7340
  204997, 6999, 7000, 7009, 7008, 7332, 7333, 7342, 7341
  204998, 7000, 7001, 7010, 7009, 7333, 7334, 7343, 7342
  204999, 7001, 7002, 7011, 7010, 7334, 7335, 7344, 7343
  205000, 7003, 7004, 7013, 7012, 7336, 7337, 7346, 7345
  205001, 7004, 7005, 7014, 7013, 7337, 7338, 7347, 7346
  205002, 7005, 7006, 7015, 7014, 7338, 7339, 7348, 7347
  205003, 7006, 7007, 7016, 7015, 7339, 7340, 7349, 7348
  205004, 7007, 7008, 7017, 7016, 7340, 7341, 7350, 7349
  205005, 7008, 7009, 7018, 7017, 7341, 7342, 7351, 7350
  205006, 7009, 7010, 7019, 7018, 7342, 7343, 7352, 7351
  205007, 7010, 7011, 7020, 7019, 7343, 7344, 7353, 7352
  205008, 7012, 7013, 7022, 7021, 7345, 7346, 7355, 7354
  205009, 7013, 7014, 7023, 7022, 7346, 7347, 7356, 7355
  205010, 7014, 7015, 7024, 7023, 7347, 7348, 7357, 7356
  205011, 7015, 7016, 7025, 7024, 7348, 7349, 7358, 7357
  205012, 7016, 7017, 7026, 7025, 7349, 7350, 7359, 7358
  205013, 7017, 7018, 7027, 7026, 7350, 7351, 7360, 7359
  205014, 7018, 7019, 7028, 7027, 7351, 7352, 7361, 7360
  205015, 7019, 7020, 7029, 7028, 7352, 7353, 7362, 7361
  205016, 7021, 7022, 7031, 7030, 7354, 7355, 7364, 7363
  205017, 7022, 7023, 7032, 7031, 7355, 7356, 7365, 7364
  205018, 7023, 7024, 7033, 7032, 7356, 7357, 7366, 7365
  205019, 7024, 7025, 7034, 7033, 7357, 7358, 7367, 7366
  205020, 7025, 7026, 7035, 7034, 7358, 7359, 7368, 7367
  205021, 7026, 7027, 7036, 7035, 7359, 7360, 7369, 7368
  205022, 7027, 7028, 7037, 7036, 7360, 7361, 7370, 7369
  205023, 7028, 7029, 7038, 7037, 7361, 7362, 7371, 7370
  205024, 7030, 7031, 7040, 7039, 7363, 7364, 7373, 7372
  205025, 7031, 7032, 7041, 7040, 7364, 7365, 7374, 7373
  205026, 7032, 7033, 7042, 7041, 7365, 7366, 7375, 7374
  205027, 7033, 7034, 7043, 7042, 7366, 7367, 7376, 7375
  205028, 7034, 7035, 7044, 7043, 7367, 7368, 7377, 7376
  205029, 7035, 7036, 7045, 7044, 7368, 7369, 7378, 7377
  205030, 7036, 7037, 7046, 7045, 7369, 7370, 7379, 7378
  205031, 7037, 7038, 7047, 7046, 7370, 7371, 7380, 7379
  205032, 7039, 7040, 7049, 7048, 7372, 7373, 7382, 7381
  205033, 7040, 7041, 7050, 7049, 7373, 7374, 7383, 7382
  205034, 7041, 7042, 7051, 7050, 7374, 7375, 7384, 7383
  205035, 7042, 7043, 7052, 7051, 7375, 7376, 7385, 7384
  205036, 7043, 7044, 7053, 7052, 7376, 7377, 7386, 7385
  205037, 7044, 7045, 7054, 7053, 7377, 7378, 7387, 7386
  205038, 7045, 7046, 7055, 7054, 7378, 7379, 7388, 7387
  205039, 7046, 7047, 7056, 7055, 7379, 7380, 7389, 7388
  205040, 7048, 7049, 7058, 7057, 7381, 7382, 7391, 7390
  205041, 7049, 7050, 7059, 7058, 7382, 7383, 7392, 7391
  205042, 7050, 7051, 7060, 7059, 7383, 7384, 7393, 7392
  205043, 7051, 7052, 7061, 7060, 7384, 7385, 7394, 7393
  205044, 7052, 7053, 7062, 7061, 7385, 7386, 7395, 7394
  205045, 7053, 7054, 7063, 7062, 7386, 7387, 7396, 7395
  205046, 7054, 7055, 7064, 7063, 7387, 7388, 7397, 7396
  205047, 7055, 7056, 7065, 7064, 7388, 7389, 7398, 7397
  205048, 7057, 7058, 7067, 7066, 7390, 7391, 7400, 7399
  205049, 7058, 7059, 7068, 7067, 7391, 7392, 7401, 7400
  205050, 7059, 7060, 7069, 7068, 7392, 7393, 7402, 7401
  205051, 7060, 7061, 7070, 7069, 7393, 7394, 7403, 7402
  205052, 7061, 7062, 7071, 7070, 7394, 7395, 7404, 7403
  205053, 7062, 7063, 7072, 7071, 7395, 7396, 7405, 7404
  205054, 7063, 7064, 7073, 7072, 7396, 7397, 7406, 7405
  205055, 7064, 7065, 7074, 7073, 7397, 7398, 7407, 7406
  205056, 7066, 7067, 7076, 7075, 7399, 7400, 7409, 7408
  205057, 7067, 7068, 7077, 7076, 7400, 7401, 7410, 7409
  205058, 7068, 7069, 7078, 7077, 7401, 7402, 7411, 7410
  205059, 7069, 7070, 7079, 7078, 7402, 7403, 7412, 7411
  205060, 7070, 7071, 7080, 7079, 7403, 7404, 7413, 7412
  205061, 7071, 7072, 7081, 7080, 7404, 7405, 7414, 7413
  205062, 7072, 7073, 7082, 7081, 7405, 7406, 7415, 7414
  205063, 7073, 7074, 7083, 7082, 7406, 7407, 7416, 7415
  205064, 7075, 7076, 7085, 7084, 7408, 7409, 7418, 7417
  205065, 7076, 7077, 7086, 7085, 7409, 7410, 7419, 7418
  205066, 7077, 7078, 7087, 7086, 7410, 7411, 7420, 7419
  205067, 7078, 7079, 7088, 7087, 7411, 7412, 7421, 7420
  205068, 7079, 7080, 7089, 7088, 7412, 7413, 7422, 7421
  205069, 7080, 7081, 7090, 7089, 7413, 7414, 7423, 7422
  205070, 7081, 7082, 7091, 7090, 7414, 7415, 7424, 7423
  205071, 7082, 7083, 7092, 7091, 7415, 7416, 7425, 7424
  205072, 7084, 7085, 7094, 7093, 7417, 7418, 7427, 7426
  205073, 7085, 7086, 7095, 7094, 7418, 7419, 7428, 7427
  205074, 7086, 7087, 7096, 7095, 7419, 7420, 7429, 7428
  205075, 7087, 7088, 7097, 7096, 7420, 7421, 7430, 7429
  205076, 7088, 7089, 7098, 7097, 7421, 7422, 7431, 7430
  205077, 7089, 7090, 7099, 7098, 7422, 7423, 7432, 7431
  205078, 7090, 7091, 7100, 7099, 7423, 7424, 7433, 7432
  205079, 7091, 7092, 7101, 7100, 7424, 7425, 7434, 7433
  205080, 7093, 7094, 7103, 7102, 7426, 7427, 7436, 7435
  205081, 7094, 7095, 7104, 7103, 7427, 7428, 7437, 7436
  205082, 7095, 7096, 7105, 7104, 7428, 7429, 7438, 7437
  205083, 7096, 7097, 7106, 7105, 7429, 7430, 7439, 7438
  205084, 7097, 7098, 7107, 7106, 7430, 7431, 7440, 7439
  205085, 7098, 7099, 7108, 7107, 7431, 7432, 7441, 7440
  205086, 7099, 7100, 7109, 7108, 7432, 7433, 7442, 7441
  205087, 7100, 7101, 7110, 7109, 7433, 7434, 7443, 7442
  205088, 7102, 7103, 7112, 7111, 7435, 7436, 7445, 7444
  205089, 7103, 7104, 7113, 7112, 7436, 7437, 7446, 7445
  205090, 7104, 7105, 7114, 7113, 7437, 7438, 7447, 7446
  205091, 7105, 7106, 7115, 7114, 7438, 7439, 7448, 7447
  205092, 7106, 7107, 7116, 7115, 7439, 7440, 7449, 7448
  205093, 7107, 7108, 7117, 7116, 7440, 7441, 7450, 7449
  205094, 7108, 7109, 7118, 7117, 7441, 7442, 7451, 7450
  205095, 7109, 7110, 7119, 7118, 7442, 7443, 7452, 7451
  205096, 7111, 7112, 7121, 7120, 7444, 7445, 7454, 7453
  205097, 7112, 7113, 7122, 7121, 7445, 7446, 7455, 7454
  205098, 7113, 7114, 7123, 7122, 7446, 7447, 7456, 7455
  205099, 7114, 7115, 7124, 7123, 7447, 7448, 7457, 7456
  205100, 7115, 7116, 7125, 7124, 7448, 7449, 7458, 7457
  205101, 7116, 7117, 7126, 7125, 7449, 7450, 7459, 7458
  205102, 7117, 7118, 7127, 7126, 7450, 7451, 7460, 7459
  205103, 7118, 7119, 7128, 7127, 7451, 7452, 7461, 7460
  205104, 7120, 7121, 7130, 7129, 7453, 7454, 7463, 7462
  205105, 7121, 7122, 7131, 7130, 7454, 7455, 7464, 7463
  205106, 7122, 7123, 7132, 7131, 7455, 7456, 7465, 7464
  205107, 7123, 7124, 7133, 7132, 7456, 7457, 7466, 7465
  205108, 7124, 7125, 7134, 7133, 7457, 7458, 7467, 7466
  205109, 7125, 7126, 7135, 7134, 7458, 7459, 7468, 7467
  205110, 7126, 7127, 7136, 7135, 7459, 7460, 7469, 7468
  205111, 7127, 7128, 7137, 7136, 7460, 7461, 7470, 7469
  205112, 7129, 7130, 7139, 7138, 7462, 7463, 7472, 7471
  205113, 7130, 7131, 7140, 7139, 7463, 7464, 7473, 7472
  205114, 7131, 7132, 7141, 7140, 7464, 7465, 7474, 7473
  205115, 7132, 7133, 7142, 7141, 7465, 7466, 7475, 7474
  205116, 7133, 7134, 7143, 7142, 7466, 7467, 7476, 7475
  205117, 7134, 7135, 7144, 7143, 7467, 7468, 7477, 7476
  205118, 7135, 7136, 7145, 7144, 7468, 7469, 7478, 7477
  205119, 7136, 7137, 7146, 7145, 7469, 7470, 7479, 7478
  205120, 7138, 7139, 7148, 7147, 7471, 7472, 7481, 7480
  205121, 7139, 7140, 7149, 7148, 7472, 7473, 7482, 7481
  205122, 7140, 7141, 7150, 7149, 7473, 7474, 7483, 7482
  205123, 7141, 7142, 7151, 7150, 7474, 7475, 7484, 7483
  205124, 7142, 7143, 7152, 7151, 7475, 7476, 7485, 7484
  205125, 7143, 7144, 7153, 7152, 7476, 7477, 7486, 7485
  205126, 7144, 7145, 7154, 7153, 7477, 7478, 7487, 7486
  205127, 7145, 7146, 7155, 7154, 7478, 7479, 7488, 7487
  205128, 7147, 7148, 7157, 7156, 7480, 7481, 7490, 7489
  205129, 7148, 7149, 7158, 7157, 7481, 7482, 7491, 7490
  205130, 7149, 7150, 7159, 7158, 7482, 7483, 7492, 7491
  205131, 7150, 7151, 7160, 7159, 7483, 7484, 7493, 7492
  205132, 7151, 7152, 7161, 7160, 7484, 7485, 7494, 7493
  205133, 7152, 7153, 7162, 7161, 7485, 7486, 7495, 7494
  205134, 7153, 7154, 7163, 7162, 7486, 7487, 7496, 7495
  205135, 7154, 7155, 7164, 7163, 7487, 7488, 7497, 7496
  205136, 7156, 7157, 7166, 7165, 7489, 7490, 7499, 7498
  205137, 7157, 7158, 7167, 7166, 7490, 7491, 7500, 7499
  205138, 7158, 7159, 7168, 7167, 7491, 7492, 7501, 7500
  205139, 7159, 7160, 7169, 7168, 7492, 7493, 7502, 7501
  205140, 7160, 7161, 7170, 7169, 7493, 7494, 7503, 7502
  205141, 7161, 7162, 7171, 7170, 7494, 7495, 7504, 7503
  205142, 7162, 7163, 7172, 7171, 7495, 7496, 7505, 7504
  205143, 7163, 7164, 7173, 7172, 7496, 7497, 7506, 7505
  205144, 7165, 7166, 7175, 7174, 7498, 7499, 7508, 7507
  205145, 7166, 7167, 7176, 7175, 7499, 7500, 7509, 7508
  205146, 7167, 7168, 7177, 7176, 7500, 7501, 7510, 7509
  205147, 7168, 7169, 7178, 7177, 7501, 7502, 7511, 7510
  205148, 7169, 7170, 7179, 7178, 7502, 7503, 7512, 7511
  205149, 7170, 7171, 7180, 7179, 7503, 7504, 7513, 7512
  205150, 7171, 7172, 7181, 7180, 7504, 7505, 7514, 7513
  205151, 7172, 7173, 7182, 7181, 7505, 7506, 7515, 7514
  205152, 7174, 7175, 7184, 7183, 7507, 7508, 7517, 7516
  205153, 7175, 7176, 7185, 7184, 7508, 7509, 7518, 7517
  205154, 7176, 7177, 7186, 7185, 7509, 7510, 7519, 7518
  205155, 7177, 7178, 7187, 7186, 7510, 7511, 7520, 7519
  205156, 7178, 7179, 7188, 7187, 7511, 7512, 7521, 7520
  205157, 7179, 7180, 7189, 7188, 7512, 7513, 7522, 7521
  205158, 7180, 7181, 7190, 7189, 7513, 7514, 7523, 7522
  205159, 7181, 7182, 7191, 7190, 7514, 7515, 7524, 7523
  205160, 7183, 7184, 7193, 7192, 7516, 7517, 7526, 7525
  205161, 7184, 7185, 7194, 7193, 7517, 7518, 7527, 7526
  205162, 7185, 7186, 7195, 7194, 7518, 7519, 7528, 7527
  205163, 7186, 7187, 7196, 7195, 7519, 7520, 7529, 7528
  205164, 7187, 7188, 7197, 7196, 7520, 7521, 7530, 7529
  205165, 7188, 7189, 7198, 7197, 7521, 7522, 7531, 7530
  205166, 7189, 7190, 7199, 7198, 7522, 7523, 7532, 7531
  205167, 7190, 7191, 7200, 7199, 7523, 7524, 7533, 7532
  205168, 7192, 7193, 7202, 7201, 7525, 7526, 7535, 7534
  205169, 7193, 7194, 7203, 7202, 7526, 7527, 7536, 7535
  205170, 7194, 7195, 7204, 7203, 7527, 7528, 7537, 7536
  205171, 7195, 7196, 7205, 7204, 7528, 7529, 7538, 7537
  205172, 7196, 7197, 7206, 7205, 7529, 7530, 7539, 7538
  205173, 7197, 7198, 7207, 7206, 7530, 7531, 7540, 7539
  205174, 7198, 7199, 7208, 7207, 7531, 7532, 7541, 7540
  205175, 7199, 7200, 7209, 7208, 7532, 7533, 7542, 7541
  205176, 7201, 7202, 7211, 7210, 7534, 7535, 7544, 7543
  205177, 7202, 7203, 7212, 7211, 7535, 7536, 7545, 7544
  205178, 7203, 7204, 7213, 7212, 7536, 7537, 7546, 7545
  205179, 7204, 7205, 7214, 7213, 7537, 7538, 7547, 7546
  205180, 7205, 7206, 7215, 7214, 7538, 7539, 7548, 7547
  205181, 7206, 7207, 7216, 7215, 7539, 7540, 7549, 7548
  205182, 7207, 7208, 7217, 7216, 7540, 7541, 7550, 7549
  205183, 7208, 7209, 7218, 7217, 7541, 7542, 7551, 7550
  205184, 7219, 7220, 7229, 7228, 7552, 7553, 7562, 7561
  205185, 7220, 7221, 7230, 7229, 7553, 7554, 7563, 7562
  205186, 7221, 7222, 7231, 7230, 7554, 7555, 7564, 7563
  205187, 7222, 7223, 7232, 7231, 7555, 7556, 7565, 7564
  205188, 7223, 7224, 7233, 7232, 7556, 7557, 7566, 7565
  205189, 7224, 7225, 7234, 7233, 7557, 7558, 7567, 7566
  205190, 7225, 7226, 7235, 7234, 7558, 7559, 7568, 7567
  205191, 7226, 7227, 7236, 7235, 7559, 7560, 7569, 7568
  205192, 7228, 7229, 7238, 7237, 7561, 7562, 7571, 7570
  205193, 7229, 7230, 7239, 7238, 7562, 7563, 7572, 7571
  205194, 7230, 7231, 7240, 7239, 7563, 7564, 7573, 7572
  205195, 7231, 7232, 7241, 7240, 7564, 7565, 7574, 7573
  205196, 7232, 7233, 7242, 7241, 7565, 7566, 7575, 7574
  205197, 7233, 7234, 7243, 7242, 7566, 7567, 7576, 7575
  205198, 7234, 7235, 7244, 7243, 7567, 7568, 7577, 7576
  205199, 7235, 7236, 7245, 7244, 7568, 7569, 7578, 7577
  205200, 7237, 7238, 7247, 7246, 7570, 7571, 7580, 7579
  205201, 7238, 7239, 7248, 7247, 7571, 7572, 7581, 7580
  205202, 7239, 7240, 7249, 7248, 7572, 7573, 7582, 7581
  205203, 7240, 7241, 7250, 7249, 7573, 7574, 7583, 7582
  205204, 7241, 7242, 7251, 7250, 7574, 7575, 7584, 7583
  205205, 7242, 7243, 7252, 7251, 7575, 7576, 7585, 7584
  205206, 7243, 7244, 7253, 7252, 7576, 7577, 7586, 7585
  205207, 7244, 7245, 7254, 7253, 7577, 7578, 7587, 7586
  205208, 7246, 7247, 7256, 7255, 7579, 7580, 7589, 7588
  205209, 7247, 7248, 7257, 7256, 7580, 7581, 7590, 7589
  205210, 7248, 7249, 7258, 7257, 7581, 7582, 7591, 7590
  205211, 7249, 7250, 7259, 7258, 7582, 7583, 7592, 7591
  205212, 7250, 7251, 7260, 7259, 7583, 7584, 7593, 7592
  205213, 7251, 7252, 7261, 7260, 7584, 7585, 7594, 7593
  205214, 7252, 7253, 7262, 7261, 7585, 7586, 7595, 7594
  205215, 7253, 7254, 7263, 7262, 7586, 7587, 7596, 7595
  205216, 7255, 7256, 7265, 7264, 7588, 7589, 7598, 7597
  205217, 7256, 7257, 7266, 7265, 7589, 7590, 7599, 7598
  205218, 7257, 7258, 7267, 7266, 7590, 7591, 7600, 7599
  205219, 7258, 7259, 7268, 7267, 7591, 7592, 7601, 7600
  205220, 7259, 7260, 7269, 7268, 7592, 7593, 7602, 7601
  205221, 7260, 7261, 7270, 7269, 7593, 7594, 7603, 7602
  205222, 7261, 7262, 7271, 7270, 7594, 7595, 7604, 7603
  205223, 7262, 7263, 7272, 7271, 7595, 7596, 7605, 7604
  205224, 7264, 7265, 7274, 7273, 7597, 7598, 7607, 7606
  205225, 7265, 7266, 7275, 7274, 7598, 7599, 7608, 7607
  205226, 7266, 7267, 7276, 7275, 7599, 7600, 7609, 7608
  205227, 7267, 7268, 7277, 7276, 7600, 7601, 7610, 7609
  205228, 7268, 7269, 7278, 7277, 7601, 7602, 7611, 7610
  205229, 7269, 7270, 7279, 7278, 7602, 7603, 7612, 7611
  205230, 7270, 7271, 7280, 7279, 7603, 7604, 7613, 7612
  205231, 7271, 7272, 7281, 7280, 7604, 7605, 7614, 7613
  205232, 7273, 7274, 7283, 7282, 7606, 7607, 7616, 7615
  205233, 7274, 7275, 7284, 7283, 7607, 7608, 7617, 7616
  205234, 7275, 7276, 7285, 7284, 7608, 7609, 7618, 7617
  205235, 7276, 7277, 7286, 7285, 7609, 7610, 7619, 7618
  205236, 7277, 7278, 7287, 7286, 7610, 7611, 7620, 7619
  205237, 7278, 7279, 7288, 7287, 7611, 7612, 7621, 7620
  205238, 7279, 7280, 7289, 7288, 7612, 7613, 7622, 7621
  205239, 7280, 7281, 7290, 7289, 7613, 7614, 7623, 7622
  205240, 7282, 7283, 7292, 7291, 7615, 7616, 7625, 7624
  205241, 7283, 7284, 7293, 7292, 7616, 7617, 7626, 7625
  205242, 7284, 7285, 7294, 7293, 7617, 7618, 7627, 7626
  205243, 7285, 7286, 7295, 7294, 7618, 7619, 7628, 7627
  205244, 7286, 7287, 7296, 7295, 7619, 7620, 7629, 7628
  205245, 7287, 7288, 7297, 7296, 7620, 7621, 7630, 7629
  205246, 7288, 7289, 7298, 7297, 7621, 7622, 7631, 7630
  205247, 7289, 7290, 7299, 7298, 7622, 7623, 7632, 7631
  205248, 7291, 7292, 7301, 7300, 7624, 7625, 7634, 7633
  205249, 7292, 7293, 7302, 7301, 7625, 7626, 7635, 7634
  205250, 7293, 7294, 7303, 7302, 7626, 7627, 7636, 7635
  205251, 7294, 7295, 7304, 7303, 7627, 7628, 7637, 7636
  205252, 7295, 7296, 7305, 7304, 7628, 7629, 7638, 7637
  205253, 7296, 7297, 7306, 7305, 7629, 7630, 7639, 7638
  205254, 7297, 7298, 7307, 7306, 7630, 7631, 7640, 7639
  205255, 7298, 7299, 7308, 7307, 7631, 7632, 7641, 7640
  205256, 7300, 7301, 7310, 7309, 7633, 7634, 7643, 7642
  205257, 7301, 7302, 7311, 7310, 7634, 7635, 7644, 7643
  205258, 7302, 7303, 7312, 7311, 7635, 7636, 7645, 7644
  205259, 7303, 7304, 7313, 7312, 7636, 7637, 7646, 7645
  205260, 7304, 7305, 7314, 7313, 7637, 7638, 7647, 7646
  205261, 7305, 7306, 7315, 7314, 7638, 7639, 7648, 7647
  205262, 7306, 7307, 7316, 7315, 7639, 7640, 7649, 7648
  205263, 7307, 7308, 7317, 7316, 7640, 7641, 7650, 7649
  205264, 7309, 7310, 7319, 7318, 7642, 7643, 7652, 7651
  205265, 7310, 7311, 7320, 7319, 7643, 7644, 7653, 7652
  205266, 7311, 7312, 7321, 7320, 7644, 7645, 7654, 7653
  205267, 7312, 7313, 7322, 7321, 7645, 7646, 7655, 7654
  205268, 7313, 7314, 7323, 7322, 7646, 7647, 7656, 7655
  205269, 7314, 7315, 7324, 7323, 7647, 7648, 7657, 7656
  205270, 7315, 7316, 7325, 7324, 7648, 7649, 7658, 7657
  205271, 7316, 7317, 7326, 7325, 7649, 7650, 7659, 7658
  205272, 7318, 7319, 7328, 7327, 7651, 7652, 7661, 7660
  205273, 7319, 7320, 7329, 7328, 7652, 7653, 7662, 7661
  205274, 7320, 7321, 7330, 7329, 7653, 7654, 7663, 7662
  205275, 7321, 7322, 7331, 7330, 7654, 7655, 7664, 7663
  205276, 7322, 7323, 7332, 7331, 7655, 7656, 7665, 7664
  205277, 7323, 7324, 7333, 7332, 7656, 7657, 7666, 7665
  205278, 7324, 7325, 7334, 7333, 7657, 7658, 7667, 7666
  205279, 7325, 7326, 7335, 7334, 7658, 7659, 7668, 7667
  205280, 7327, 7328, 7337, 7336, 7660, 7661, 7670, 7669
  205281, 7328, 7329, 7338, 7337, 7661, 7662, 7671, 7670
  205282, 7329, 7330, 7339, 7338, 7662, 7663, 7672, 7671
  205283, 7330, 7331, 7340, 7339, 7663, 7664, 7673, 7672
  205284, 7331, 7332, 7341, 7340, 7664, 7665, 7674, 7673
  205285, 7332, 7333, 7342, 7341, 7665, 7666, 7675, 7674
  205286, 7333, 7334, 7343, 7342, 7666, 7667, 7676, 7675
  205287, 7334, 7335, 7344, 7343, 7667, 7668, 7677, 7676
  205288, 7336, 7337, 7346, 7345, 7669, 7670, 7679, 7678
  205289, 7337, 7338, 7347, 7346, 7670, 7671, 7680, 7679
  205290, 7338, 7339, 7348, 7347, 7671, 7672, 7681, 7680
  205291, 7339, 7340, 7349, 7348, 7672, 7673, 7682, 7681
  205292, 7340, 7341, 7350, 7349, 7673, 7674, 7683, 7682
  205293, 7341, 7342, 7351, 7350, 7674, 7675, 7684, 7683
  205294, 7342, 7343, 7352, 7351, 7675, 7676, 7685, 7684
  205295, 7343, 7344, 7353, 7352, 7676, 7677, 7686, 7685
  205296, 7345, 7346, 7355, 7354, 7678, 7679, 7688, 7687
  205297, 7346, 7347, 7356, 7355, 7679, 7680, 7689, 7688
  205298, 7347, 7348, 7357, 7356, 7680, 7681, 7690, 7689
  205299, 7348, 7349, 7358, 7357, 7681, 7682, 7691, 7690
  205300, 7349, 7350, 7359, 7358, 7682, 7683, 7692, 7691
  205301, 7350, 7351, 7360, 7359, 7683, 7684, 7693, 7692
  205302, 7351, 7352, 7361, 7360, 7684, 7685, 7694, 7693
  205303, 7352, 7353, 7362, 7361, 7685, 7686, 7695, 7694
  205304, 7354, 7355, 7364, 7363, 7687, 7688, 7697, 7696
  205305, 7355, 7356, 7365, 7364, 7688, 7689, 7698, 7697
  205306, 7356, 7357, 7366, 7365, 7689, 7690, 7699, 7698
  205307, 7357, 7358, 7367, 7366, 7690, 7691, 7700, 7699
  205308, 7358, 7359, 7368, 7367, 7691, 7692, 7701, 7700
  205309, 7359, 7360, 7369, 7368, 7692, 7693, 7702, 7701
  205310, 7360, 7361, 7370, 7369, 7693, 7694, 7703, 7702
  205311, 7361, 7362, 7371, 7370, 7694, 7695, 7704, 7703
  205312, 7363, 7364, 7373, 7372, 7696, 7697, 7706, 7705
  205313, 7364, 7365, 7374, 7373, 7697, 7698, 7707, 7706
  205314, 7365, 7366, 7375, 7374, 7698, 7699, 7708, 7707
  205315, 7366, 7367, 7376, 7375, 7699, 7700, 7709, 7708
  205316, 7367, 7368, 7377, 7376, 7700, 7701, 7710, 7709
  205317, 7368, 7369, 7378, 7377, 7701, 7702, 7711, 7710
  205318, 7369, 7370, 7379, 7378, 7702, 7703, 7712, 7711
  205319, 7370, 7371, 7380, 7379, 7703, 7704, 7713, 7712
  205320, 7372, 7373, 7382, 7381, 7705, 7706, 7715, 7714
  205321, 7373, 7374, 7383, 7382, 7706, 7707, 7716, 7715
  205322, 7374, 7375, 7384, 7383, 7707, 7708, 7717, 7716
  205323, 7375, 7376, 7385, 7384, 7708, 7709, 7718, 7717
  205324, 7376, 7377, 7386, 7385, 7709, 7710, 7719, 7718
  205325, 7377, 7378, 7387, 7386, 7710, 7711, 7720, 7719
  205326, 7378, 7379, 7388, 7387, 7711, 7712, 7721, 7720
  205327, 7379, 7380, 7389, 7388, 7712, 7713, 7722, 7721
  205328, 7381, 7382, 7391, 7390, 7714, 7715, 7724, 7723
  205329, 7382, 7383, 7392, 7391, 7715, 7716, 7725, 7724
  205330, 7383, 7384, 7393, 7392, 7716, 7717, 7726, 7725
  205331, 7384, 7385, 7394, 7393, 7717, 7718, 7727, 7726
  205332, 7385, 7386, 7395, 7394, 7718, 7719, 7728, 7727
  205333, 7386, 7387, 7396, 7395, 7719, 7720, 7729, 7728
  205334, 7387, 7388, 7397, 7396, 7720, 7721, 7730, 7729
  205335, 7388, 7389, 7398, 7397, 7721, 7722, 7731, 7730
  205336, 7390, 7391, 7400, 7399, 7723, 7724, 7733, 7732
  205337, 7391, 7392, 7401, 7400, 7724, 7725, 7734, 7733
  205338, 7392, 7393, 7402, 7401, 7725, 7726, 7735, 7734
  205339, 7393, 7394, 7403, 7402, 7726, 7727, 7736, 7735
  205340, 7394, 7395, 7404, 7403, 7727, 7728, 7737, 7736
  205341, 7395, 7396, 7405, 7404, 7728, 7729, 7738, 7737
  205342, 7396, 7397, 7406, 7405, 7729, 7730, 7739, 7738
  205343, 7397, 7398, 7407, 7406, 7730, 7731, 7740, 7739
  205344, 7399, 7400, 7409, 7408, 7732, 7733, 7742, 7741
  205345, 7400, 7401, 7410, 7409, 7733, 7734, 7743, 7742
  205346, 7401, 7402, 7411, 7410, 7734, 7735, 7744, 7743
  205347, 7402, 7403, 7412, 7411, 7735, 7736, 7745, 7744
  205348, 7403, 7404, 7413, 7412, 7736, 7737, 7746, 7745
  205349, 7404, 7405, 7414, 7413, 7737, 7738, 7747, 7746
  205350, 7405, 7406, 7415, 7414, 7738, 7739, 7748, 7747
  205351, 7406, 7407, 7416, 7415, 7739, 7740, 7749, 7748
  205352, 7408, 7409, 7418, 7417, 7741, 7742, 7751, 7750
  205353, 7409, 7410, 7419, 7418, 7742, 7743, 7752, 7751
  205354, 7410, 7411, 7420, 7419, 7743, 7744, 7753, 7752
  205355, 7411, 7412, 7421, 7420, 7744, 7745, 7754, 7753
  205356, 7412, 7413, 7422, 7421, 7745, 7746, 7755, 7754
  205357, 7413, 7414, 7423, 7422, 7746, 7747, 7756, 7755
  205358, 7414, 7415, 7424, 7423, 7747, 7748, 7757, 7756
  205359, 7415, 7416, 7425, 7424, 7748, 7749, 7758, 7757
  205360, 7417, 7418, 7427, 7426, 7750, 7751, 7760, 7759
  205361, 7418, 7419, 7428, 7427, 7751, 7752, 7761, 7760
  205362, 7419, 7420, 7429, 7428, 7752, 7753, 7762, 7761
  205363, 7420, 7421, 7430, 7429, 7753, 7754, 7763, 7762
  205364, 7421, 7422, 7431, 7430, 7754, 7755, 7764, 7763
  205365, 7422, 7423, 7432, 7431, 7755, 7756, 7765, 7764
  205366, 7423, 7424, 7433, 7432, 7756, 7757, 7766, 7765
  205367, 7424, 7425, 7434, 7433, 7757, 7758, 7767, 7766
  205368, 7426, 7427, 7436, 7435, 7759, 7760, 7769, 7768
  205369, 7427, 7428, 7437, 7436, 7760, 7761, 7770, 7769
  205370, 7428, 7429, 7438, 7437, 7761, 7762, 7771, 7770
  205371, 7429, 7430, 7439, 7438, 7762, 7763, 7772, 7771
  205372, 7430, 7431, 7440, 7439, 7763, 7764, 7773, 7772
  205373, 7431, 7432, 7441, 7440, 7764, 7765, 7774, 7773
  205374, 7432, 7433, 7442, 7441, 7765, 7766, 7775, 7774
  205375, 7433, 7434, 7443, 7442, 7766, 7767, 7776, 7775
  205376, 7435, 7436, 7445, 7444, 7768, 7769, 7778, 7777
  205377, 7436, 7437, 7446, 7445, 7769, 7770, 7779, 7778
  205378, 7437, 7438, 7447, 7446, 7770, 7771, 7780, 7779
  205379, 7438, 7439, 7448, 7447, 7771, 7772, 7781, 7780
  205380, 7439, 7440, 7449, 7448, 7772, 7773, 7782, 7781
  205381, 7440, 7441, 7450, 7449, 7773, 7774, 7783, 7782
  205382, 7441, 7442, 7451, 7450, 7774, 7775, 7784, 7783
  205383, 7442, 7443, 7452, 7451, 7775, 7776, 7785, 7784
  205384, 7444, 7445, 7454, 7453, 7777, 7778, 7787, 7786
  205385, 7445, 7446, 7455, 7454, 7778, 7779, 7788, 7787
  205386, 7446, 7447, 7456, 7455, 7779, 7780, 7789, 7788
  205387, 7447, 7448, 7457, 7456, 7780, 7781, 7790, 7789
  205388, 7448, 7449, 7458, 7457, 7781, 7782, 7791, 7790
  205389, 7449, 7450, 7459, 7458, 7782, 7783, 7792, 7791
  205390, 7450, 7451, 7460, 7459, 7783, 7784, 7793, 7792
  205391, 7451, 7452, 7461, 7460, 7784, 7785, 7794, 7793
  205392, 7453, 7454, 7463, 7462, 7786, 7787, 7796, 7795
  205393, 7454, 7455, 7464, 7463, 7787, 7788, 7797, 7796
  205394, 7455, 7456, 7465, 7464, 7788, 7789, 7798, 7797
  205395, 7456, 7457, 7466, 7465, 7789, 7790, 7799, 7798
  205396, 7457, 7458, 7467, 7466, 7790, 7791, 7800, 7799
  205397, 7458, 7459, 7468, 7467, 7791, 7792, 7801, 7800
  205398, 7459, 7460, 7469, 7468, 7792, 7793, 7802, 7801
  205399, 7460, 7461, 7470, 7469, 7793, 7794, 7803, 7802
  205400, 7462, 7463, 7472, 7471, 7795, 7796, 7805, 7804
  205401, 7463, 7464, 7473, 7472, 7796, 7797, 7806, 7805
  205402, 7464, 7465, 7474, 7473, 7797, 7798, 7807, 7806
  205403, 7465, 7466, 7475, 7474, 7798, 7799, 7808, 7807
  205404, 7466, 7467, 7476, 7475, 7799, 7800, 7809, 7808
  205405, 7467, 7468, 7477, 7476, 7800, 7801, 7810, 7809
  205406, 7468, 7469, 7478, 7477, 7801, 7802, 7811, 7810
  205407, 7469, 7470, 7479, 7478, 7802, 7803, 7812, 7811
  205408, 7471, 7472, 7481, 7480, 7804, 7805, 7814, 7813
  205409, 7472, 7473, 7482, 7481, 7805, 7806, 7815, 7814
  205410, 7473, 7474, 7483, 7482, 7806, 7807, 7816, 7815
  205411, 7474, 7475, 7484, 7483, 7807, 7808, 7817, 7816
  205412, 7475, 7476, 7485, 7484, 7808, 7809, 7818, 7817
  205413, 7476, 7477, 7486, 7485, 7809, 7810, 7819, 7818
  205414, 7477, 7478, 7487, 7486, 7810, 7811, 7820, 7819
  205415, 7478, 7479, 7488, 7487, 7811, 7812, 7821, 7820
  205416, 7480, 7481, 7490, 7489, 7813, 7814, 7823, 7822
  205417, 7481, 7482, 7491, 7490, 7814, 7815, 7824, 7823
  205418, 7482, 7483, 7492, 7491, 7815, 7816, 7825, 7824
  205419, 7483, 7484, 7493, 7492, 7816, 7817, 7826, 7825
  205420, 7484, 7485, 7494, 7493, 7817, 7818, 7827, 7826
  205421, 7485, 7486, 7495, 7494, 7818, 7819, 7828, 7827
  205422, 7486, 7487, 7496, 7495, 7819, 7820, 7829, 7828
  205423, 7487, 7488, 7497, 7496, 7820, 7821, 7830, 7829
  205424, 7489, 7490, 7499, 7498, 7822, 7823, 7832, 7831
  205425, 7490, 7491, 7500, 7499, 7823, 7824, 7833, 7832
  205426, 7491, 7492, 7501, 7500, 7824, 7825, 7834, 7833
  205427, 7492, 7493, 7502, 7501, 7825, 7826, 7835, 7834
  205428, 7493, 7494, 7503, 7502, 7826, 7827, 7836, 7835
  205429, 7494, 7495, 7504, 7503, 7827, 7828, 7837, 7836
  205430, 7495, 7496, 7505, 7504, 7828, 7829, 7838, 7837
  205431, 7496, 7497, 7506, 7505, 7829, 7830, 7839, 7838
  205432, 7498, 7499, 7508, 7507, 7831, 7832, 7841, 7840
  205433, 7499, 7500, 7509, 7508, 7832, 7833, 7842, 7841
  205434, 7500, 7501, 7510, 7509, 7833, 7834, 7843, 7842
  205435, 7501, 7502, 7511, 7510, 7834, 7835, 7844, 7843
  205436, 7502, 7503, 7512, 7511, 7835, 7836, 7845, 7844
  205437, 7503, 7504, 7513, 7512, 7836, 7837, 7846, 7845
  205438, 7504, 7505, 7514, 7513, 7837, 7838, 7847, 7846
  205439, 7505, 7506, 7515, 7514, 7838, 7839, 7848, 7847
  205440, 7507, 7508, 7517, 7516, 7840, 7841, 7850, 7849
  205441, 7508, 7509, 7518, 7517, 7841, 7842, 7851, 7850
  205442, 7509, 7510, 7519, 7518, 7842, 7843, 7852, 7851
  205443, 7510, 7511, 7520, 7519, 7843, 7844, 7853, 7852
  205444, 7511, 7512, 7521, 7520, 7844, 7845, 7854, 7853
  205445, 7512, 7513, 7522, 7521, 7845, 7846, 7855, 7854
  205446, 7513, 7514, 7523, 7522, 7846, 7847, 7856, 7855
  205447, 7514, 7515, 7524, 7523, 7847, 7848, 7857, 7856
  205448, 7516, 7517, 7526, 7525, 7849, 7850, 7859, 7858
  205449, 7517, 7518, 7527, 7526, 7850, 7851, 7860, 7859
  205450, 7518, 7519, 7528, 7527, 7851, 7852, 7861, 7860
  205451, 7519, 7520, 7529, 7528, 7852, 7853, 7862, 7861
  205452, 7520, 7521, 7530, 7529, 7853, 7854, 7863, 7862
  205453, 7521, 7522, 7531, 7530, 7854, 7855, 7864, 7863
  205454, 7522, 7523, 7532, 7531, 7855, 7856, 7865, 7864
  205455, 7523, 7524, 7533, 7532, 7856, 7857, 7866, 7865
  205456, 7525, 7526, 7535, 7534, 7858, 7859, 7868, 7867
  205457, 7526, 7527, 7536, 7535, 7859, 7860, 7869, 7868
  205458, 7527, 7528, 7537, 7536, 7860, 7861, 7870, 7869
  205459, 7528, 7529, 7538, 7537, 7861, 7862, 7871, 7870
  205460, 7529, 7530, 7539, 7538, 7862, 7863, 7872, 7871
  205461, 7530, 7531, 7540, 7539, 7863, 7864, 7873, 7872
  205462, 7531, 7532, 7541, 7540, 7864, 7865, 7874, 7873
  205463, 7532, 7533, 7542, 7541, 7865, 7866, 7875, 7874
  205464, 7534, 7535, 7544, 7543, 7867, 7868, 7877, 7876
  205465, 7535, 7536, 7545, 7544, 7868, 7869, 7878, 7877
  205466, 7536, 7537, 7546, 7545, 7869, 7870, 7879, 7878
  205467, 7537, 7538, 7547, 7546, 7870, 7871, 7880, 7879
  205468, 7538, 7539, 7548, 7547, 7871, 7872, 7881, 7880
  205469, 7539, 7540, 7549, 7548, 7872, 7873, 7882, 7881
  205470, 7540, 7541, 7550, 7549, 7873, 7874, 7883, 7882
  205471, 7541, 7542, 7551, 7550, 7874, 7875, 7884, 7883
  205472, 7552, 7553, 7562, 7561, 7885, 7886, 7895, 7894
  205473, 7553, 7554, 7563, 7562, 7886, 7887, 7896, 7895
  205474, 7554, 7555, 7564, 7563, 7887, 7888, 7897, 7896
  205475, 7555, 7556, 7565, 7564, 7888, 7889, 7898, 7897
  205476, 7556, 7557, 7566, 7565, 7889, 7890, 7899, 7898
  205477, 7557, 7558, 7567, 7566, 7890, 7891, 7900, 7899
  205478, 7558, 7559, 7568, 7567, 7891, 7892, 7901, 7900
  205479, 7559, 7560, 7569, 7568, 7892, 7893, 7902, 7901
  205480, 7561, 7562, 7571, 7570, 7894, 7895, 7904, 7903
  205481, 7562, 7563, 7572, 7571, 7895, 7896, 7905, 7904
  205482, 7563, 7564, 7573, 7572, 7896, 7897, 7906, 7905
  205483, 7564, 7565, 7574, 7573, 7897, 7898, 7907, 7906
  205484, 7565, 7566, 7575, 7574, 7898, 7899, 7908, 7907
  205485, 7566, 7567, 7576, 7575, 7899, 7900, 7909, 7908
  205486, 7567, 7568, 7577, 7576, 7900, 7901, 7910, 7909
  205487, 7568, 7569, 7578, 7577, 7901, 7902, 7911, 7910
  205488, 7570, 7571, 7580, 7579, 7903, 7904, 7913, 7912
  205489, 7571, 7572, 7581, 7580, 7904, 7905, 7914, 7913
  205490, 7572, 7573, 7582, 7581, 7905, 7906, 7915, 7914
  205491, 7573, 7574, 7583, 7582, 7906, 7907, 7916, 7915
  205492, 7574, 7575, 7584, 7583, 7907, 7908, 7917, 7916
  205493, 7575, 7576, 7585, 7584, 7908, 7909, 7918, 7917
  205494, 7576, 7577, 7586, 7585, 7909, 7910, 7919, 7918
  205495, 7577, 7578, 7587, 7586, 7910, 7911, 7920, 7919
  205496, 7579, 7580, 7589, 7588, 7912, 7913, 7922, 7921
  205497, 7580, 7581, 7590, 7589, 7913, 7914, 7923, 7922
  205498, 7581, 7582, 7591, 7590, 7914, 7915, 7924, 7923
  205499, 7582, 7583, 7592, 7591, 7915, 7916, 7925, 7924
  205500, 7583, 7584, 7593, 7592, 7916, 7917, 7926, 7925
  205501, 7584, 7585, 7594, 7593, 7917, 7918, 7927, 7926
  205502, 7585, 7586, 7595, 7594, 7918, 7919, 7928, 7927
  205503, 7586, 7587, 7596, 7595, 7919, 7920, 7929, 7928
  205504, 7588, 7589, 7598, 7597, 7921, 7922, 7931, 7930
  205505, 7589, 7590, 7599, 7598, 7922, 7923, 7932, 7931
  205506, 7590, 7591, 7600, 7599, 7923, 7924, 7933, 7932
  205507, 7591, 7592, 7601, 7600, 7924, 7925, 7934, 7933
  205508, 7592, 7593, 7602, 7601, 7925, 7926, 7935, 7934
  205509, 7593, 7594, 7603, 7602, 7926, 7927, 7936, 7935
  205510, 7594, 7595, 7604, 7603, 7927, 7928, 7937, 7936
  205511, 7595, 7596, 7605, 7604, 7928, 7929, 7938, 7937
  205512, 7597, 7598, 7607, 7606, 7930, 7931, 7940, 7939
  205513, 7598, 7599, 7608, 7607, 7931, 7932, 7941, 7940
  205514, 7599, 7600, 7609, 7608, 7932, 7933, 7942, 7941
  205515, 7600, 7601, 7610, 7609, 7933, 7934, 7943, 7942
  205516, 7601, 7602, 7611, 7610, 7934, 7935, 7944, 7943
  205517, 7602, 7603, 7612, 7611, 7935, 7936, 7945, 7944
  205518, 7603, 7604, 7613, 7612, 7936, 7937, 7946, 7945
  205519, 7604, 7605, 7614, 7613, 7937, 7938, 7947, 7946
  205520, 7606, 7607, 7616, 7615, 7939, 7940, 7949, 7948
  205521, 7607, 7608, 7617, 7616, 7940, 7941, 7950, 7949
  205522, 7608, 7609, 7618, 7617, 7941, 7942, 7951, 7950
  205523, 7609, 7610, 7619, 7618, 7942, 7943, 7952, 7951
  205524, 7610, 7611, 7620, 7619, 7943, 7944, 7953, 7952
  205525, 7611, 7612, 7621, 7620, 7944, 7945, 7954, 7953
  205526, 7612, 7613, 7622, 7621, 7945, 7946, 7955, 7954
  205527, 7613, 7614, 7623, 7622, 7946, 7947, 7956, 7955
  205528, 7615, 7616, 7625, 7624, 7948, 7949, 7958, 7957
  205529, 7616, 7617, 7626, 7625, 7949, 7950, 7959, 7958
  205530, 7617, 7618, 7627, 7626, 7950, 7951, 7960, 7959
  205531, 7618, 7619, 7628, 7627, 7951, 7952, 7961, 7960
  205532, 7619, 7620, 7629, 7628, 7952, 7953, 7962, 7961
  205533, 7620, 7621, 7630, 7629, 7953, 7954, 7963, 7962
  205534, 7621, 7622, 7631, 7630, 7954, 7955, 7964, 7963
  205535, 7622, 7623, 7632, 7631, 7955, 7956, 7965, 7964
  205536, 7624, 7625, 7634, 7633, 7957, 7958, 7967, 7966
  205537, 7625, 7626, 7635, 7634, 7958, 7959, 7968, 7967
  205538, 7626, 7627, 7636, 7635, 7959, 7960, 7969, 7968
  205539, 7627, 7628, 7637, 7636, 7960, 7961, 7970, 7969
  205540, 7628, 7629, 7638, 7637, 7961, 7962, 7971, 7970
  205541, 7629, 7630, 7639, 7638, 7962, 7963, 7972, 7971
  205542, 7630, 7631, 7640, 7639, 7963, 7964, 7973, 7972
  205543, 7631, 7632, 7641, 7640, 7964, 7965, 7974, 7973
  205544, 7633, 7634, 7643, 7642, 7966, 7967, 7976, 7975
  205545, 7634, 7635, 7644, 7643, 7967, 7968, 7977, 7976
  205546, 7635, 7636, 7645, 7644, 7968, 7969, 7978, 7977
  205547, 7636, 7637, 7646, 7645, 7969, 7970, 7979, 7978
  205548, 7637, 7638, 7647, 7646, 7970, 7971, 7980, 7979
  205549, 7638, 7639, 7648, 7647, 7971, 7972, 7981, 7980
  205550, 7639, 7640, 7649, 7648, 7972, 7973, 7982, 7981
  205551, 7640, 7641, 7650, 7649, 7973, 7974, 7983, 7982
  205552, 7642, 7643, 7652, 7651, 7975, 7976, 7985, 7984
  205553, 7643, 7644, 7653, 7652, 7976, 7977, 7986, 7985
  205554, 7644, 7645, 7654, 7653, 7977, 7978, 7987, 7986
  205555, 7645, 7646, 7655, 7654, 7978, 7979, 7988, 7987
  205556, 7646, 7647, 7656, 7655, 7979, 7980, 7989, 7988
  205557, 7647, 7648, 7657, 7656, 7980, 7981, 7990, 7989
  205558, 7648, 7649, 7658, 7657, 7981, 7982, 7991, 7990
  205559, 7649, 7650, 7659, 7658, 7982, 7983, 7992, 7991
  205560, 7651, 7652, 7661, 7660, 7984, 7985, 7994, 7993
  205561, 7652, 7653, 7662, 7661, 7985, 7986, 7995, 7994
  205562, 7653, 7654, 7663, 7662, 7986, 7987, 7996, 7995
  205563, 7654, 7655, 7664, 7663, 7987, 7988, 7997, 7996
  205564, 7655, 7656, 7665, 7664, 7988, 7989, 7998, 7997
  205565, 7656, 7657, 7666, 7665, 7989, 7990, 7999, 7998
  205566, 7657, 7658, 7667, 7666, 7990, 7991, 8000, 7999
  205567, 7658, 7659, 7668, 7667, 7991, 7992, 8001, 8000
  205568, 7660, 7661, 7670, 7669, 7993, 7994, 8003, 8002
  205569, 7661, 7662, 7671, 7670, 7994, 7995, 8004, 8003
  205570, 7662, 7663, 7672, 7671, 7995, 7996, 8005, 8004
  205571, 7663, 7664, 7673, 7672, 7996, 7997, 8006, 8005
  205572, 7664, 7665, 7674, 7673, 7997, 7998, 8007, 8006
  205573, 7665, 7666, 7675, 7674, 7998, 7999, 8008, 8007
  205574, 7666, 7667, 7676, 7675, 7999, 8000, 8009, 8008
  205575, 7667, 7668, 7677, 7676, 8000, 8001, 8010, 8009
  205576, 7669, 7670, 7679, 7678, 8002, 8003, 8012, 8011
  205577, 7670, 7671, 7680, 7679, 8003, 8004, 8013, 8012
  205578, 7671, 7672, 7681, 7680, 8004, 8005, 8014, 8013
  205579, 7672, 7673, 7682, 7681, 8005, 8006, 8015, 8014
  205580, 7673, 7674, 7683, 7682, 8006, 8007, 8016, 8015
  205581, 7674, 7675, 7684, 7683, 8007, 8008, 8017, 8016
  205582, 7675, 7676, 7685, 7684, 8008, 8009, 8018, 8017
  205583, 7676, 7677, 7686, 7685, 8009, 8010, 8019, 8018
  205584, 7678, 7679, 7688, 7687, 8011, 8012, 8021, 8020
  205585, 7679, 7680, 7689, 7688, 8012, 8013, 8022, 8021
  205586, 7680, 7681, 7690, 7689, 8013, 8014, 8023, 8022
  205587, 7681, 7682, 7691, 7690, 8014, 8015, 8024, 8023
  205588, 7682, 7683, 7692, 7691, 8015, 8016, 8025, 8024
  205589, 7683, 7684, 7693, 7692, 8016, 8017, 8026, 8025
  205590, 7684, 7685, 7694, 7693, 8017, 8018, 8027, 8026
  205591, 7685, 7686, 7695, 7694, 8018, 8019, 8028, 8027
  205592, 7687, 7688, 7697, 7696, 8020, 8021, 8030, 8029
  205593, 7688, 7689, 7698, 7697, 8021, 8022, 8031, 8030
  205594, 7689, 7690, 7699, 7698, 8022, 8023, 8032, 8031
  205595, 7690, 7691, 7700, 7699, 8023, 8024, 8033, 8032
  205596, 7691, 7692, 7701, 7700, 8024, 8025, 8034, 8033
  205597, 7692, 7693, 7702, 7701, 8025, 8026, 8035, 8034
  205598, 7693, 7694, 7703, 7702, 8026, 8027, 8036, 8035
  205599, 7694, 7695, 7704, 7703, 8027, 8028, 8037, 8036
  205600, 7696, 7697, 7706, 7705, 8029, 8030, 8039, 8038
  205601, 7697, 7698, 7707, 7706, 8030, 8031, 8040, 8039
  205602, 7698, 7699, 7708, 7707, 8031, 8032, 8041, 8040
  205603, 7699, 7700, 7709, 7708, 8032, 8033, 8042, 8041
  205604, 7700, 7701, 7710, 7709, 8033, 8034, 8043, 8042
  205605, 7701, 7702, 7711, 7710, 8034, 8035, 8044, 8043
  205606, 7702, 7703, 7712, 7711, 8035, 8036, 8045, 8044
  205607, 7703, 7704, 7713, 7712, 8036, 8037, 8046, 8045
  205608, 7705, 7706, 7715, 7714, 8038, 8039, 8048, 8047
  205609, 7706, 7707, 7716, 7715, 8039, 8040, 8049, 8048
  205610, 7707, 7708, 7717, 7716, 8040, 8041, 8050, 8049
  205611, 7708, 7709, 7718, 7717, 8041, 8042, 8051, 8050
  205612, 7709, 7710, 7719, 7718, 8042, 8043, 8052, 8051
  205613, 7710, 7711, 7720, 7719, 8043, 8044, 8053, 8052
  205614, 7711, 7712, 7721, 7720, 8044, 8045, 8054, 8053
  205615, 7712, 7713, 7722, 7721, 8045, 8046, 8055, 8054
  205616, 7714, 7715, 7724, 7723, 8047, 8048, 8057, 8056
  205617, 7715, 7716, 7725, 7724, 8048, 8049, 8058, 8057
  205618, 7716, 7717, 7726, 7725, 8049, 8050, 8059, 8058
  205619, 7717, 7718, 7727, 7726, 8050, 8051, 8060, 8059
  205620, 7718, 7719, 7728, 7727, 8051, 8052, 8061, 8060
  205621, 7719, 7720, 7729, 7728, 8052, 8053, 8062, 8061
  205622, 7720, 7721, 7730, 7729, 8053, 8054, 8063, 8062
  205623, 7721, 7722, 7731, 7730, 8054, 8055, 8064, 8063
  205624, 7723, 7724, 7733, 7732, 8056, 8057, 8066, 8065
  205625, 7724, 7725, 7734, 7733, 8057, 8058, 8067, 8066
  205626, 7725, 7726, 7735, 7734, 8058, 8059, 8068, 8067
  205627, 7726, 7727, 7736, 7735, 8059, 8060, 8069, 8068
  205628, 7727, 7728, 7737, 7736, 8060, 8061, 8070, 8069
  205629, 7728, 7729, 7738, 7737, 8061, 8062, 8071, 8070
  205630, 7729, 7730, 7739, 7738, 8062, 8063, 8072, 8071
  205631, 7730, 7731, 7740, 7739, 8063, 8064, 8073, 8072
  205632, 7732, 7733, 7742, 7741, 8065, 8066, 8075, 8074
  205633, 7733, 7734, 7743, 7742, 8066, 8067, 8076, 8075
  205634, 7734, 7735, 7744, 7743, 8067, 8068, 8077, 8076
  205635, 7735, 7736, 7745, 7744, 8068, 8069, 8078, 8077
  205636, 7736, 7737, 7746, 7745, 8069, 8070, 8079, 8078
  205637, 7737, 7738, 7747, 7746, 8070, 8071, 8080, 8079
  205638, 7738, 7739, 7748, 7747, 8071, 8072, 8081, 8080
  205639, 7739, 7740, 7749, 7748, 8072, 8073, 8082, 8081
  205640, 7741, 7742, 7751, 7750, 8074, 8075, 8084, 8083
  205641, 7742, 7743, 7752, 7751, 8075, 8076, 8085, 8084
  205642, 7743, 7744, 7753, 7752, 8076, 8077, 8086, 8085
  205643, 7744, 7745, 7754, 7753, 8077, 8078, 8087, 8086
  205644, 7745, 7746, 7755, 7754, 8078, 8079, 8088, 8087
  205645, 7746, 7747, 7756, 7755, 8079, 8080, 8089, 8088
  205646, 7747, 7748, 7757, 7756, 8080, 8081, 8090, 8089
  205647, 7748, 7749, 7758, 7757, 8081, 8082, 8091, 8090
  205648, 7750, 7751, 7760, 7759, 8083, 8084, 8093, 8092
  205649, 7751, 7752, 7761, 7760, 8084, 8085, 8094, 8093
  205650, 7752, 7753, 7762, 7761, 8085, 8086, 8095, 8094
  205651, 7753, 7754, 7763, 7762, 8086, 8087, 8096, 8095
  205652, 7754, 7755, 7764, 7763, 8087, 8088, 8097, 8096
  205653, 7755, 7756, 7765, 7764, 8088, 8089, 8098, 8097
  205654, 7756, 7757, 7766, 7765, 8089, 8090, 8099, 8098
  205655, 7757, 7758, 7767, 7766, 8090, 8091, 8100, 8099
  205656, 7759, 7760, 7769, 7768, 8092, 8093, 8102, 8101
  205657, 7760, 7761, 7770, 7769, 8093, 8094, 8103, 8102
  205658, 7761, 7762, 7771, 7770, 8094, 8095, 8104, 8103
  205659, 7762, 7763, 7772, 7771, 8095, 8096, 8105, 8104
  205660, 7763, 7764, 7773, 7772, 8096, 8097, 8106, 8105
  205661, 7764, 7765, 7774, 7773, 8097, 8098, 8107, 8106
  205662, 7765, 7766, 7775, 7774, 8098, 8099, 8108, 8107
  205663, 7766, 7767, 7776, 7775, 8099, 8100, 8109, 8108
  205664, 7768, 7769, 7778, 7777, 8101, 8102, 8111, 8110
  205665, 7769, 7770, 7779, 7778, 8102, 8103, 8112, 8111
  205666, 7770, 7771, 7780, 7779, 8103, 8104, 8113, 8112
  205667, 7771, 7772, 7781, 7780, 8104, 8105, 8114, 8113
  205668, 7772, 7773, 7782, 7781, 8105, 8106, 8115, 8114
  205669, 7773, 7774, 7783, 7782, 8106, 8107, 8116, 8115
  205670, 7774, 7775, 7784, 7783, 8107, 8108, 8117, 8116
  205671, 7775, 7776, 7785, 7784, 8108, 8109, 8118, 8117
  205672, 7777, 7778, 7787, 7786, 8110, 8111, 8120, 8119
  205673, 7778, 7779, 7788, 7787, 8111, 8112, 8121, 8120
  205674, 7779, 7780, 7789, 7788, 8112, 8113, 8122, 8121
  205675, 7780, 7781, 7790, 7789, 8113, 8114, 8123, 8122
  205676, 7781, 7782, 7791, 7790, 8114, 8115, 8124, 8123
  205677, 7782, 7783, 7792, 7791, 8115, 8116, 8125, 8124
  205678, 7783, 7784, 7793, 7792, 8116, 8117, 8126, 8125
  205679, 7784, 7785, 7794, 7793, 8117, 8118, 8127, 8126
  205680, 7786, 7787, 7796, 7795, 8119, 8120, 8129, 8128
  205681, 7787, 7788, 7797, 7796, 8120, 8121, 8130, 8129
  205682, 7788, 7789, 7798, 7797, 8121, 8122, 8131, 8130
  205683, 7789, 7790, 7799, 7798, 8122, 8123, 8132, 8131
  205684, 7790, 7791, 7800, 7799, 8123, 8124, 8133, 8132
  205685, 7791, 7792, 7801, 7800, 8124, 8125, 8134, 8133
  205686, 7792, 7793, 7802, 7801, 8125, 8126, 8135, 8134
  205687, 7793, 7794, 7803, 7802, 8126, 8127, 8136, 8135
  205688, 7795, 7796, 7805, 7804, 8128, 8129, 8138, 8137
  205689, 7796, 7797, 7806, 7805, 8129, 8130, 8139, 8138
  205690, 7797, 7798, 7807, 7806, 8130, 8131, 8140, 8139
  205691, 7798, 7799, 7808, 7807, 8131, 8132, 8141, 8140
  205692, 7799, 7800, 7809, 7808, 8132, 8133, 8142, 8141
  205693, 7800, 7801, 7810, 7809, 8133, 8134, 8143, 8142
  205694, 7801, 7802, 7811, 7810, 8134, 8135, 8144, 8143
  205695, 7802, 7803, 7812, 7811, 8135, 8136, 8145, 8144
  205696, 7804, 7805, 7814, 7813, 8137, 8138, 8147, 8146
  205697, 7805, 7806, 7815, 7814, 8138, 8139, 8148, 8147
  205698, 7806, 7807, 7816, 7815, 8139, 8140, 8149, 8148
  205699, 7807, 7808, 7817, 7816, 8140, 8141, 8150, 8149
  205700, 7808, 7809, 7818, 7817, 8141, 8142, 8151, 8150
  205701, 7809, 7810, 7819, 7818, 8142, 8143, 8152, 8151
  205702, 7810, 7811, 7820, 7819, 8143, 8144, 8153, 8152
  205703, 7811, 7812, 7821, 7820, 8144, 8145, 8154, 8153
  205704, 7813, 7814, 7823, 7822, 8146, 8147, 8156, 8155
  205705, 7814, 7815, 7824, 7823, 8147, 8148, 8157, 8156
  205706, 7815, 7816, 7825, 7824, 8148, 8149, 8158, 8157
  205707, 7816, 7817, 7826, 7825, 8149, 8150, 8159, 8158
  205708, 7817, 7818, 7827, 7826, 8150, 8151, 8160, 8159
  205709, 7818, 7819, 7828, 7827, 8151, 8152, 8161, 8160
  205710, 7819, 7820, 7829, 7828, 8152, 8153, 8162, 8161
  205711, 7820, 7821, 7830, 7829, 8153, 8154, 8163, 8162
  205712, 7822, 7823, 7832, 7831, 8155, 8156, 8165, 8164
  205713, 7823, 7824, 7833, 7832, 8156, 8157, 8166, 8165
  205714, 7824, 7825, 7834, 7833, 8157, 8158, 8167, 8166
  205715, 7825, 7826, 7835, 7834, 8158, 8159, 8168, 8167
  205716, 7826, 7827, 7836, 7835, 8159, 8160, 8169, 8168
  205717, 7827, 7828, 7837, 7836, 8160, 8161, 8170, 8169
  205718, 7828, 7829, 7838, 7837, 8161, 8162, 8171, 8170
  205719, 7829, 7830, 7839, 7838, 8162, 8163, 8172, 8171
  205720, 7831, 7832, 7841, 7840, 8164, 8165, 8174, 8173
  205721, 7832, 7833, 7842, 7841, 8165, 8166, 8175, 8174
  205722, 7833, 7834, 7843, 7842, 8166, 8167, 8176, 8175
  205723, 7834, 7835, 7844, 7843, 8167, 8168, 8177, 8176
  205724, 7835, 7836, 7845, 7844, 8168, 8169, 8178, 8177
  205725, 7836, 7837, 7846, 7845, 8169, 8170, 8179, 8178
  205726, 7837, 7838, 7847, 7846, 8170, 8171, 8180, 8179
  205727, 7838, 7839, 7848, 7847, 8171, 8172, 8181, 8180
  205728, 7840, 7841, 7850, 7849, 8173, 8174, 8183, 8182
  205729, 7841, 7842, 7851, 7850, 8174, 8175, 8184, 8183
  205730, 7842, 7843, 7852, 7851, 8175, 8176, 8185, 8184
  205731, 7843, 7844, 7853, 7852, 8176, 8177, 8186, 8185
  205732, 7844, 7845, 7854, 7853, 8177, 8178, 8187, 8186
  205733, 7845, 7846, 7855, 7854, 8178, 8179, 8188, 8187
  205734, 7846, 7847, 7856, 7855, 8179, 8180, 8189, 8188
  205735, 7847, 7848, 7857, 7856, 8180, 8181, 8190, 8189
  205736, 7849, 7850, 7859, 7858, 8182, 8183, 8192, 8191
  205737, 7850, 7851, 7860, 7859, 8183, 8184, 8193, 8192
  205738, 7851, 7852, 7861, 7860, 8184, 8185, 8194, 8193
  205739, 7852, 7853, 7862, 7861, 8185, 8186, 8195, 8194
  205740, 7853, 7854, 7863, 7862, 8186, 8187, 8196, 8195
  205741, 7854, 7855, 7864, 7863, 8187, 8188, 8197, 8196
  205742, 7855, 7856, 7865, 7864, 8188, 8189, 8198, 8197
  205743, 7856, 7857, 7866, 7865, 8189, 8190, 8199, 8198
  205744, 7858, 7859, 7868, 7867, 8191, 8192, 8201, 8200
  205745, 7859, 7860, 7869, 7868, 8192, 8193, 8202, 8201
  205746, 7860, 7861, 7870, 7869, 8193, 8194, 8203, 8202
  205747, 7861, 7862, 7871, 7870, 8194, 8195, 8204, 8203
  205748, 7862, 7863, 7872, 7871, 8195, 8196, 8205, 8204
  205749, 7863, 7864, 7873, 7872, 8196, 8197, 8206, 8205
  205750, 7864, 7865, 7874, 7873, 8197, 8198, 8207, 8206
  205751, 7865, 7866, 7875, 7874, 8198, 8199, 8208, 8207
  205752, 7867, 7868, 7877, 7876, 8200, 8201, 8210, 8209
  205753, 7868, 7869, 7878, 7877, 8201, 8202, 8211, 8210
  205754, 7869, 7870, 7879, 7878, 8202, 8203, 8212, 8211
  205755, 7870, 7871, 7880, 7879, 8203, 8204, 8213, 8212
  205756, 7871, 7872, 7881, 7880, 8204, 8205, 8214, 8213
  205757, 7872, 7873, 7882, 7881, 8205, 8206, 8215, 8214
  205758, 7873, 7874, 7883, 7882, 8206, 8207, 8216, 8215
  205759, 7874, 7875, 7884, 7883, 8207, 8208, 8217, 8216
  205760, 7885, 7886, 7895, 7894, 8218, 8219, 8228, 8227
  205761, 7886, 7887, 7896, 7895, 8219, 8220, 8229, 8228
  205762, 7887, 7888, 7897, 7896, 8220, 8221, 8230, 8229
  205763, 7888, 7889, 7898, 7897, 8221, 8222, 8231, 8230
  205764, 7889, 7890, 7899, 7898, 8222, 8223, 8232, 8231
  205765, 7890, 7891, 7900, 7899, 8223, 8224, 8233, 8232
  205766, 7891, 7892, 7901, 7900, 8224, 8225, 8234, 8233
  205767, 7892, 7893, 7902, 7901, 8225, 8226, 8235, 8234
  205768, 7894, 7895, 7904, 7903, 8227, 8228, 8237, 8236
  205769, 7895, 7896, 7905, 7904, 8228, 8229, 8238, 8237
  205770, 7896, 7897, 7906, 7905, 8229, 8230, 8239, 8238
  205771, 7897, 7898, 7907, 7906, 8230, 8231, 8240, 8239
  205772, 7898, 7899, 7908, 7907, 8231, 8232, 8241, 8240
  205773, 7899, 7900, 7909, 7908, 8232, 8233, 8242, 8241
  205774, 7900, 7901, 7910, 7909, 8233, 8234, 8243, 8242
  205775, 7901, 7902, 7911, 7910, 8234, 8235, 8244, 8243
  205776, 7903, 7904, 7913, 7912, 8236, 8237, 8246, 8245
  205777, 7904, 7905, 7914, 7913, 8237, 8238, 8247, 8246
  205778, 7905, 7906, 7915, 7914, 8238, 8239, 8248, 8247
  205779, 7906, 7907, 7916, 7915, 8239, 8240, 8249, 8248
  205780, 7907, 7908, 7917, 7916, 8240, 8241, 8250, 8249
  205781, 7908, 7909, 7918, 7917, 8241, 8242, 8251, 8250
  205782, 7909, 7910, 7919, 7918, 8242, 8243, 8252, 8251
  205783, 7910, 7911, 7920, 7919, 8243, 8244, 8253, 8252
  205784, 7912, 7913, 7922, 7921, 8245, 8246, 8255, 8254
  205785, 7913, 7914, 7923, 7922, 8246, 8247, 8256, 8255
  205786, 7914, 7915, 7924, 7923, 8247, 8248, 8257, 8256
  205787, 7915, 7916, 7925, 7924, 8248, 8249, 8258, 8257
  205788, 7916, 7917, 7926, 7925, 8249, 8250, 8259, 8258
  205789, 7917, 7918, 7927, 7926, 8250, 8251, 8260, 8259
  205790, 7918, 7919, 7928, 7927, 8251, 8252, 8261, 8260
  205791, 7919, 7920, 7929, 7928, 8252, 8253, 8262, 8261
  205792, 7921, 7922, 7931, 7930, 8254, 8255, 8264, 8263
  205793, 7922, 7923, 7932, 7931, 8255, 8256, 8265, 8264
  205794, 7923, 7924, 7933, 7932, 8256, 8257, 8266, 8265
  205795, 7924, 7925, 7934, 7933, 8257, 8258, 8267, 8266
  205796, 7925, 7926, 7935, 7934, 8258, 8259, 8268, 8267
  205797, 7926, 7927, 7936, 7935, 8259, 8260, 8269, 8268
  205798, 7927, 7928, 7937, 7936, 8260, 8261, 8270, 8269
  205799, 7928, 7929, 7938, 7937, 8261, 8262, 8271, 8270
  205800, 7930, 7931, 7940, 7939, 8263, 8264, 8273, 8272
  205801, 7931, 7932, 7941, 7940, 8264, 8265, 8274, 8273
  205802, 7932, 7933, 7942, 7941, 8265, 8266, 8275, 8274
  205803, 7933, 7934, 7943, 7942, 8266, 8267, 8276, 8275
  205804, 7934, 7935, 7944, 7943, 8267, 8268, 8277, 8276
  205805, 7935, 7936, 7945, 7944, 8268, 8269, 8278, 8277
  205806, 7936, 7937, 7946, 7945, 8269, 8270, 8279, 8278
  205807, 7937, 7938, 7947, 7946, 8270, 8271, 8280, 8279
  205808, 7939, 7940, 7949, 7948, 8272, 8273, 8282, 8281
  205809, 7940, 7941, 7950, 7949, 8273, 8274, 8283, 8282
  205810, 7941, 7942, 7951, 7950, 8274, 8275, 8284, 8283
  205811, 7942, 7943, 7952, 7951, 8275, 8276, 8285, 8284
  205812, 7943, 7944, 7953, 7952, 8276, 8277, 8286, 8285
  205813, 7944, 7945, 7954, 7953, 8277, 8278, 8287, 8286
  205814, 7945, 7946, 7955, 7954, 8278, 8279, 8288, 8287
  205815, 7946, 7947, 7956, 7955, 8279, 8280, 8289, 8288
  205816, 7948, 7949, 7958, 7957, 8281, 8282, 8291, 8290
  205817, 7949, 7950, 7959, 7958, 8282, 8283, 8292, 8291
  205818, 7950, 7951, 7960, 7959, 8283, 8284, 8293, 8292
  205819, 7951, 7952, 7961, 7960, 8284, 8285, 8294, 8293
  205820, 7952, 7953, 7962, 7961, 8285, 8286, 8295, 8294
  205821, 7953, 7954, 7963, 7962, 8286, 8287, 8296, 8295
  205822, 7954, 7955, 7964, 7963, 8287, 8288, 8297, 8296
  205823, 7955, 7956, 7965, 7964, 8288, 8289, 8298, 8297
  205824, 7957, 7958, 7967, 7966, 8290, 8291, 8300, 8299
  205825, 7958, 7959, 7968, 7967, 8291, 8292, 8301, 8300
  205826, 7959, 7960, 7969, 7968, 8292, 8293, 8302, 8301
  205827, 7960, 7961, 7970, 7969, 8293, 8294, 8303, 8302
  205828, 7961, 7962, 7971, 7970, 8294, 8295, 8304, 8303
  205829, 7962, 7963, 7972, 7971, 8295, 8296, 8305, 8304
  205830, 7963, 7964, 7973, 7972, 8296, 8297, 8306, 8305
  205831, 7964, 7965, 7974, 7973, 8297, 8298, 8307, 8306
  205832, 7966, 7967, 7976, 7975, 8299, 8300, 8309, 8308
  205833, 7967, 7968, 7977, 7976, 8300, 8301, 8310, 8309
  205834, 7968, 7969, 7978, 7977, 8301, 8302, 8311, 8310
  205835, 7969, 7970, 7979, 7978, 8302, 8303, 8312, 8311
  205836, 7970, 7971, 7980, 7979, 8303, 8304, 8313, 8312
  205837, 7971, 7972, 7981, 7980, 8304, 8305, 8314, 8313
  205838, 7972, 7973, 7982, 7981, 8305, 8306, 8315, 8314
  205839, 7973, 7974, 7983, 7982, 8306, 8307, 8316, 8315
  205840, 7975, 7976, 7985, 7984, 8308, 8309, 8318, 8317
  205841, 7976, 7977, 7986, 7985, 8309, 8310, 8319, 8318
  205842, 7977, 7978, 7987, 7986, 8310, 8311, 8320, 8319
  205843, 7978, 7979, 7988, 7987, 8311, 8312, 8321, 8320
  205844, 7979, 7980, 7989, 7988, 8312, 8313, 8322, 8321
  205845, 7980, 7981, 7990, 7989, 8313, 8314, 8323, 8322
  205846, 7981, 7982, 7991, 7990, 8314, 8315, 8324, 8323
  205847, 7982, 7983, 7992, 7991, 8315, 8316, 8325, 8324
  205848, 7984, 7985, 7994, 7993, 8317, 8318, 8327, 8326
  205849, 7985, 7986, 7995, 7994, 8318, 8319, 8328, 8327
  205850, 7986, 7987, 7996, 7995, 8319, 8320, 8329, 8328
  205851, 7987, 7988, 7997, 7996, 8320, 8321, 8330, 8329
  205852, 7988, 7989, 7998, 7997, 8321, 8322, 8331, 8330
  205853, 7989, 7990, 7999, 7998, 8322, 8323, 8332, 8331
  205854, 7990, 7991, 8000, 7999, 8323, 8324, 8333, 8332
  205855, 7991, 7992, 8001, 8000, 8324, 8325, 8334, 8333
  205856, 7993, 7994, 8003, 8002, 8326, 8327, 8336, 8335
  205857, 7994, 7995, 8004, 8003, 8327, 8328, 8337, 8336
  205858, 7995, 7996, 8005, 8004, 8328, 8329, 8338, 8337
  205859, 7996, 7997, 8006, 8005, 8329, 8330, 8339, 8338
  205860, 7997, 7998, 8007, 8006, 8330, 8331, 8340, 8339
  205861, 7998, 7999, 8008, 8007, 8331, 8332, 8341, 8340
  205862, 7999, 8000, 8009, 8008, 8332, 8333, 8342, 8341
  205863, 8000, 8001, 8010, 8009, 8333, 8334, 8343, 8342
  205864, 8002, 8003, 8012, 8011, 8335, 8336, 8345, 8344
  205865, 8003, 8004, 8013, 8012, 8336, 8337, 8346, 8345
  205866, 8004, 8005, 8014, 8013, 8337, 8338, 8347, 8346
  205867, 8005, 8006, 8015, 8014, 8338, 8339, 8348, 8347
  205868, 8006, 8007, 8016, 8015, 8339, 8340, 8349, 8348
  205869, 8007, 8008, 8017, 8016, 8340, 8341, 8350, 8349
  205870, 8008, 8009, 8018, 8017, 8341, 8342, 8351, 8350
  205871, 8009, 8010, 8019, 8018, 8342, 8343, 8352, 8351
  205872, 8011, 8012, 8021, 8020, 8344, 8345, 8354, 8353
  205873, 8012, 8013, 8022, 8021, 8345, 8346, 8355, 8354
  205874, 8013, 8014, 8023, 8022, 8346, 8347, 8356, 8355
  205875, 8014, 8015, 8024, 8023, 8347, 8348, 8357, 8356
  205876, 8015, 8016, 8025, 8024, 8348, 8349, 8358, 8357
  205877, 8016, 8017, 8026, 8025, 8349, 8350, 8359, 8358
  205878, 8017, 8018, 8027, 8026, 8350, 8351, 8360, 8359
  205879, 8018, 8019, 8028, 8027, 8351, 8352, 8361, 8360
  205880, 8020, 8021, 8030, 8029, 8353, 8354, 8363, 8362
  205881, 8021, 8022, 8031, 8030, 8354, 8355, 8364, 8363
  205882, 8022, 8023, 8032, 8031, 8355, 8356, 8365, 8364
  205883, 8023, 8024, 8033, 8032, 8356, 8357, 8366, 8365
  205884, 8024, 8025, 8034, 8033, 8357, 8358, 8367, 8366
  205885, 8025, 8026, 8035, 8034, 8358, 8359, 8368, 8367
  205886, 8026, 8027, 8036, 8035, 8359, 8360, 8369, 8368
  205887, 8027, 8028, 8037, 8036, 8360, 8361, 8370, 8369
  205888, 8029, 8030, 8039, 8038, 8362, 8363, 8372, 8371
  205889, 8030, 8031, 8040, 8039, 8363, 8364, 8373, 8372
  205890, 8031, 8032, 8041, 8040, 8364, 8365, 8374, 8373
  205891, 8032, 8033, 8042, 8041, 8365, 8366, 8375, 8374
  205892, 8033, 8034, 8043, 8042, 8366, 8367, 8376, 8375
  205893, 8034, 8035, 8044, 8043, 8367, 8368, 8377, 8376
  205894, 8035, 8036, 8045, 8044, 8368, 8369, 8378, 8377
  205895, 8036, 8037, 8046, 8045, 8369, 8370, 8379, 8378
  205896, 8038, 8039, 8048, 8047, 8371, 8372, 8381, 8380
  205897, 8039, 8040, 8049, 8048, 8372, 8373, 8382, 8381
  205898, 8040, 8041, 8050, 8049, 8373, 8374, 8383, 8382
  205899, 8041, 8042, 8051, 8050, 8374, 8375, 8384, 8383
  205900, 8042, 8043, 8052, 8051, 8375, 8376, 8385, 8384
  205901, 8043, 8044, 8053, 8052, 8376, 8377, 8386, 8385
  205902, 8044, 8045, 8054, 8053, 8377, 8378, 8387, 8386
  205903, 8045, 8046, 8055, 8054, 8378, 8379, 8388, 8387
  205904, 8047, 8048, 8057, 8056, 8380, 8381, 8390, 8389
  205905, 8048, 8049, 8058, 8057, 8381, 8382, 8391, 8390
  205906, 8049, 8050, 8059, 8058, 8382, 8383, 8392, 8391
  205907, 8050, 8051, 8060, 8059, 8383, 8384, 8393, 8392
  205908, 8051, 8052, 8061, 8060, 8384, 8385, 8394, 8393
  205909, 8052, 8053, 8062, 8061, 8385, 8386, 8395, 8394
  205910, 8053, 8054, 8063, 8062, 8386, 8387, 8396, 8395
  205911, 8054, 8055, 8064, 8063, 8387, 8388, 8397, 8396
  205912, 8056, 8057, 8066, 8065, 8389, 8390, 8399, 8398
  205913, 8057, 8058, 8067, 8066, 8390, 8391, 8400, 8399
  205914, 8058, 8059, 8068, 8067, 8391, 8392, 8401, 8400
  205915, 8059, 8060, 8069, 8068, 8392, 8393, 8402, 8401
  205916, 8060, 8061, 8070, 8069, 8393, 8394, 8403, 8402
  205917, 8061, 8062, 8071, 8070, 8394, 8395, 8404, 8403
  205918, 8062, 8063, 8072, 8071, 8395, 8396, 8405, 8404
  205919, 8063, 8064, 8073, 8072, 8396, 8397, 8406, 8405
  205920, 8065, 8066, 8075, 8074, 8398, 8399, 8408, 8407
  205921, 8066, 8067, 8076, 8075, 8399, 8400, 8409, 8408
  205922, 8067, 8068, 8077, 8076, 8400, 8401, 8410, 8409
  205923, 8068, 8069, 8078, 8077, 8401, 8402, 8411, 8410
  205924, 8069, 8070, 8079, 8078, 8402, 8403, 8412, 8411
  205925, 8070, 8071, 8080, 8079, 8403, 8404, 8413, 8412
  205926, 8071, 8072, 8081, 8080, 8404, 8405, 8414, 8413
  205927, 8072, 8073, 8082, 8081, 8405, 8406, 8415, 8414
  205928, 8074, 8075, 8084, 8083, 8407, 8408, 8417, 8416
  205929, 8075, 8076, 8085, 8084, 8408, 8409, 8418, 8417
  205930, 8076, 8077, 8086, 8085, 8409, 8410, 8419, 8418
  205931, 8077, 8078, 8087, 8086, 8410, 8411, 8420, 8419
  205932, 8078, 8079, 8088, 8087, 8411, 8412, 8421, 8420
  205933, 8079, 8080, 8089, 8088, 8412, 8413, 8422, 8421
  205934, 8080, 8081, 8090, 8089, 8413, 8414, 8423, 8422
  205935, 8081, 8082, 8091, 8090, 8414, 8415, 8424, 8423
  205936, 8083, 8084, 8093, 8092, 8416, 8417, 8426, 8425
  205937, 8084, 8085, 8094, 8093, 8417, 8418, 8427, 8426
  205938, 8085, 8086, 8095, 8094, 8418, 8419, 8428, 8427
  205939, 8086, 8087, 8096, 8095, 8419, 8420, 8429, 8428
  205940, 8087, 8088, 8097, 8096, 8420, 8421, 8430, 8429
  205941, 8088, 8089, 8098, 8097, 8421, 8422, 8431, 8430
  205942, 8089, 8090, 8099, 8098, 8422, 8423, 8432, 8431
  205943, 8090, 8091, 8100, 8099, 8423, 8424, 8433, 8432
  205944, 8092, 8093, 8102, 8101, 8425, 8426, 8435, 8434
  205945, 8093, 8094, 8103, 8102, 8426, 8427, 8436, 8435
  205946, 8094, 8095, 8104, 8103, 8427, 8428, 8437, 8436
  205947, 8095, 8096, 8105, 8104, 8428, 8429, 8438, 8437
  205948, 8096, 8097, 8106, 8105, 8429, 8430, 8439, 8438
  205949, 8097, 8098, 8107, 8106, 8430, 8431, 8440, 8439
  205950, 8098, 8099, 8108, 8107, 8431, 8432, 8441, 8440
  205951, 8099, 8100, 8109, 8108, 8432, 8433, 8442, 8441
  205952, 8101, 8102, 8111, 8110, 8434, 8435, 8444, 8443
  205953, 8102, 8103, 8112, 8111, 8435, 8436, 8445, 8444
  205954, 8103, 8104, 8113, 8112, 8436, 8437, 8446, 8445
  205955, 8104, 8105, 8114, 8113, 8437, 8438, 8447, 8446
  205956, 8105, 8106, 8115, 8114, 8438, 8439, 8448, 8447
  205957, 8106, 8107, 8116, 8115, 8439, 8440, 8449, 8448
  205958, 8107, 8108, 8117, 8116, 8440, 8441, 8450, 8449
  205959, 8108, 8109, 8118, 8117, 8441, 8442, 8451, 8450
  205960, 8110, 8111, 8120, 8119, 8443, 8444, 8453, 8452
  205961, 8111, 8112, 8121, 8120, 8444, 8445, 8454, 8453
  205962, 8112, 8113, 8122, 8121, 8445, 8446, 8455, 8454
  205963, 8113, 8114, 8123, 8122, 8446, 8447, 8456, 8455
  205964, 8114, 8115, 8124, 8123, 8447, 8448, 8457, 8456
  205965, 8115, 8116, 8125, 8124, 8448, 8449, 8458, 8457
  205966, 8116, 8117, 8126, 8125, 8449, 8450, 8459, 8458
  205967, 8117, 8118, 8127, 8126, 8450, 8451, 8460, 8459
  205968, 8119, 8120, 8129, 8128, 8452, 8453, 8462, 8461
  205969, 8120, 8121, 8130, 8129, 8453, 8454, 8463, 8462
  205970, 8121, 8122, 8131, 8130, 8454, 8455, 8464, 8463
  205971, 8122, 8123, 8132, 8131, 8455, 8456, 8465, 8464
  205972, 8123, 8124, 8133, 8132, 8456, 8457, 8466, 8465
  205973, 8124, 8125, 8134, 8133, 8457, 8458, 8467, 8466
  205974, 8125, 8126, 8135, 8134, 8458, 8459, 8468, 8467
  205975, 8126, 8127, 8136, 8135, 8459, 8460, 8469, 8468
  205976, 8128, 8129, 8138, 8137, 8461, 8462, 8471, 8470
  205977, 8129, 8130, 8139, 8138, 8462, 8463, 8472, 8471
  205978, 8130, 8131, 8140, 8139, 8463, 8464, 8473, 8472
  205979, 8131, 8132, 8141, 8140, 8464, 8465, 8474, 8473
  205980, 8132, 8133, 8142, 8141, 8465, 8466, 8475, 8474
  205981, 8133, 8134, 8143, 8142, 8466, 8467, 8476, 8475
  205982, 8134, 8135, 8144, 8143, 8467, 8468, 8477, 8476
  205983, 8135, 8136, 8145, 8144, 8468, 8469, 8478, 8477
  205984, 8137, 8138, 8147, 8146, 8470, 8471, 8480, 8479
  205985, 8138, 8139, 8148, 8147, 8471, 8472, 8481, 8480
  205986, 8139, 8140, 8149, 8148, 8472, 8473, 8482, 8481
  205987, 8140, 8141, 8150, 8149, 8473, 8474, 8483, 8482
  205988, 8141, 8142, 8151, 8150, 8474, 8475, 8484, 8483
  205989, 8142, 8143, 8152, 8151, 8475, 8476, 8485, 8484
  205990, 8143, 8144, 8153, 8152, 8476, 8477, 8486, 8485
  205991, 8144, 8145, 8154, 8153, 8477, 8478, 8487, 8486
  205992, 8146, 8147, 8156, 8155, 8479, 8480, 8489, 8488
  205993, 8147, 8148, 8157, 8156, 8480, 8481, 8490, 8489
  205994, 8148, 8149, 8158, 8157, 8481, 8482, 8491, 8490
  205995, 8149, 8150, 8159, 8158, 8482, 8483, 8492, 8491
  205996, 8150, 8151, 8160, 8159, 8483, 8484, 8493, 8492
  205997, 8151, 8152, 8161, 8160, 8484, 8485, 8494, 8493
  205998, 8152, 8153, 8162, 8161, 8485, 8486, 8495, 8494
  205999, 8153, 8154, 8163, 8162, 8486, 8487, 8496, 8495
  206000, 8155, 8156, 8165, 8164, 8488, 8489, 8498, 8497
  206001, 8156, 8157, 8166, 8165, 8489, 8490, 8499, 8498
  206002, 8157, 8158, 8167, 8166, 8490, 8491, 8500, 8499
  206003, 8158, 8159, 8168, 8167, 8491, 8492, 8501, 8500
  206004, 8159, 8160, 8169, 8168, 8492, 8493, 8502, 8501
  206005, 8160, 8161, 8170, 8169, 8493, 8494, 8503, 8502
  206006, 8161, 8162, 8171, 8170, 8494, 8495, 8504, 8503
  206007, 8162, 8163, 8172, 8171, 8495, 8496, 8505, 8504
  206008, 8164, 8165, 8174, 8173, 8497, 8498, 8507, 8506
  206009, 8165, 8166, 8175, 8174, 8498, 8499, 8508, 8507
  206010, 8166, 8167, 8176, 8175, 8499, 8500, 8509, 8508
  206011, 8167, 8168, 8177, 8176, 8500, 8501, 8510, 8509
  206012, 8168, 8169, 8178, 8177, 8501, 8502, 8511, 8510
  206013, 8169, 8170, 8179, 8178, 8502, 8503, 8512, 8511
  206014, 8170, 8171, 8180, 8179, 8503, 8504, 8513, 8512
  206015, 8171, 8172, 8181, 8180, 8504, 8505, 8514, 8513
  206016, 8173, 8174, 8183, 8182, 8506, 8507, 8516, 8515
  206017, 8174, 8175, 8184, 8183, 8507, 8508, 8517, 8516
  206018, 8175, 8176, 8185, 8184, 8508, 8509, 8518, 8517
  206019, 8176, 8177, 8186, 8185, 8509, 8510, 8519, 8518
  206020, 8177, 8178, 8187, 8186, 8510, 8511, 8520, 8519
  206021, 8178, 8179, 8188, 8187, 8511, 8512, 8521, 8520
  206022, 8179, 8180, 8189, 8188, 8512, 8513, 8522, 8521
  206023, 8180, 8181, 8190, 8189, 8513, 8514, 8523, 8522
  206024, 8182, 8183, 8192, 8191, 8515, 8516, 8525, 8524
  206025, 8183, 8184, 8193, 8192, 8516, 8517, 8526, 8525
  206026, 8184, 8185, 8194, 8193, 8517, 8518, 8527, 8526
  206027, 8185, 8186, 8195, 8194, 8518, 8519, 8528, 8527
  206028, 8186, 8187, 8196, 8195, 8519, 8520, 8529, 8528
  206029, 8187, 8188, 8197, 8196, 8520, 8521, 8530, 8529
  206030, 8188, 8189, 8198, 8197, 8521, 8522, 8531, 8530
  206031, 8189, 8190, 8199, 8198, 8522, 8523, 8532, 8531
  206032, 8191, 8192, 8201, 8200, 8524, 8525, 8534, 8533
  206033, 8192, 8193, 8202, 8201, 8525, 8526, 8535, 8534
  206034, 8193, 8194, 8203, 8202, 8526, 8527, 8536, 8535
  206035, 8194, 8195, 8204, 8203, 8527, 8528, 8537, 8536
  206036, 8195, 8196, 8205, 8204, 8528, 8529, 8538, 8537
  206037, 8196, 8197, 8206, 8205, 8529, 8530, 8539, 8538
  206038, 8197, 8198, 8207, 8206, 8530, 8531, 8540, 8539
  206039, 8198, 8199, 8208, 8207, 8531, 8532, 8541, 8540
  206040, 8200, 8201, 8210, 8209, 8533, 8534, 8543, 8542
  206041, 8201, 8202, 8211, 8210, 8534, 8535, 8544, 8543
  206042, 8202, 8203, 8212, 8211, 8535, 8536, 8545, 8544
  206043, 8203, 8204, 8213, 8212, 8536, 8537, 8546, 8545
  206044, 8204, 8205, 8214, 8213, 8537, 8538, 8547, 8546
  206045, 8205, 8206, 8215, 8214, 8538, 8539, 8548, 8547
  206046, 8206, 8207, 8216, 8215, 8539, 8540, 8549, 8548
  206047, 8207, 8208, 8217, 8216, 8540, 8541, 8550, 8549
  206048, 8218, 8219, 8228, 8227, 8551, 8552, 8561, 8560
  206049, 8219, 8220, 8229, 8228, 8552, 8553, 8562, 8561
  206050, 8220, 8221, 8230, 8229, 8553, 8554, 8563, 8562
  206051, 8221, 8222, 8231, 8230, 8554, 8555, 8564, 8563
  206052, 8222, 8223, 8232, 8231, 8555, 8556, 8565, 8564
  206053, 8223, 8224, 8233, 8232, 8556, 8557, 8566, 8565
  206054, 8224, 8225, 8234, 8233, 8557, 8558, 8567, 8566
  206055, 8225, 8226, 8235, 8234, 8558, 8559, 8568, 8567
  206056, 8227, 8228, 8237, 8236, 8560, 8561, 8570, 8569
  206057, 8228, 8229, 8238, 8237, 8561, 8562, 8571, 8570
  206058, 8229, 8230, 8239, 8238, 8562, 8563, 8572, 8571
  206059, 8230, 8231, 8240, 8239, 8563, 8564, 8573, 8572
  206060, 8231, 8232, 8241, 8240, 8564, 8565, 8574, 8573
  206061, 8232, 8233, 8242, 8241, 8565, 8566, 8575, 8574
  206062, 8233, 8234, 8243, 8242, 8566, 8567, 8576, 8575
  206063, 8234, 8235, 8244, 8243, 8567, 8568, 8577, 8576
  206064, 8236, 8237, 8246, 8245, 8569, 8570, 8579, 8578
  206065, 8237, 8238, 8247, 8246, 8570, 8571, 8580, 8579
  206066, 8238, 8239, 8248, 8247, 8571, 8572, 8581, 8580
  206067, 8239, 8240, 8249, 8248, 8572, 8573, 8582, 8581
  206068, 8240, 8241, 8250, 8249, 8573, 8574, 8583, 8582
  206069, 8241, 8242, 8251, 8250, 8574, 8575, 8584, 8583
  206070, 8242, 8243, 8252, 8251, 8575, 8576, 8585, 8584
  206071, 8243, 8244, 8253, 8252, 8576, 8577, 8586, 8585
  206072, 8245, 8246, 8255, 8254, 8578, 8579, 8588, 8587
  206073, 8246, 8247, 8256, 8255, 8579, 8580, 8589, 8588
  206074, 8247, 8248, 8257, 8256, 8580, 8581, 8590, 8589
  206075, 8248, 8249, 8258, 8257, 8581, 8582, 8591, 8590
  206076, 8249, 8250, 8259, 8258, 8582, 8583, 8592, 8591
  206077, 8250, 8251, 8260, 8259, 8583, 8584, 8593, 8592
  206078, 8251, 8252, 8261, 8260, 8584, 8585, 8594, 8593
  206079, 8252, 8253, 8262, 8261, 8585, 8586, 8595, 8594
  206080, 8254, 8255, 8264, 8263, 8587, 8588, 8597, 8596
  206081, 8255, 8256, 8265, 8264, 8588, 8589, 8598, 8597
  206082, 8256, 8257, 8266, 8265, 8589, 8590, 8599, 8598
  206083, 8257, 8258, 8267, 8266, 8590, 8591, 8600, 8599
  206084, 8258, 8259, 8268, 8267, 8591, 8592, 8601, 8600
  206085, 8259, 8260, 8269, 8268, 8592, 8593, 8602, 8601
  206086, 8260, 8261, 8270, 8269, 8593, 8594, 8603, 8602
  206087, 8261, 8262, 8271, 8270, 8594, 8595, 8604, 8603
  206088, 8263, 8264, 8273, 8272, 8596, 8597, 8606, 8605
  206089, 8264, 8265, 8274, 8273, 8597, 8598, 8607, 8606
  206090, 8265, 8266, 8275, 8274, 8598, 8599, 8608, 8607
  206091, 8266, 8267, 8276, 8275, 8599, 8600, 8609, 8608
  206092, 8267, 8268, 8277, 8276, 8600, 8601, 8610, 8609
  206093, 8268, 8269, 8278, 8277, 8601, 8602, 8611, 8610
  206094, 8269, 8270, 8279, 8278, 8602, 8603, 8612, 8611
  206095, 8270, 8271, 8280, 8279, 8603, 8604, 8613, 8612
  206096, 8272, 8273, 8282, 8281, 8605, 8606, 8615, 8614
  206097, 8273, 8274, 8283, 8282, 8606, 8607, 8616, 8615
  206098, 8274, 8275, 8284, 8283, 8607, 8608, 8617, 8616
  206099, 8275, 8276, 8285, 8284, 8608, 8609, 8618, 8617
  206100, 8276, 8277, 8286, 8285, 8609, 8610, 8619, 8618
  206101, 8277, 8278, 8287, 8286, 8610, 8611, 8620, 8619
  206102, 8278, 8279, 8288, 8287, 8611, 8612, 8621, 8620
  206103, 8279, 8280, 8289, 8288, 8612, 8613, 8622, 8621
  206104, 8281, 8282, 8291, 8290, 8614, 8615, 8624, 8623
  206105, 8282, 8283, 8292, 8291, 8615, 8616, 8625, 8624
  206106, 8283, 8284, 8293, 8292, 8616, 8617, 8626, 8625
  206107, 8284, 8285, 8294, 8293, 8617, 8618, 8627, 8626
  206108, 8285, 8286, 8295, 8294, 8618, 8619, 8628, 8627
  206109, 8286, 8287, 8296, 8295, 8619, 8620, 8629, 8628
  206110, 8287, 8288, 8297, 8296, 8620, 8621, 8630, 8629
  206111, 8288, 8289, 8298, 8297, 8621, 8622, 8631, 8630
  206112, 8290, 8291, 8300, 8299, 8623, 8624, 8633, 8632
  206113, 8291, 8292, 8301, 8300, 8624, 8625, 8634, 8633
  206114, 8292, 8293, 8302, 8301, 8625, 8626, 8635, 8634
  206115, 8293, 8294, 8303, 8302, 8626, 8627, 8636, 8635
  206116, 8294, 8295, 8304, 8303, 8627, 8628, 8637, 8636
  206117, 8295, 8296, 8305, 8304, 8628, 8629, 8638, 8637
  206118, 8296, 8297, 8306, 8305, 8629, 8630, 8639, 8638
  206119, 8297, 8298, 8307, 8306, 8630, 8631, 8640, 8639
  206120, 8299, 8300, 8309, 8308, 8632, 8633, 8642, 8641
  206121, 8300, 8301, 8310, 8309, 8633, 8634, 8643, 8642
  206122, 8301, 8302, 8311, 8310, 8634, 8635, 8644, 8643
  206123, 8302, 8303, 8312, 8311, 8635, 8636, 8645, 8644
  206124, 8303, 8304, 8313, 8312, 8636, 8637, 8646, 8645
  206125, 8304, 8305, 8314, 8313, 8637, 8638, 8647, 8646
  206126, 8305, 8306, 8315, 8314, 8638, 8639, 8648, 8647
  206127, 8306, 8307, 8316, 8315, 8639, 8640, 8649, 8648
  206128, 8308, 8309, 8318, 8317, 8641, 8642, 8651, 8650
  206129, 8309, 8310, 8319, 8318, 8642, 8643, 8652, 8651
  206130, 8310, 8311, 8320, 8319, 8643, 8644, 8653, 8652
  206131, 8311, 8312, 8321, 8320, 8644, 8645, 8654, 8653
  206132, 8312, 8313, 8322, 8321, 8645, 8646, 8655, 8654
  206133, 8313, 8314, 8323, 8322, 8646, 8647, 8656, 8655
  206134, 8314, 8315, 8324, 8323, 8647, 8648, 8657, 8656
  206135, 8315, 8316, 8325, 8324, 8648, 8649, 8658, 8657
  206136, 8317, 8318, 8327, 8326, 8650, 8651, 8660, 8659
  206137, 8318, 8319, 8328, 8327, 8651, 8652, 8661, 8660
  206138, 8319, 8320, 8329, 8328, 8652, 8653, 8662, 8661
  206139, 8320, 8321, 8330, 8329, 8653, 8654, 8663, 8662
  206140, 8321, 8322, 8331, 8330, 8654, 8655, 8664, 8663
  206141, 8322, 8323, 8332, 8331, 8655, 8656, 8665, 8664
  206142, 8323, 8324, 8333, 8332, 8656, 8657, 8666, 8665
  206143, 8324, 8325, 8334, 8333, 8657, 8658, 8667, 8666
  206144, 8326, 8327, 8336, 8335, 8659, 8660, 8669, 8668
  206145, 8327, 8328, 8337, 8336, 8660, 8661, 8670, 8669
  206146, 8328, 8329, 8338, 8337, 8661, 8662, 8671, 8670
  206147, 8329, 8330, 8339, 8338, 8662, 8663, 8672, 8671
  206148, 8330, 8331, 8340, 8339, 8663, 8664, 8673, 8672
  206149, 8331, 8332, 8341, 8340, 8664, 8665, 8674, 8673
  206150, 8332, 8333, 8342, 8341, 8665, 8666, 8675, 8674
  206151, 8333, 8334, 8343, 8342, 8666, 8667, 8676, 8675
  206152, 8335, 8336, 8345, 8344, 8668, 8669, 8678, 8677
  206153, 8336, 8337, 8346, 8345, 8669, 8670, 8679, 8678
  206154, 8337, 8338, 8347, 8346, 8670, 8671, 8680, 8679
  206155, 8338, 8339, 8348, 8347, 8671, 8672, 8681, 8680
  206156, 8339, 8340, 8349, 8348, 8672, 8673, 8682, 8681
  206157, 8340, 8341, 8350, 8349, 8673, 8674, 8683, 8682
  206158, 8341, 8342, 8351, 8350, 8674, 8675, 8684, 8683
  206159, 8342, 8343, 8352, 8351, 8675, 8676, 8685, 8684
  206160, 8344, 8345, 8354, 8353, 8677, 8678, 8687, 8686
  206161, 8345, 8346, 8355, 8354, 8678, 8679, 8688, 8687
  206162, 8346, 8347, 8356, 8355, 8679, 8680, 8689, 8688
  206163, 8347, 8348, 8357, 8356, 8680, 8681, 8690, 8689
  206164, 8348, 8349, 8358, 8357, 8681, 8682, 8691, 8690
  206165, 8349, 8350, 8359, 8358, 8682, 8683, 8692, 8691
  206166, 8350, 8351, 8360, 8359, 8683, 8684, 8693, 8692
  206167, 8351, 8352, 8361, 8360, 8684, 8685, 8694, 8693
  206168, 8353, 8354, 8363, 8362, 8686, 8687, 8696, 8695
  206169, 8354, 8355, 8364, 8363, 8687, 8688, 8697, 8696
  206170, 8355, 8356, 8365, 8364, 8688, 8689, 8698, 8697
  206171, 8356, 8357, 8366, 8365, 8689, 8690, 8699, 8698
  206172, 8357, 8358, 8367, 8366, 8690, 8691, 8700, 8699
  206173, 8358, 8359, 8368, 8367, 8691, 8692, 8701, 8700
  206174, 8359, 8360, 8369, 8368, 8692, 8693, 8702, 8701
  206175, 8360, 8361, 8370, 8369, 8693, 8694, 8703, 8702
  206176, 8362, 8363, 8372, 8371, 8695, 8696, 8705, 8704
  206177, 8363, 8364, 8373, 8372, 8696, 8697, 8706, 8705
  206178, 8364, 8365, 8374, 8373, 8697, 8698, 8707, 8706
  206179, 8365, 8366, 8375, 8374, 8698, 8699, 8708, 8707
  206180, 8366, 8367, 8376, 8375, 8699, 8700, 8709, 8708
  206181, 8367, 8368, 8377, 8376, 8700, 8701, 8710, 8709
  206182, 8368, 8369, 8378, 8377, 8701, 8702, 8711, 8710
  206183, 8369, 8370, 8379, 8378, 8702, 8703, 8712, 8711
  206184, 8371, 8372, 8381, 8380, 8704, 8705, 8714, 8713
  206185, 8372, 8373, 8382, 8381, 8705, 8706, 8715, 8714
  206186, 8373, 8374, 8383, 8382, 8706, 8707, 8716, 8715
  206187, 8374, 8375, 8384, 8383, 8707, 8708, 8717, 8716
  206188, 8375, 8376, 8385, 8384, 8708, 8709, 8718, 8717
  206189, 8376, 8377, 8386, 8385, 8709, 8710, 8719, 8718
  206190, 8377, 8378, 8387, 8386, 8710, 8711, 8720, 8719
  206191, 8378, 8379, 8388, 8387, 8711, 8712, 8721, 8720
  206192, 8380, 8381, 8390, 8389, 8713, 8714, 8723, 8722
  206193, 8381, 8382, 8391, 8390, 8714, 8715, 8724, 8723
  206194, 8382, 8383, 8392, 8391, 8715, 8716, 8725, 8724
  206195, 8383, 8384, 8393, 8392, 8716, 8717, 8726, 8725
  206196, 8384, 8385, 8394, 8393, 8717, 8718, 8727, 8726
  206197, 8385, 8386, 8395, 8394, 8718, 8719, 8728, 8727
  206198, 8386, 8387, 8396, 8395, 8719, 8720, 8729, 8728
  206199, 8387, 8388, 8397, 8396, 8720, 8721, 8730, 8729
  206200, 8389, 8390, 8399, 8398, 8722, 8723, 8732, 8731
  206201, 8390, 8391, 8400, 8399, 8723, 8724, 8733, 8732
  206202, 8391, 8392, 8401, 8400, 8724, 8725, 8734, 8733
  206203, 8392, 8393, 8402, 8401, 8725, 8726, 8735, 8734
  206204, 8393, 8394, 8403, 8402, 8726, 8727, 8736, 8735
  206205, 8394, 8395, 8404, 8403, 8727, 8728, 8737, 8736
  206206, 8395, 8396, 8405, 8404, 8728, 8729, 8738, 8737
  206207, 8396, 8397, 8406, 8405, 8729, 8730, 8739, 8738
  206208, 8398, 8399, 8408, 8407, 8731, 8732, 8741, 8740
  206209, 8399, 8400, 8409, 8408, 8732, 8733, 8742, 8741
  206210, 8400, 8401, 8410, 8409, 8733, 8734, 8743, 8742
  206211, 8401, 8402, 8411, 8410, 8734, 8735, 8744, 8743
  206212, 8402, 8403, 8412, 8411, 8735, 8736, 8745, 8744
  206213, 8403, 8404, 8413, 8412, 8736, 8737, 8746, 8745
  206214, 8404, 8405, 8414, 8413, 8737, 8738, 8747, 8746
  206215, 8405, 8406, 8415, 8414, 8738, 8739, 8748, 8747
  206216, 8407, 8408, 8417, 8416, 8740, 8741, 8750, 8749
  206217, 8408, 8409, 8418, 8417, 8741, 8742, 8751, 8750
  206218, 8409, 8410, 8419, 8418, 8742, 8743, 8752, 8751
  206219, 8410, 8411, 8420, 8419, 8743, 8744, 8753, 8752
  206220, 8411, 8412, 8421, 8420, 8744, 8745, 8754, 8753
  206221, 8412, 8413, 8422, 8421, 8745, 8746, 8755, 8754
  206222, 8413, 8414, 8423, 8422, 8746, 8747, 8756, 8755
  206223, 8414, 8415, 8424, 8423, 8747, 8748, 8757, 8756
  206224, 8416, 8417, 8426, 8425, 8749, 8750, 8759, 8758
  206225, 8417, 8418, 8427, 8426, 8750, 8751, 8760, 8759
  206226, 8418, 8419, 8428, 8427, 8751, 8752, 8761, 8760
  206227, 8419, 8420, 8429, 8428, 8752, 8753, 8762, 8761
  206228, 8420, 8421, 8430, 8429, 8753, 8754, 8763, 8762
  206229, 8421, 8422, 8431, 8430, 8754, 8755, 8764, 8763
  206230, 8422, 8423, 8432, 8431, 8755, 8756, 8765, 8764
  206231, 8423, 8424, 8433, 8432, 8756, 8757, 8766, 8765
  206232, 8425, 8426, 8435, 8434, 8758, 8759, 8768, 8767
  206233, 8426, 8427, 8436, 8435, 8759, 8760, 8769, 8768
  206234, 8427, 8428, 8437, 8436, 8760, 8761, 8770, 8769
  206235, 8428, 8429, 8438, 8437, 8761, 8762, 8771, 8770
  206236, 8429, 8430, 8439, 8438, 8762, 8763, 8772, 8771
  206237, 8430, 8431, 8440, 8439, 8763, 8764, 8773, 8772
  206238, 8431, 8432, 8441, 8440, 8764, 8765, 8774, 8773
  206239, 8432, 8433, 8442, 8441, 8765, 8766, 8775, 8774
  206240, 8434, 8435, 8444, 8443, 8767, 8768, 8777, 8776
  206241, 8435, 8436, 8445, 8444, 8768, 8769, 8778, 8777
  206242, 8436, 8437, 8446, 8445, 8769, 8770, 8779, 8778
  206243, 8437, 8438, 8447, 8446, 8770, 8771, 8780, 8779
  206244, 8438, 8439, 8448, 8447, 8771, 8772, 8781, 8780
  206245, 8439, 8440, 8449, 8448, 8772, 8773, 8782, 8781
  206246, 8440, 8441, 8450, 8449, 8773, 8774, 8783, 8782
  206247, 8441, 8442, 8451, 8450, 8774, 8775, 8784, 8783
  206248, 8443, 8444, 8453, 8452, 8776, 8777, 8786, 8785
  206249, 8444, 8445, 8454, 8453, 8777, 8778, 8787, 8786
  206250, 8445, 8446, 8455, 8454, 8778, 8779, 8788, 8787
  206251, 8446, 8447, 8456, 8455, 8779, 8780, 8789, 8788
  206252, 8447, 8448, 8457, 8456, 8780, 8781, 8790, 8789
  206253, 8448, 8449, 8458, 8457, 8781, 8782, 8791, 8790
  206254, 8449, 8450, 8459, 8458, 8782, 8783, 8792, 8791
  206255, 8450, 8451, 8460, 8459, 8783, 8784, 8793, 8792
  206256, 8452, 8453, 8462, 8461, 8785, 8786, 8795, 8794
  206257, 8453, 8454, 8463, 8462, 8786, 8787, 8796, 8795
  206258, 8454, 8455, 8464, 8463, 8787, 8788, 8797, 8796
  206259, 8455, 8456, 8465, 8464, 8788, 8789, 8798, 8797
  206260, 8456, 8457, 8466, 8465, 8789, 8790, 8799, 8798
  206261, 8457, 8458, 8467, 8466, 8790, 8791, 8800, 8799
  206262, 8458, 8459, 8468, 8467, 8791, 8792, 8801, 8800
  206263, 8459, 8460, 8469, 8468, 8792, 8793, 8802, 8801
  206264, 8461, 8462, 8471, 8470, 8794, 8795, 8804, 8803
  206265, 8462, 8463, 8472, 8471, 8795, 8796, 8805, 8804
  206266, 8463, 8464, 8473, 8472, 8796, 8797, 8806, 8805
  206267, 8464, 8465, 8474, 8473, 8797, 8798, 8807, 8806
  206268, 8465, 8466, 8475, 8474, 8798, 8799, 8808, 8807
  206269, 8466, 8467, 8476, 8475, 8799, 8800, 8809, 8808
  206270, 8467, 8468, 8477, 8476, 8800, 8801, 8810, 8809
  206271, 8468, 8469, 8478, 8477, 8801, 8802, 8811, 8810
  206272, 8470, 8471, 8480, 8479, 8803, 8804, 8813, 8812
  206273, 8471, 8472, 8481, 8480, 8804, 8805, 8814, 8813
  206274, 8472, 8473, 8482, 8481, 8805, 8806, 8815, 8814
  206275, 8473, 8474, 8483, 8482, 8806, 8807, 8816, 8815
  206276, 8474, 8475, 8484, 8483, 8807, 8808, 8817, 8816
  206277, 8475, 8476, 8485, 8484, 8808, 8809, 8818, 8817
  206278, 8476, 8477, 8486, 8485, 8809, 8810, 8819, 8818
  206279, 8477, 8478, 8487, 8486, 8810, 8811, 8820, 8819
  206280, 8479, 8480, 8489, 8488, 8812, 8813, 8822, 8821
  206281, 8480, 8481, 8490, 8489, 8813, 8814, 8823, 8822
  206282, 8481, 8482, 8491, 8490, 8814, 8815, 8824, 8823
  206283, 8482, 8483, 8492, 8491, 8815, 8816, 8825, 8824
  206284, 8483, 8484, 8493, 8492, 8816, 8817, 8826, 8825
  206285, 8484, 8485, 8494, 8493, 8817, 8818, 8827, 8826
  206286, 8485, 8486, 8495, 8494, 8818, 8819, 8828, 8827
  206287, 8486, 8487, 8496, 8495, 8819, 8820, 8829, 8828
  206288, 8488, 8489, 8498, 8497, 8821, 8822, 8831, 8830
  206289, 8489, 8490, 8499, 8498, 8822, 8823, 8832, 8831
  206290, 8490, 8491, 8500, 8499, 8823, 8824, 8833, 8832
  206291, 8491, 8492, 8501, 8500, 8824, 8825, 8834, 8833
  206292, 8492, 8493, 8502, 8501, 8825, 8826, 8835, 8834
  206293, 8493, 8494, 8503, 8502, 8826, 8827, 8836, 8835
  206294, 8494, 8495, 8504, 8503, 8827, 8828, 8837, 8836
  206295, 8495, 8496, 8505, 8504, 8828, 8829, 8838, 8837
  206296, 8497, 8498, 8507, 8506, 8830, 8831, 8840, 8839
  206297, 8498, 8499, 8508, 8507, 8831, 8832, 8841, 8840
  206298, 8499, 8500, 8509, 8508, 8832, 8833, 8842, 8841
  206299, 8500, 8501, 8510, 8509, 8833, 8834, 8843, 8842
  206300, 8501, 8502, 8511, 8510, 8834, 8835, 8844, 8843
  206301, 8502, 8503, 8512, 8511, 8835, 8836, 8845, 8844
  206302, 8503, 8504, 8513, 8512, 8836, 8837, 8846, 8845
  206303, 8504, 8505, 8514, 8513, 8837, 8838, 8847, 8846
  206304, 8506, 8507, 8516, 8515, 8839, 8840, 8849, 8848
  206305, 8507, 8508, 8517, 8516, 8840, 8841, 8850, 8849
  206306, 8508, 8509, 8518, 8517, 8841, 8842, 8851, 8850
  206307, 8509, 8510, 8519, 8518, 8842, 8843, 8852, 8851
  206308, 8510, 8511, 8520, 8519, 8843, 8844, 8853, 8852
  206309, 8511, 8512, 8521, 8520, 8844, 8845, 8854, 8853
  206310, 8512, 8513, 8522, 8521, 8845, 8846, 8855, 8854
  206311, 8513, 8514, 8523, 8522, 8846, 8847, 8856, 8855
  206312, 8515, 8516, 8525, 8524, 8848, 8849, 8858, 8857
  206313, 8516, 8517, 8526, 8525, 8849, 8850, 8859, 8858
  206314, 8517, 8518, 8527, 8526, 8850, 8851, 8860, 8859
  206315, 8518, 8519, 8528, 8527, 8851, 8852, 8861, 8860
  206316, 8519, 8520, 8529, 8528, 8852, 8853, 8862, 8861
  206317, 8520, 8521, 8530, 8529, 8853, 8854, 8863, 8862
  206318, 8521, 8522, 8531, 8530, 8854, 8855, 8864, 8863
  206319, 8522, 8523, 8532, 8531, 8855, 8856, 8865, 8864
  206320, 8524, 8525, 8534, 8533, 8857, 8858, 8867, 8866
  206321, 8525, 8526, 8535, 8534, 8858, 8859, 8868, 8867
  206322, 8526, 8527, 8536, 8535, 8859, 8860, 8869, 8868
  206323, 8527, 8528, 8537, 8536, 8860, 8861, 8870, 8869
  206324, 8528, 8529, 8538, 8537, 8861, 8862, 8871, 8870
  206325, 8529, 8530, 8539, 8538, 8862, 8863, 8872, 8871
  206326, 8530, 8531, 8540, 8539, 8863, 8864, 8873, 8872
  206327, 8531, 8532, 8541, 8540, 8864, 8865, 8874, 8873
  206328, 8533, 8534, 8543, 8542, 8866, 8867, 8876, 8875
  206329, 8534, 8535, 8544, 8543, 8867, 8868, 8877, 8876
  206330, 8535, 8536, 8545, 8544, 8868, 8869, 8878, 8877
  206331, 8536, 8537, 8546, 8545, 8869, 8870, 8879, 8878
  206332, 8537, 8538, 8547, 8546, 8870, 8871, 8880, 8879
  206333, 8538, 8539, 8548, 8547, 8871, 8872, 8881, 8880
  206334, 8539, 8540, 8549, 8548, 8872, 8873, 8882, 8881
  206335, 8540, 8541, 8550, 8549, 8873, 8874, 8883, 8882
  206336, 8551, 8552, 8561, 8560, 8884, 8885, 8894, 8893
  206337, 8552, 8553, 8562, 8561, 8885, 8886, 8895, 8894
  206338, 8553, 8554, 8563, 8562, 8886, 8887, 8896, 8895
  206339, 8554, 8555, 8564, 8563, 8887, 8888, 8897, 8896
  206340, 8555, 8556, 8565, 8564, 8888, 8889, 8898, 8897
  206341, 8556, 8557, 8566, 8565, 8889, 8890, 8899, 8898
  206342, 8557, 8558, 8567, 8566, 8890, 8891, 8900, 8899
  206343, 8558, 8559, 8568, 8567, 8891, 8892, 8901, 8900
  206344, 8560, 8561, 8570, 8569, 8893, 8894, 8903, 8902
  206345, 8561, 8562, 8571, 8570, 8894, 8895, 8904, 8903
  206346, 8562, 8563, 8572, 8571, 8895, 8896, 8905, 8904
  206347, 8563, 8564, 8573, 8572, 8896, 8897, 8906, 8905
  206348, 8564, 8565, 8574, 8573, 8897, 8898, 8907, 8906
  206349, 8565, 8566, 8575, 8574, 8898, 8899, 8908, 8907
  206350, 8566, 8567, 8576, 8575, 8899, 8900, 8909, 8908
  206351, 8567, 8568, 8577, 8576, 8900, 8901, 8910, 8909
  206352, 8569, 8570, 8579, 8578, 8902, 8903, 8912, 8911
  206353, 8570, 8571, 8580, 8579, 8903, 8904, 8913, 8912
  206354, 8571, 8572, 8581, 8580, 8904, 8905, 8914, 8913
  206355, 8572, 8573, 8582, 8581, 8905, 8906, 8915, 8914
  206356, 8573, 8574, 8583, 8582, 8906, 8907, 8916, 8915
  206357, 8574, 8575, 8584, 8583, 8907, 8908, 8917, 8916
  206358, 8575, 8576, 8585, 8584, 8908, 8909, 8918, 8917
  206359, 8576, 8577, 8586, 8585, 8909, 8910, 8919, 8918
  206360, 8578, 8579, 8588, 8587, 8911, 8912, 8921, 8920
  206361, 8579, 8580, 8589, 8588, 8912, 8913, 8922, 8921
  206362, 8580, 8581, 8590, 8589, 8913, 8914, 8923, 8922
  206363, 8581, 8582, 8591, 8590, 8914, 8915, 8924, 8923
  206364, 8582, 8583, 8592, 8591, 8915, 8916, 8925, 8924
  206365, 8583, 8584, 8593, 8592, 8916, 8917, 8926, 8925
  206366, 8584, 8585, 8594, 8593, 8917, 8918, 8927, 8926
  206367, 8585, 8586, 8595, 8594, 8918, 8919, 8928, 8927
  206368, 8587, 8588, 8597, 8596, 8920, 8921, 8930, 8929
  206369, 8588, 8589, 8598, 8597, 8921, 8922, 8931, 8930
  206370, 8589, 8590, 8599, 8598, 8922, 8923, 8932, 8931
  206371, 8590, 8591, 8600, 8599, 8923, 8924, 8933, 8932
  206372, 8591, 8592, 8601, 8600, 8924, 8925, 8934, 8933
  206373, 8592, 8593, 8602, 8601, 8925, 8926, 8935, 8934
  206374, 8593, 8594, 8603, 8602, 8926, 8927, 8936, 8935
  206375, 8594, 8595, 8604, 8603, 8927, 8928, 8937, 8936
  206376, 8596, 8597, 8606, 8605, 8929, 8930, 8939, 8938
  206377, 8597, 8598, 8607, 8606, 8930, 8931, 8940, 8939
  206378, 8598, 8599, 8608, 8607, 8931, 8932, 8941, 8940
  206379, 8599, 8600, 8609, 8608, 8932, 8933, 8942, 8941
  206380, 8600, 8601, 8610, 8609, 8933, 8934, 8943, 8942
  206381, 8601, 8602, 8611, 8610, 8934, 8935, 8944, 8943
  206382, 8602, 8603, 8612, 8611, 8935, 8936, 8945, 8944
  206383, 8603, 8604, 8613, 8612, 8936, 8937, 8946, 8945
  206384, 8605, 8606, 8615, 8614, 8938, 8939, 8948, 8947
  206385, 8606, 8607, 8616, 8615, 8939, 8940, 8949, 8948
  206386, 8607, 8608, 8617, 8616, 8940, 8941, 8950, 8949
  206387, 8608, 8609, 8618, 8617, 8941, 8942, 8951, 8950
  206388, 8609, 8610, 8619, 8618, 8942, 8943, 8952, 8951
  206389, 8610, 8611, 8620, 8619, 8943, 8944, 8953, 8952
  206390, 8611, 8612, 8621, 8620, 8944, 8945, 8954, 8953
  206391, 8612, 8613, 8622, 8621, 8945, 8946, 8955, 8954
  206392, 8614, 8615, 8624, 8623, 8947, 8948, 8957, 8956
  206393, 8615, 8616, 8625, 8624, 8948, 8949, 8958, 8957
  206394, 8616, 8617, 8626, 8625, 8949, 8950, 8959, 8958
  206395, 8617, 8618, 8627, 8626, 8950, 8951, 8960, 8959
  206396, 8618, 8619, 8628, 8627, 8951, 8952, 8961, 8960
  206397, 8619, 8620, 8629, 8628, 8952, 8953, 8962, 8961
  206398, 8620, 8621, 8630, 8629, 8953, 8954, 8963, 8962
  206399, 8621, 8622, 8631, 8630, 8954, 8955, 8964, 8963
  206400, 8623, 8624, 8633, 8632, 8956, 8957, 8966, 8965
  206401, 8624, 8625, 8634, 8633, 8957, 8958, 8967, 8966
  206402, 8625, 8626, 8635, 8634, 8958, 8959, 8968, 8967
  206403, 8626, 8627, 8636, 8635, 8959, 8960, 8969, 8968
  206404, 8627, 8628, 8637, 8636, 8960, 8961, 8970, 8969
  206405, 8628, 8629, 8638, 8637, 8961, 8962, 8971, 8970
  206406, 8629, 8630, 8639, 8638, 8962, 8963, 8972, 8971
  206407, 8630, 8631, 8640, 8639, 8963, 8964, 8973, 8972
  206408, 8632, 8633, 8642, 8641, 8965, 8966, 8975, 8974
  206409, 8633, 8634, 8643, 8642, 8966, 8967, 8976, 8975
  206410, 8634, 8635, 8644, 8643, 8967, 8968, 8977, 8976
  206411, 8635, 8636, 8645, 8644, 8968, 8969, 8978, 8977
  206412, 8636, 8637, 8646, 8645, 8969, 8970, 8979, 8978
  206413, 8637, 8638, 8647, 8646, 8970, 8971, 8980, 8979
  206414, 8638, 8639, 8648, 8647, 8971, 8972, 8981, 8980
  206415, 8639, 8640, 8649, 8648, 8972, 8973, 8982, 8981
  206416, 8641, 8642, 8651, 8650, 8974, 8975, 8984, 8983
  206417, 8642, 8643, 8652, 8651, 8975, 8976, 8985, 8984
  206418, 8643, 8644, 8653, 8652, 8976, 8977, 8986, 8985
  206419, 8644, 8645, 8654, 8653, 8977, 8978, 8987, 8986
  206420, 8645, 8646, 8655, 8654, 8978, 8979, 8988, 8987
  206421, 8646, 8647, 8656, 8655, 8979, 8980, 8989, 8988
  206422, 8647, 8648, 8657, 8656, 8980, 8981, 8990, 8989
  206423, 8648, 8649, 8658, 8657, 8981, 8982, 8991, 8990
  206424, 8650, 8651, 8660, 8659, 8983, 8984, 8993, 8992
  206425, 8651, 8652, 8661, 8660, 8984, 8985, 8994, 8993
  206426, 8652, 8653, 8662, 8661, 8985, 8986, 8995, 8994
  206427, 8653, 8654, 8663, 8662, 8986, 8987, 8996, 8995
  206428, 8654, 8655, 8664, 8663, 8987, 8988, 8997, 8996
  206429, 8655, 8656, 8665, 8664, 8988, 8989, 8998, 8997
  206430, 8656, 8657, 8666, 8665, 8989, 8990, 8999, 8998
  206431, 8657, 8658, 8667, 8666, 8990, 8991, 9000, 8999
  206432, 8659, 8660, 8669, 8668, 8992, 8993, 9002, 9001
  206433, 8660, 8661, 8670, 8669, 8993, 8994, 9003, 9002
  206434, 8661, 8662, 8671, 8670, 8994, 8995, 9004, 9003
  206435, 8662, 8663, 8672, 8671, 8995, 8996, 9005, 9004
  206436, 8663, 8664, 8673, 8672, 8996, 8997, 9006, 9005
  206437, 8664, 8665, 8674, 8673, 8997, 8998, 9007, 9006
  206438, 8665, 8666, 8675, 8674, 8998, 8999, 9008, 9007
  206439, 8666, 8667, 8676, 8675, 8999, 9000, 9009, 9008
  206440, 8668, 8669, 8678, 8677, 9001, 9002, 9011, 9010
  206441, 8669, 8670, 8679, 8678, 9002, 9003, 9012, 9011
  206442, 8670, 8671, 8680, 8679, 9003, 9004, 9013, 9012
  206443, 8671, 8672, 8681, 8680, 9004, 9005, 9014, 9013
  206444, 8672, 8673, 8682, 8681, 9005, 9006, 9015, 9014
  206445, 8673, 8674, 8683, 8682, 9006, 9007, 9016, 9015
  206446, 8674, 8675, 8684, 8683, 9007, 9008, 9017, 9016
  206447, 8675, 8676, 8685, 8684, 9008, 9009, 9018, 9017
  206448, 8677, 8678, 8687, 8686, 9010, 9011, 9020, 9019
  206449, 8678, 8679, 8688, 8687, 9011, 9012, 9021, 9020
  206450, 8679, 8680, 8689, 8688, 9012, 9013, 9022, 9021
  206451, 8680, 8681, 8690, 8689, 9013, 9014, 9023, 9022
  206452, 8681, 8682, 8691, 8690, 9014, 9015, 9024, 9023
  206453, 8682, 8683, 8692, 8691, 9015, 9016, 9025, 9024
  206454, 8683, 8684, 8693, 8692, 9016, 9017, 9026, 9025
  206455, 8684, 8685, 8694, 8693, 9017, 9018, 9027, 9026
  206456, 8686, 8687, 8696, 8695, 9019, 9020, 9029, 9028
  206457, 8687, 8688, 8697, 8696, 9020, 9021, 9030, 9029
  206458, 8688, 8689, 8698, 8697, 9021, 9022, 9031, 9030
  206459, 8689, 8690, 8699, 8698, 9022, 9023, 9032, 9031
  206460, 8690, 8691, 8700, 8699, 9023, 9024, 9033, 9032
  206461, 8691, 8692, 8701, 8700, 9024, 9025, 9034, 9033
  206462, 8692, 8693, 8702, 8701, 9025, 9026, 9035, 9034
  206463, 8693, 8694, 8703, 8702, 9026, 9027, 9036, 9035
  206464, 8695, 8696, 8705, 8704, 9028, 9029, 9038, 9037
  206465, 8696, 8697, 8706, 8705, 9029, 9030, 9039, 9038
  206466, 8697, 8698, 8707, 8706, 9030, 9031, 9040, 9039
  206467, 8698, 8699, 8708, 8707, 9031, 9032, 9041, 9040
  206468, 8699, 8700, 8709, 8708, 9032, 9033, 9042, 9041
  206469, 8700, 8701, 8710, 8709, 9033, 9034, 9043, 9042
  206470, 8701, 8702, 8711, 8710, 9034, 9035, 9044, 9043
  206471, 8702, 8703, 8712, 8711, 9035, 9036, 9045, 9044
  206472, 8704, 8705, 8714, 8713, 9037, 9038, 9047, 9046
  206473, 8705, 8706, 8715, 8714, 9038, 9039, 9048, 9047
  206474, 8706, 8707, 8716, 8715, 9039, 9040, 9049, 9048
  206475, 8707, 8708, 8717, 8716, 9040, 9041, 9050, 9049
  206476, 8708, 8709, 8718, 8717, 9041, 9042, 9051, 9050
  206477, 8709, 8710, 8719, 8718, 9042, 9043, 9052, 9051
  206478, 8710, 8711, 8720, 8719, 9043, 9044, 9053, 9052
  206479, 8711, 8712, 8721, 8720, 9044, 9045, 9054, 9053
  206480, 8713, 8714, 8723, 8722, 9046, 9047, 9056, 9055
  206481, 8714, 8715, 8724, 8723, 9047, 9048, 9057, 9056
  206482, 8715, 8716, 8725, 8724, 9048, 9049, 9058, 9057
  206483, 8716, 8717, 8726, 8725, 9049, 9050, 9059, 9058
  206484, 8717, 8718, 8727, 8726, 9050, 9051, 9060, 9059
  206485, 8718, 8719, 8728, 8727, 9051, 9052, 9061, 9060
  206486, 8719, 8720, 8729, 8728, 9052, 9053, 9062, 9061
  206487, 8720, 8721, 8730, 8729, 9053, 9054, 9063, 9062
  206488, 8722, 8723, 8732, 8731, 9055, 9056, 9065, 9064
  206489, 8723, 8724, 8733, 8732, 9056, 9057, 9066, 9065
  206490, 8724, 8725, 8734, 8733, 9057, 9058, 9067, 9066
  206491, 8725, 8726, 8735, 8734, 9058, 9059, 9068, 9067
  206492, 8726, 8727, 8736, 8735, 9059, 9060, 9069, 9068
  206493, 8727, 8728, 8737, 8736, 9060, 9061, 9070, 9069
  206494, 8728, 8729, 8738, 8737, 9061, 9062, 9071, 9070
  206495, 8729, 8730, 8739, 8738, 9062, 9063, 9072, 9071
  206496, 8731, 8732, 8741, 8740, 9064, 9065, 9074, 9073
  206497, 8732, 8733, 8742, 8741, 9065, 9066, 9075, 9074
  206498, 8733, 8734, 8743, 8742, 9066, 9067, 9076, 9075
  206499, 8734, 8735, 8744, 8743, 9067, 9068, 9077, 9076
  206500, 8735, 8736, 8745, 8744, 9068, 9069, 9078, 9077
  206501, 8736, 8737, 8746, 8745, 9069, 9070, 9079, 9078
  206502, 8737, 8738, 8747, 8746, 9070, 9071, 9080, 9079
  206503, 8738, 8739, 8748, 8747, 9071, 9072, 9081, 9080
  206504, 8740, 8741, 8750, 8749, 9073, 9074, 9083, 9082
  206505, 8741, 8742, 8751, 8750, 9074, 9075, 9084, 9083
  206506, 8742, 8743, 8752, 8751, 9075, 9076, 9085, 9084
  206507, 8743, 8744, 8753, 8752, 9076, 9077, 9086, 9085
  206508, 8744, 8745, 8754, 8753, 9077, 9078, 9087, 9086
  206509, 8745, 8746, 8755, 8754, 9078, 9079, 9088, 9087
  206510, 8746, 8747, 8756, 8755, 9079, 9080, 9089, 9088
  206511, 8747, 8748, 8757, 8756, 9080, 9081, 9090, 9089
  206512, 8749, 8750, 8759, 8758, 9082, 9083, 9092, 9091
  206513, 8750, 8751, 8760, 8759, 9083, 9084, 9093, 9092
  206514, 8751, 8752, 8761, 8760, 9084, 9085, 9094, 9093
  206515, 8752, 8753, 8762, 8761, 9085, 9086, 9095, 9094
  206516, 8753, 8754, 8763, 8762, 9086, 9087, 9096, 9095
  206517, 8754, 8755, 8764, 8763, 9087, 9088, 9097, 9096
  206518, 8755, 8756, 8765, 8764, 9088, 9089, 9098, 9097
  206519, 8756, 8757, 8766, 8765, 9089, 9090, 9099, 9098
  206520, 8758, 8759, 8768, 8767, 9091, 9092, 9101, 9100
  206521, 8759, 8760, 8769, 8768, 9092, 9093, 9102, 9101
  206522, 8760, 8761, 8770, 8769, 9093, 9094, 9103, 9102
  206523, 8761, 8762, 8771, 8770, 9094, 9095, 9104, 9103
  206524, 8762, 8763, 8772, 8771, 9095, 9096, 9105, 9104
  206525, 8763, 8764, 8773, 8772, 9096, 9097, 9106, 9105
  206526, 8764, 8765, 8774, 8773, 9097, 9098, 9107, 9106
  206527, 8765, 8766, 8775, 8774, 9098, 9099, 9108, 9107
  206528, 8767, 8768, 8777, 8776, 9100, 9101, 9110, 9109
  206529, 8768, 8769, 8778, 8777, 9101, 9102, 9111, 9110
  206530, 8769, 8770, 8779, 8778, 9102, 9103, 9112, 9111
  206531, 8770, 8771, 8780, 8779, 9103, 9104, 9113, 9112
  206532, 8771, 8772, 8781, 8780, 9104, 9105, 9114, 9113
  206533, 8772, 8773, 8782, 8781, 9105, 9106, 9115, 9114
  206534, 8773, 8774, 8783, 8782, 9106, 9107, 9116, 9115
  206535, 8774, 8775, 8784, 8783, 9107, 9108, 9117, 9116
  206536, 8776, 8777, 8786, 8785, 9109, 9110, 9119, 9118
  206537, 8777, 8778, 8787, 8786, 9110, 9111, 9120, 9119
  206538, 8778, 8779, 8788, 8787, 9111, 9112, 9121, 9120
  206539, 8779, 8780, 8789, 8788, 9112, 9113, 9122, 9121
  206540, 8780, 8781, 8790, 8789, 9113, 9114, 9123, 9122
  206541, 8781, 8782, 8791, 8790, 9114, 9115, 9124, 9123
  206542, 8782, 8783, 8792, 8791, 9115, 9116, 9125, 9124
  206543, 8783, 8784, 8793, 8792, 9116, 9117, 9126, 9125
  206544, 8785, 8786, 8795, 8794, 9118, 9119, 9128, 9127
  206545, 8786, 8787, 8796, 8795, 9119, 9120, 9129, 9128
  206546, 8787, 8788, 8797, 8796, 9120, 9121, 9130, 9129
  206547, 8788, 8789, 8798, 8797, 9121, 9122, 9131, 9130
  206548, 8789, 8790, 8799, 8798, 9122, 9123, 9132, 9131
  206549, 8790, 8791, 8800, 8799, 9123, 9124, 9133, 9132
  206550, 8791, 8792, 8801, 8800, 9124, 9125, 9134, 9133
  206551, 8792, 8793, 8802, 8801, 9125, 9126, 9135, 9134
  206552, 8794, 8795, 8804, 8803, 9127, 9128, 9137, 9136
  206553, 8795, 8796, 8805, 8804, 9128, 9129, 9138, 9137
  206554, 8796, 8797, 8806, 8805, 9129, 9130, 9139, 9138
  206555, 8797, 8798, 8807, 8806, 9130, 9131, 9140, 9139
  206556, 8798, 8799, 8808, 8807, 9131, 9132, 9141, 9140
  206557, 8799, 8800, 8809, 8808, 9132, 9133, 9142, 9141
  206558, 8800, 8801, 8810, 8809, 9133, 9134, 9143, 9142
  206559, 8801, 8802, 8811, 8810, 9134, 9135, 9144, 9143
  206560, 8803, 8804, 8813, 8812, 9136, 9137, 9146, 9145
  206561, 8804, 8805, 8814, 8813, 9137, 9138, 9147, 9146
  206562, 8805, 8806, 8815, 8814, 9138, 9139, 9148, 9147
  206563, 8806, 8807, 8816, 8815, 9139, 9140, 9149, 9148
  206564, 8807, 8808, 8817, 8816, 9140, 9141, 9150, 9149
  206565, 8808, 8809, 8818, 8817, 9141, 9142, 9151, 9150
  206566, 8809, 8810, 8819, 8818, 9142, 9143, 9152, 9151
  206567, 8810, 8811, 8820, 8819, 9143, 9144, 9153, 9152
  206568, 8812, 8813, 8822, 8821, 9145, 9146, 9155, 9154
  206569, 8813, 8814, 8823, 8822, 9146, 9147, 9156, 9155
  206570, 8814, 8815, 8824, 8823, 9147, 9148, 9157, 9156
  206571, 8815, 8816, 8825, 8824, 9148, 9149, 9158, 9157
  206572, 8816, 8817, 8826, 8825, 9149, 9150, 9159, 9158
  206573, 8817, 8818, 8827, 8826, 9150, 9151, 9160, 9159
  206574, 8818, 8819, 8828, 8827, 9151, 9152, 9161, 9160
  206575, 8819, 8820, 8829, 8828, 9152, 9153, 9162, 9161
  206576, 8821, 8822, 8831, 8830, 9154, 9155, 9164, 9163
  206577, 8822, 8823, 8832, 8831, 9155, 9156, 9165, 9164
  206578, 8823, 8824, 8833, 8832, 9156, 9157, 9166, 9165
  206579, 8824, 8825, 8834, 8833, 9157, 9158, 9167, 9166
  206580, 8825, 8826, 8835, 8834, 9158, 9159, 9168, 9167
  206581, 8826, 8827, 8836, 8835, 9159, 9160, 9169, 9168
  206582, 8827, 8828, 8837, 8836, 9160, 9161, 9170, 9169
  206583, 8828, 8829, 8838, 8837, 9161, 9162, 9171, 9170
  206584, 8830, 8831, 8840, 8839, 9163, 9164, 9173, 9172
  206585, 8831, 8832, 8841, 8840, 9164, 9165, 9174, 9173
  206586, 8832, 8833, 8842, 8841, 9165, 9166, 9175, 9174
  206587, 8833, 8834, 8843, 8842, 9166, 9167, 9176, 9175
  206588, 8834, 8835, 8844, 8843, 9167, 9168, 9177, 9176
  206589, 8835, 8836, 8845, 8844, 9168, 9169, 9178, 9177
  206590, 8836, 8837, 8846, 8845, 9169, 9170, 9179, 9178
  206591, 8837, 8838, 8847, 8846, 9170, 9171, 9180, 9179
  206592, 8839, 8840, 8849, 8848, 9172, 9173, 9182, 9181
  206593, 8840, 8841, 8850, 8849, 9173, 9174, 9183, 9182
  206594, 8841, 8842, 8851, 8850, 9174, 9175, 9184, 9183
  206595, 8842, 8843, 8852, 8851, 9175, 9176, 9185, 9184
  206596, 8843, 8844, 8853, 8852, 9176, 9177, 9186, 9185
  206597, 8844, 8845, 8854, 8853, 9177, 9178, 9187, 9186
  206598, 8845, 8846, 8855, 8854, 9178, 9179, 9188, 9187
  206599, 8846, 8847, 8856, 8855, 9179, 9180, 9189, 9188
  206600, 8848, 8849, 8858, 8857, 9181, 9182, 9191, 9190
  206601, 8849, 8850, 8859, 8858, 9182, 9183, 9192, 9191
  206602, 8850, 8851, 8860, 8859, 9183, 9184, 9193, 9192
  206603, 8851, 8852, 8861, 8860, 9184, 9185, 9194, 9193
  206604, 8852, 8853, 8862, 8861, 9185, 9186, 9195, 9194
  206605, 8853, 8854, 8863, 8862, 9186, 9187, 9196, 9195
  206606, 8854, 8855, 8864, 8863, 9187, 9188, 9197, 9196
  206607, 8855, 8856, 8865, 8864, 9188, 9189, 9198, 9197
  206608, 8857, 8858, 8867, 8866, 9190, 9191, 9200, 9199
  206609, 8858, 8859, 8868, 8867, 9191, 9192, 9201, 9200
  206610, 8859, 8860, 8869, 8868, 9192, 9193, 9202, 9201
  206611, 8860, 8861, 8870, 8869, 9193, 9194, 9203, 9202
  206612, 8861, 8862, 8871, 8870, 9194, 9195, 9204, 9203
  206613, 8862, 8863, 8872, 8871, 9195, 9196, 9205, 9204
  206614, 8863, 8864, 8873, 8872, 9196, 9197, 9206, 9205
  206615, 8864, 8865, 8874, 8873, 9197, 9198, 9207, 9206
  206616, 8866, 8867, 8876, 8875, 9199, 9200, 9209, 9208
  206617, 8867, 8868, 8877, 8876, 9200, 9201, 9210, 9209
  206618, 8868, 8869, 8878, 8877, 9201, 9202, 9211, 9210
  206619, 8869, 8870, 8879, 8878, 9202, 9203, 9212, 9211
  206620, 8870, 8871, 8880, 8879, 9203, 9204, 9213, 9212
  206621, 8871, 8872, 8881, 8880, 9204, 9205, 9214, 9213
  206622, 8872, 8873, 8882, 8881, 9205, 9206, 9215, 9214
  206623, 8873, 8874, 8883, 8882, 9206, 9207, 9216, 9215
  206624, 8884, 8885, 8894, 8893, 9217, 9218, 9227, 9226
  206625, 8885, 8886, 8895, 8894, 9218, 9219, 9228, 9227
  206626, 8886, 8887, 8896, 8895, 9219, 9220, 9229, 9228
  206627, 8887, 8888, 8897, 8896, 9220, 9221, 9230, 9229
  206628, 8888, 8889, 8898, 8897, 9221, 9222, 9231, 9230
  206629, 8889, 8890, 8899, 8898, 9222, 9223, 9232, 9231
  206630, 8890, 8891, 8900, 8899, 9223, 9224, 9233, 9232
  206631, 8891, 8892, 8901, 8900, 9224, 9225, 9234, 9233
  206632, 8893, 8894, 8903, 8902, 9226, 9227, 9236, 9235
  206633, 8894, 8895, 8904, 8903, 9227, 9228, 9237, 9236
  206634, 8895, 8896, 8905, 8904, 9228, 9229, 9238, 9237
  206635, 8896, 8897, 8906, 8905, 9229, 9230, 9239, 9238
  206636, 8897, 8898, 8907, 8906, 9230, 9231, 9240, 9239
  206637, 8898, 8899, 8908, 8907, 9231, 9232, 9241, 9240
  206638, 8899, 8900, 8909, 8908, 9232, 9233, 9242, 9241
  206639, 8900, 8901, 8910, 8909, 9233, 9234, 9243, 9242
  206640, 8902, 8903, 8912, 8911, 9235, 9236, 9245, 9244
  206641, 8903, 8904, 8913, 8912, 9236, 9237, 9246, 9245
  206642, 8904, 8905, 8914, 8913, 9237, 9238, 9247, 9246
  206643, 8905, 8906, 8915, 8914, 9238, 9239, 9248, 9247
  206644, 8906, 8907, 8916, 8915, 9239, 9240, 9249, 9248
  206645, 8907, 8908, 8917, 8916, 9240, 9241, 9250, 9249
  206646, 8908, 8909, 8918, 8917, 9241, 9242, 9251, 9250
  206647, 8909, 8910, 8919, 8918, 9242, 9243, 9252, 9251
  206648, 8911, 8912, 8921, 8920, 9244, 9245, 9254, 9253
  206649, 8912, 8913, 8922, 8921, 9245, 9246, 9255, 9254
  206650, 8913, 8914, 8923, 8922, 9246, 9247, 9256, 9255
  206651, 8914, 8915, 8924, 8923, 9247, 9248, 9257, 9256
  206652, 8915, 8916, 8925, 8924, 9248, 9249, 9258, 9257
  206653, 8916, 8917, 8926, 8925, 9249, 9250, 9259, 9258
  206654, 8917, 8918, 8927, 8926, 9250, 9251, 9260, 9259
  206655, 8918, 8919, 8928, 8927, 9251, 9252, 9261, 9260
  206656, 8920, 8921, 8930, 8929, 9253, 9254, 9263, 9262
  206657, 8921, 8922, 8931, 8930, 9254, 9255, 9264, 9263
  206658, 8922, 8923, 8932, 8931, 9255, 9256, 9265, 9264
  206659, 8923, 8924, 8933, 8932, 9256, 9257, 9266, 9265
  206660, 8924, 8925, 8934, 8933, 9257, 9258, 9267, 9266
  206661, 8925, 8926, 8935, 8934, 9258, 9259, 9268, 9267
  206662, 8926, 8927, 8936, 8935, 9259, 9260, 9269, 9268
  206663, 8927, 8928, 8937, 8936, 9260, 9261, 9270, 9269
  206664, 8929, 8930, 8939, 8938, 9262, 9263, 9272, 9271
  206665, 8930, 8931, 8940, 8939, 9263, 9264, 9273, 9272
  206666, 8931, 8932, 8941, 8940, 9264, 9265, 9274, 9273
  206667, 8932, 8933, 8942, 8941, 9265, 9266, 9275, 9274
  206668, 8933, 8934, 8943, 8942, 9266, 9267, 9276, 9275
  206669, 8934, 8935, 8944, 8943, 9267, 9268, 9277, 9276
  206670, 8935, 8936, 8945, 8944, 9268, 9269, 9278, 9277
  206671, 8936, 8937, 8946, 8945, 9269, 9270, 9279, 9278
  206672, 8938, 8939, 8948, 8947, 9271, 9272, 9281, 9280
  206673, 8939, 8940, 8949, 8948, 9272, 9273, 9282, 9281
  206674, 8940, 8941, 8950, 8949, 9273, 9274, 9283, 9282
  206675, 8941, 8942, 8951, 8950, 9274, 9275, 9284, 9283
  206676, 8942, 8943, 8952, 8951, 9275, 9276, 9285, 9284
  206677, 8943, 8944, 8953, 8952, 9276, 9277, 9286, 9285
  206678, 8944, 8945, 8954, 8953, 9277, 9278, 9287, 9286
  206679, 8945, 8946, 8955, 8954, 9278, 9279, 9288, 9287
  206680, 8947, 8948, 8957, 8956, 9280, 9281, 9290, 9289
  206681, 8948, 8949, 8958, 8957, 9281, 9282, 9291, 9290
  206682, 8949, 8950, 8959, 8958, 9282, 9283, 9292, 9291
  206683, 8950, 8951, 8960, 8959, 9283, 9284, 9293, 9292
  206684, 8951, 8952, 8961, 8960, 9284, 9285, 9294, 9293
  206685, 8952, 8953, 8962, 8961, 9285, 9286, 9295, 9294
  206686, 8953, 8954, 8963, 8962, 9286, 9287, 9296, 9295
  206687, 8954, 8955, 8964, 8963, 9287, 9288, 9297, 9296
  206688, 8956, 8957, 8966, 8965, 9289, 9290, 9299, 9298
  206689, 8957, 8958, 8967, 8966, 9290, 9291, 9300, 9299
  206690, 8958, 8959, 8968, 8967, 9291, 9292, 9301, 9300
  206691, 8959, 8960, 8969, 8968, 9292, 9293, 9302, 9301
  206692, 8960, 8961, 8970, 8969, 9293, 9294, 9303, 9302
  206693, 8961, 8962, 8971, 8970, 9294, 9295, 9304, 9303
  206694, 8962, 8963, 8972, 8971, 9295, 9296, 9305, 9304
  206695, 8963, 8964, 8973, 8972, 9296, 9297, 9306, 9305
  206696, 8965, 8966, 8975, 8974, 9298, 9299, 9308, 9307
  206697, 8966, 8967, 8976, 8975, 9299, 9300, 9309, 9308
  206698, 8967, 8968, 8977, 8976, 9300, 9301, 9310, 9309
  206699, 8968, 8969, 8978, 8977, 9301, 9302, 9311, 9310
  206700, 8969, 8970, 8979, 8978, 9302, 9303, 9312, 9311
  206701, 8970, 8971, 8980, 8979, 9303, 9304, 9313, 9312
  206702, 8971, 8972, 8981, 8980, 9304, 9305, 9314, 9313
  206703, 8972, 8973, 8982, 8981, 9305, 9306, 9315, 9314
  206704, 8974, 8975, 8984, 8983, 9307, 9308, 9317, 9316
  206705, 8975, 8976, 8985, 8984, 9308, 9309, 9318, 9317
  206706, 8976, 8977, 8986, 8985, 9309, 9310, 9319, 9318
  206707, 8977, 8978, 8987, 8986, 9310, 9311, 9320, 9319
  206708, 8978, 8979, 8988, 8987, 9311, 9312, 9321, 9320
  206709, 8979, 8980, 8989, 8988, 9312, 9313, 9322, 9321
  206710, 8980, 8981, 8990, 8989, 9313, 9314, 9323, 9322
  206711, 8981, 8982, 8991, 8990, 9314, 9315, 9324, 9323
  206712, 8983, 8984, 8993, 8992, 9316, 9317, 9326, 9325
  206713, 8984, 8985, 8994, 8993, 9317, 9318, 9327, 9326
  206714, 8985, 8986, 8995, 8994, 9318, 9319, 9328, 9327
  206715, 8986, 8987, 8996, 8995, 9319, 9320, 9329, 9328
  206716, 8987, 8988, 8997, 8996, 9320, 9321, 9330, 9329
  206717, 8988, 8989, 8998, 8997, 9321, 9322, 9331, 9330
  206718, 8989, 8990, 8999, 8998, 9322, 9323, 9332, 9331
  206719, 8990, 8991, 9000, 8999, 9323, 9324, 9333, 9332
  206720, 8992, 8993, 9002, 9001, 9325, 9326, 9335, 9334
  206721, 8993, 8994, 9003, 9002, 9326, 9327, 9336, 9335
  206722, 8994, 8995, 9004, 9003, 9327, 9328, 9337, 9336
  206723, 8995, 8996, 9005, 9004, 9328, 9329, 9338, 9337
  206724, 8996, 8997, 9006, 9005, 9329, 9330, 9339, 9338
  206725, 8997, 8998, 9007, 9006, 9330, 9331, 9340, 9339
  206726, 8998, 8999, 9008, 9007, 9331, 9332, 9341, 9340
  206727, 8999, 9000, 9009, 9008, 9332, 9333, 9342, 9341
  206728, 9001, 9002, 9011, 9010, 9334, 9335, 9344, 9343
  206729, 9002, 9003, 9012, 9011, 9335, 9336, 9345, 9344
  206730, 9003, 9004, 9013, 9012, 9336, 9337, 9346, 9345
  206731, 9004, 9005, 9014, 9013, 9337, 9338, 9347, 9346
  206732, 9005, 9006, 9015, 9014, 9338, 9339, 9348, 9347
  206733, 9006, 9007, 9016, 9015, 9339, 9340, 9349, 9348
  206734, 9007, 9008, 9017, 9016, 9340, 9341, 9350, 9349
  206735, 9008, 9009, 9018, 9017, 9341, 9342, 9351, 9350
  206736, 9010, 9011, 9020, 9019, 9343, 9344, 9353, 9352
  206737, 9011, 9012, 9021, 9020, 9344, 9345, 9354, 9353
  206738, 9012, 9013, 9022, 9021, 9345, 9346, 9355, 9354
  206739, 9013, 9014, 9023, 9022, 9346, 9347, 9356, 9355
  206740, 9014, 9015, 9024, 9023, 9347, 9348, 9357, 9356
  206741, 9015, 9016, 9025, 9024, 9348, 9349, 9358, 9357
  206742, 9016, 9017, 9026, 9025, 9349, 9350, 9359, 9358
  206743, 9017, 9018, 9027, 9026, 9350, 9351, 9360, 9359
  206744, 9019, 9020, 9029, 9028, 9352, 9353, 9362, 9361
  206745, 9020, 9021, 9030, 9029, 9353, 9354, 9363, 9362
  206746, 9021, 9022, 9031, 9030, 9354, 9355, 9364, 9363
  206747, 9022, 9023, 9032, 9031, 9355, 9356, 9365, 9364
  206748, 9023, 9024, 9033, 9032, 9356, 9357, 9366, 9365
  206749, 9024, 9025, 9034, 9033, 9357, 9358, 9367, 9366
  206750, 9025, 9026, 9035, 9034, 9358, 9359, 9368, 9367
  206751, 9026, 9027, 9036, 9035, 9359, 9360, 9369, 9368
  206752, 9028, 9029, 9038, 9037, 9361, 9362, 9371, 9370
  206753, 9029, 9030, 9039, 9038, 9362, 9363, 9372, 9371
  206754, 9030, 9031, 9040, 9039, 9363, 9364, 9373, 9372
  206755, 9031, 9032, 9041, 9040, 9364, 9365, 9374, 9373
  206756, 9032, 9033, 9042, 9041, 9365, 9366, 9375, 9374
  206757, 9033, 9034, 9043, 9042, 9366, 9367, 9376, 9375
  206758, 9034, 9035, 9044, 9043, 9367, 9368, 9377, 9376
  206759, 9035, 9036, 9045, 9044, 9368, 9369, 9378, 9377
  206760, 9037, 9038, 9047, 9046, 9370, 9371, 9380, 9379
  206761, 9038, 9039, 9048, 9047, 9371, 9372, 9381, 9380
  206762, 9039, 9040, 9049, 9048, 9372, 9373, 9382, 9381
  206763, 9040, 9041, 9050, 9049, 9373, 9374, 9383, 9382
  206764, 9041, 9042, 9051, 9050, 9374, 9375, 9384, 9383
  206765, 9042, 9043, 9052, 9051, 9375, 9376, 9385, 9384
  206766, 9043, 9044, 9053, 9052, 9376, 9377, 9386, 9385
  206767, 9044, 9045, 9054, 9053, 9377, 9378, 9387, 9386
  206768, 9046, 9047, 9056, 9055, 9379, 9380, 9389, 9388
  206769, 9047, 9048, 9057, 9056, 9380, 9381, 9390, 9389
  206770, 9048, 9049, 9058, 9057, 9381, 9382, 9391, 9390
  206771, 9049, 9050, 9059, 9058, 9382, 9383, 9392, 9391
  206772, 9050, 9051, 9060, 9059, 9383, 9384, 9393, 9392
  206773, 9051, 9052, 9061, 9060, 9384, 9385, 9394, 9393
  206774, 9052, 9053, 9062, 9061, 9385, 9386, 9395, 9394
  206775, 9053, 9054, 9063, 9062, 9386, 9387, 9396, 9395
  206776, 9055, 9056, 9065, 9064, 9388, 9389, 9398, 9397
  206777, 9056, 9057, 9066, 9065, 9389, 9390, 9399, 9398
  206778, 9057, 9058, 9067, 9066, 9390, 9391, 9400, 9399
  206779, 9058, 9059, 9068, 9067, 9391, 9392, 9401, 9400
  206780, 9059, 9060, 9069, 9068, 9392, 9393, 9402, 9401
  206781, 9060, 9061, 9070, 9069, 9393, 9394, 9403, 9402
  206782, 9061, 9062, 9071, 9070, 9394, 9395, 9404, 9403
  206783, 9062, 9063, 9072, 9071, 9395, 9396, 9405, 9404
  206784, 9064, 9065, 9074, 9073, 9397, 9398, 9407, 9406
  206785, 9065, 9066, 9075, 9074, 9398, 9399, 9408, 9407
  206786, 9066, 9067, 9076, 9075, 9399, 9400, 9409, 9408
  206787, 9067, 9068, 9077, 9076, 9400, 9401, 9410, 9409
  206788, 9068, 9069, 9078, 9077, 9401, 9402, 9411, 9410
  206789, 9069, 9070, 9079, 9078, 9402, 9403, 9412, 9411
  206790, 9070, 9071, 9080, 9079, 9403, 9404, 9413, 9412
  206791, 9071, 9072, 9081, 9080, 9404, 9405, 9414, 9413
  206792, 9073, 9074, 9083, 9082, 9406, 9407, 9416, 9415
  206793, 9074, 9075, 9084, 9083, 9407, 9408, 9417, 9416
  206794, 9075, 9076, 9085, 9084, 9408, 9409, 9418, 9417
  206795, 9076, 9077, 9086, 9085, 9409, 9410, 9419, 9418
  206796, 9077, 9078, 9087, 9086, 9410, 9411, 9420, 9419
  206797, 9078, 9079, 9088, 9087, 9411, 9412, 9421, 9420
  206798, 9079, 9080, 9089, 9088, 9412, 9413, 9422, 9421
  206799, 9080, 9081, 9090, 9089, 9413, 9414, 9423, 9422
  206800, 9082, 9083, 9092, 9091, 9415, 9416, 9425, 9424
  206801, 9083, 9084, 9093, 9092, 9416, 9417, 9426, 9425
  206802, 9084, 9085, 9094, 9093, 9417, 9418, 9427, 9426
  206803, 9085, 9086, 9095, 9094, 9418, 9419, 9428, 9427
  206804, 9086, 9087, 9096, 9095, 9419, 9420, 9429, 9428
  206805, 9087, 9088, 9097, 9096, 9420, 9421, 9430, 9429
  206806, 9088, 9089, 9098, 9097, 9421, 9422, 9431, 9430
  206807, 9089, 9090, 9099, 9098, 9422, 9423, 9432, 9431
  206808, 9091, 9092, 9101, 9100, 9424, 9425, 9434, 9433
  206809, 9092, 9093, 9102, 9101, 9425, 9426, 9435, 9434
  206810, 9093, 9094, 9103, 9102, 9426, 9427, 9436, 9435
  206811, 9094, 9095, 9104, 9103, 9427, 9428, 9437, 9436
  206812, 9095, 9096, 9105, 9104, 9428, 9429, 9438, 9437
  206813, 9096, 9097, 9106, 9105, 9429, 9430, 9439, 9438
  206814, 9097, 9098, 9107, 9106, 9430, 9431, 9440, 9439
  206815, 9098, 9099, 9108, 9107, 9431, 9432, 9441, 9440
  206816, 9100, 9101, 9110, 9109, 9433, 9434, 9443, 9442
  206817, 9101, 9102, 9111, 9110, 9434, 9435, 9444, 9443
  206818, 9102, 9103, 9112, 9111, 9435, 9436, 9445, 9444
  206819, 9103, 9104, 9113, 9112, 9436, 9437, 9446, 9445
  206820, 9104, 9105, 9114, 9113, 9437, 9438, 9447, 9446
  206821, 9105, 9106, 9115, 9114, 9438, 9439, 9448, 9447
  206822, 9106, 9107, 9116, 9115, 9439, 9440, 9449, 9448
  206823, 9107, 9108, 9117, 9116, 9440, 9441, 9450, 9449
  206824, 9109, 9110, 9119, 9118, 9442, 9443, 9452, 9451
  206825, 9110, 9111, 9120, 9119, 9443, 9444, 9453, 9452
  206826, 9111, 9112, 9121, 9120, 9444, 9445, 9454, 9453
  206827, 9112, 9113, 9122, 9121, 9445, 9446, 9455, 9454
  206828, 9113, 9114, 9123, 9122, 9446, 9447, 9456, 9455
  206829, 9114, 9115, 9124, 9123, 9447, 9448, 9457, 9456
  206830, 9115, 9116, 9125, 9124, 9448, 9449, 9458, 9457
  206831, 9116, 9117, 9126, 9125, 9449, 9450, 9459, 9458
  206832, 9118, 9119, 9128, 9127, 9451, 9452, 9461, 9460
  206833, 9119, 9120, 9129, 9128, 9452, 9453, 9462, 9461
  206834, 9120, 9121, 9130, 9129, 9453, 9454, 9463, 9462
  206835, 9121, 9122, 9131, 9130, 9454, 9455, 9464, 9463
  206836, 9122, 9123, 9132, 9131, 9455, 9456, 9465, 9464
  206837, 9123, 9124, 9133, 9132, 9456, 9457, 9466, 9465
  206838, 9124, 9125, 9134, 9133, 9457, 9458, 9467, 9466
  206839, 9125, 9126, 9135, 9134, 9458, 9459, 9468, 9467
  206840, 9127, 9128, 9137, 9136, 9460, 9461, 9470, 9469
  206841, 9128, 9129, 9138, 9137, 9461, 9462, 9471, 9470
  206842, 9129, 9130, 9139, 9138, 9462, 9463, 9472, 9471
  206843, 9130, 9131, 9140, 9139, 9463, 9464, 9473, 9472
  206844, 9131, 9132, 9141, 9140, 9464, 9465, 9474, 9473
  206845, 9132, 9133, 9142, 9141, 9465, 9466, 9475, 9474
  206846, 9133, 9134, 9143, 9142, 9466, 9467, 9476, 9475
  206847, 9134, 9135, 9144, 9143, 9467, 9468, 9477, 9476
  206848, 9136, 9137, 9146, 9145, 9469, 9470, 9479, 9478
  206849, 9137, 9138, 9147, 9146, 9470, 9471, 9480, 9479
  206850, 9138, 9139, 9148, 9147, 9471, 9472, 9481, 9480
  206851, 9139, 9140, 9149, 9148, 9472, 9473, 9482, 9481
  206852, 9140, 9141, 9150, 9149, 9473, 9474, 9483, 9482
  206853, 9141, 9142, 9151, 9150, 9474, 9475, 9484, 9483
  206854, 9142, 9143, 9152, 9151, 9475, 9476, 9485, 9484
  206855, 9143, 9144, 9153, 9152, 9476, 9477, 9486, 9485
  206856, 9145, 9146, 9155, 9154, 9478, 9479, 9488, 9487
  206857, 9146, 9147, 9156, 9155, 9479, 9480, 9489, 9488
  206858, 9147, 9148, 9157, 9156, 9480, 9481, 9490, 9489
  206859, 9148, 9149, 9158, 9157, 9481, 9482, 9491, 9490
  206860, 9149, 9150, 9159, 9158, 9482, 9483, 9492, 9491
  206861, 9150, 9151, 9160, 9159, 9483, 9484, 9493, 9492
  206862, 9151, 9152, 9161, 9160, 9484, 9485, 9494, 9493
  206863, 9152, 9153, 9162, 9161, 9485, 9486, 9495, 9494
  206864, 9154, 9155, 9164, 9163, 9487, 9488, 9497, 9496
  206865, 9155, 9156, 9165, 9164, 9488, 9489, 9498, 9497
  206866, 9156, 9157, 9166, 9165, 9489, 9490, 9499, 9498
  206867, 9157, 9158, 9167, 9166, 9490, 9491, 9500, 9499
  206868, 9158, 9159, 9168, 9167, 9491, 9492, 9501, 9500
  206869, 9159, 9160, 9169, 9168, 9492, 9493, 9502, 9501
  206870, 9160, 9161, 9170, 9169, 9493, 9494, 9503, 9502
  206871, 9161, 9162, 9171, 9170, 9494, 9495, 9504, 9503
  206872, 9163, 9164, 9173, 9172, 9496, 9497, 9506, 9505
  206873, 9164, 9165, 9174, 9173, 9497, 9498, 9507, 9506
  206874, 9165, 9166, 9175, 9174, 9498, 9499, 9508, 9507
  206875, 9166, 9167, 9176, 9175, 9499, 9500, 9509, 9508
  206876, 9167, 9168, 9177, 9176, 9500, 9501, 9510, 9509
  206877, 9168, 9169, 9178, 9177, 9501, 9502, 9511, 9510
  206878, 9169, 9170, 9179, 9178, 9502, 9503, 9512, 9511
  206879, 9170, 9171, 9180, 9179, 9503, 9504, 9513, 9512
  206880, 9172, 9173, 9182, 9181, 9505, 9506, 9515, 9514
  206881, 9173, 9174, 9183, 9182, 9506, 9507, 9516, 9515
  206882, 9174, 9175, 9184, 9183, 9507, 9508, 9517, 9516
  206883, 9175, 9176, 9185, 9184, 9508, 9509, 9518, 9517
  206884, 9176, 9177, 9186, 9185, 9509, 9510, 9519, 9518
  206885, 9177, 9178, 9187, 9186, 9510, 9511, 9520, 9519
  206886, 9178, 9179, 9188, 9187, 9511, 9512, 9521, 9520
  206887, 9179, 9180, 9189, 9188, 9512, 9513, 9522, 9521
  206888, 9181, 9182, 9191, 9190, 9514, 9515, 9524, 9523
  206889, 9182, 9183, 9192, 9191, 9515, 9516, 9525, 9524
  206890, 9183, 9184, 9193, 9192, 9516, 9517, 9526, 9525
  206891, 9184, 9185, 9194, 9193, 9517, 9518, 9527, 9526
  206892, 9185, 9186, 9195, 9194, 9518, 9519, 9528, 9527
  206893, 9186, 9187, 9196, 9195, 9519, 9520, 9529, 9528
  206894, 9187, 9188, 9197, 9196, 9520, 9521, 9530, 9529
  206895, 9188, 9189, 9198, 9197, 9521, 9522, 9531, 9530
  206896, 9190, 9191, 9200, 9199, 9523, 9524, 9533, 9532
  206897, 9191, 9192, 9201, 9200, 9524, 9525, 9534, 9533
  206898, 9192, 9193, 9202, 9201, 9525, 9526, 9535, 9534
  206899, 9193, 9194, 9203, 9202, 9526, 9527, 9536, 9535
  206900, 9194, 9195, 9204, 9203, 9527, 9528, 9537, 9536
  206901, 9195, 9196, 9205, 9204, 9528, 9529, 9538, 9537
  206902, 9196, 9197, 9206, 9205, 9529, 9530, 9539, 9538
  206903, 9197, 9198, 9207, 9206, 9530, 9531, 9540, 9539
  206904, 9199, 9200, 9209, 9208, 9532, 9533, 9542, 9541
  206905, 9200, 9201, 9210, 9209, 9533, 9534, 9543, 9542
  206906, 9201, 9202, 9211, 9210, 9534, 9535, 9544, 9543
  206907, 9202, 9203, 9212, 9211, 9535, 9536, 9545, 9544
  206908, 9203, 9204, 9213, 9212, 9536, 9537, 9546, 9545
  206909, 9204, 9205, 9214, 9213, 9537, 9538, 9547, 9546
  206910, 9205, 9206, 9215, 9214, 9538, 9539, 9548, 9547
  206911, 9206, 9207, 9216, 9215, 9539, 9540, 9549, 9548
  206912, 9217, 9218, 9227, 9226, 9550, 9551, 9560, 9559
  206913, 9218, 9219, 9228, 9227, 9551, 9552, 9561, 9560
  206914, 9219, 9220, 9229, 9228, 9552, 9553, 9562, 9561
  206915, 9220, 9221, 9230, 9229, 9553, 9554, 9563, 9562
  206916, 9221, 9222, 9231, 9230, 9554, 9555, 9564, 9563
  206917, 9222, 9223, 9232, 9231, 9555, 9556, 9565, 9564
  206918, 9223, 9224, 9233, 9232, 9556, 9557, 9566, 9565
  206919, 9224, 9225, 9234, 9233, 9557, 9558, 9567, 9566
  206920, 9226, 9227, 9236, 9235, 9559, 9560, 9569, 9568
  206921, 9227, 9228, 9237, 9236, 9560, 9561, 9570, 9569
  206922, 9228, 9229, 9238, 9237, 9561, 9562, 9571, 9570
  206923, 9229, 9230, 9239, 9238, 9562, 9563, 9572, 9571
  206924, 9230, 9231, 9240, 9239, 9563, 9564, 9573, 9572
  206925, 9231, 9232, 9241, 9240, 9564, 9565, 9574, 9573
  206926, 9232, 9233, 9242, 9241, 9565, 9566, 9575, 9574
  206927, 9233, 9234, 9243, 9242, 9566, 9567, 9576, 9575
  206928, 9235, 9236, 9245, 9244, 9568, 9569, 9578, 9577
  206929, 9236, 9237, 9246, 9245, 9569, 9570, 9579, 9578
  206930, 9237, 9238, 9247, 9246, 9570, 9571, 9580, 9579
  206931, 9238, 9239, 9248, 9247, 9571, 9572, 9581, 9580
  206932, 9239, 9240, 9249, 9248, 9572, 9573, 9582, 9581
  206933, 9240, 9241, 9250, 9249, 9573, 9574, 9583, 9582
  206934, 9241, 9242, 9251, 9250, 9574, 9575, 9584, 9583
  206935, 9242, 9243, 9252, 9251, 9575, 9576, 9585, 9584
  206936, 9244, 9245, 9254, 9253, 9577, 9578, 9587, 9586
  206937, 9245, 9246, 9255, 9254, 9578, 9579, 9588, 9587
  206938, 9246, 9247, 9256, 9255, 9579, 9580, 9589, 9588
  206939, 9247, 9248, 9257, 9256, 9580, 9581, 9590, 9589
  206940, 9248, 9249, 9258, 9257, 9581, 9582, 9591, 9590
  206941, 9249, 9250, 9259, 9258, 9582, 9583, 9592, 9591
  206942, 9250, 9251, 9260, 9259, 9583, 9584, 9593, 9592
  206943, 9251, 9252, 9261, 9260, 9584, 9585, 9594, 9593
  206944, 9253, 9254, 9263, 9262, 9586, 9587, 9596, 9595
  206945, 9254, 9255, 9264, 9263, 9587, 9588, 9597, 9596
  206946, 9255, 9256, 9265, 9264, 9588, 9589, 9598, 9597
  206947, 9256, 9257, 9266, 9265, 9589, 9590, 9599, 9598
  206948, 9257, 9258, 9267, 9266, 9590, 9591, 9600, 9599
  206949, 9258, 9259, 9268, 9267, 9591, 9592, 9601, 9600
  206950, 9259, 9260, 9269, 9268, 9592, 9593, 9602, 9601
  206951, 9260, 9261, 9270, 9269, 9593, 9594, 9603, 9602
  206952, 9262, 9263, 9272, 9271, 9595, 9596, 9605, 9604
  206953, 9263, 9264, 9273, 9272, 9596, 9597, 9606, 9605
  206954, 9264, 9265, 9274, 9273, 9597, 9598, 9607, 9606
  206955, 9265, 9266, 9275, 9274, 9598, 9599, 9608, 9607
  206956, 9266, 9267, 9276, 9275, 9599, 9600, 9609, 9608
  206957, 9267, 9268, 9277, 9276, 9600, 9601, 9610, 9609
  206958, 9268, 9269, 9278, 9277, 9601, 9602, 9611, 9610
  206959, 9269, 9270, 9279, 9278, 9602, 9603, 9612, 9611
  206960, 9271, 9272, 9281, 9280, 9604, 9605, 9614, 9613
  206961, 9272, 9273, 9282, 9281, 9605, 9606, 9615, 9614
  206962, 9273, 9274, 9283, 9282, 9606, 9607, 9616, 9615
  206963, 9274, 9275, 9284, 9283, 9607, 9608, 9617, 9616
  206964, 9275, 9276, 9285, 9284, 9608, 9609, 9618, 9617
  206965, 9276, 9277, 9286, 9285, 9609, 9610, 9619, 9618
  206966, 9277, 9278, 9287, 9286, 9610, 9611, 9620, 9619
  206967, 9278, 9279, 9288, 9287, 9611, 9612, 9621, 9620
  206968, 9280, 9281, 9290, 9289, 9613, 9614, 9623, 9622
  206969, 9281, 9282, 9291, 9290, 9614, 9615, 9624, 9623
  206970, 9282, 9283, 9292, 9291, 9615, 9616, 9625, 9624
  206971, 9283, 9284, 9293, 9292, 9616, 9617, 9626, 9625
  206972, 9284, 9285, 9294, 9293, 9617, 9618, 9627, 9626
  206973, 9285, 9286, 9295, 9294, 9618, 9619, 9628, 9627
  206974, 9286, 9287, 9296, 9295, 9619, 9620, 9629, 9628
  206975, 9287, 9288, 9297, 9296, 9620, 9621, 9630, 9629
  206976, 9289, 9290, 9299, 9298, 9622, 9623, 9632, 9631
  206977, 9290, 9291, 9300, 9299, 9623, 9624, 9633, 9632
  206978, 9291, 9292, 9301, 9300, 9624, 9625, 9634, 9633
  206979, 9292, 9293, 9302, 9301, 9625, 9626, 9635, 9634
  206980, 9293, 9294, 9303, 9302, 9626, 9627, 9636, 9635
  206981, 9294, 9295, 9304, 9303, 9627, 9628, 9637, 9636
  206982, 9295, 9296, 9305, 9304, 9628, 9629, 9638, 9637
  206983, 9296, 9297, 9306, 9305, 9629, 9630, 9639, 9638
  206984, 9298, 9299, 9308, 9307, 9631, 9632, 9641, 9640
  206985, 9299, 9300, 9309, 9308, 9632, 9633, 9642, 9641
  206986, 9300, 9301, 9310, 9309, 9633, 9634, 9643, 9642
  206987, 9301, 9302, 9311, 9310, 9634, 9635, 9644, 9643
  206988, 9302, 9303, 9312, 9311, 9635, 9636, 9645, 9644
  206989, 9303, 9304, 9313, 9312, 9636, 9637, 9646, 9645
  206990, 9304, 9305, 9314, 9313, 9637, 9638, 9647, 9646
  206991, 9305, 9306, 9315, 9314, 9638, 9639, 9648, 9647
  206992, 9307, 9308, 9317, 9316, 9640, 9641, 9650, 9649
  206993, 9308, 9309, 9318, 9317, 9641, 9642, 9651, 9650
  206994, 9309, 9310, 9319, 9318, 9642, 9643, 9652, 9651
  206995, 9310, 9311, 9320, 9319, 9643, 9644, 9653, 9652
  206996, 9311, 9312, 9321, 9320, 9644, 9645, 9654, 9653
  206997, 9312, 9313, 9322, 9321, 9645, 9646, 9655, 9654
  206998, 9313, 9314, 9323, 9322, 9646, 9647, 9656, 9655
  206999, 9314, 9315, 9324, 9323, 9647, 9648, 9657, 9656
  207000, 9316, 9317, 9326, 9325, 9649, 9650, 9659, 9658
  207001, 9317, 9318, 9327, 9326, 9650, 9651, 9660, 9659
  207002, 9318, 9319, 9328, 9327, 9651, 9652, 9661, 9660
  207003, 9319, 9320, 9329, 9328, 9652, 9653, 9662, 9661
  207004, 9320, 9321, 9330, 9329, 9653, 9654, 9663, 9662
  207005, 9321, 9322, 9331, 9330, 9654, 9655, 9664, 9663
  207006, 9322, 9323, 9332, 9331, 9655, 9656, 9665, 9664
  207007, 9323, 9324, 9333, 9332, 9656, 9657, 9666, 9665
  207008, 9325, 9326, 9335, 9334, 9658, 9659, 9668, 9667
  207009, 9326, 9327, 9336, 9335, 9659, 9660, 9669, 9668
  207010, 9327, 9328, 9337, 9336, 9660, 9661, 9670, 9669
  207011, 9328, 9329, 9338, 9337, 9661, 9662, 9671, 9670
  207012, 9329, 9330, 9339, 9338, 9662, 9663, 9672, 9671
  207013, 9330, 9331, 9340, 9339, 9663, 9664, 9673, 9672
  207014, 9331, 9332, 9341, 9340, 9664, 9665, 9674, 9673
  207015, 9332, 9333, 9342, 9341, 9665, 9666, 9675, 9674
  207016, 9334, 9335, 9344, 9343, 9667, 9668, 9677, 9676
  207017, 9335, 9336, 9345, 9344, 9668, 9669, 9678, 9677
  207018, 9336, 9337, 9346, 9345, 9669, 9670, 9679, 9678
  207019, 9337, 9338, 9347, 9346, 9670, 9671, 9680, 9679
  207020, 9338, 9339, 9348, 9347, 9671, 9672, 9681, 9680
  207021, 9339, 9340, 9349, 9348, 9672, 9673, 9682, 9681
  207022, 9340, 9341, 9350, 9349, 9673, 9674, 9683, 9682
  207023, 9341, 9342, 9351, 9350, 9674, 9675, 9684, 9683
  207024, 9343, 9344, 9353, 9352, 9676, 9677, 9686, 9685
  207025, 9344, 9345, 9354, 9353, 9677, 9678, 9687, 9686
  207026, 9345, 9346, 9355, 9354, 9678, 9679, 9688, 9687
  207027, 9346, 9347, 9356, 9355, 9679, 9680, 9689, 9688
  207028, 9347, 9348, 9357, 9356, 9680, 9681, 9690, 9689
  207029, 9348, 9349, 9358, 9357, 9681, 9682, 9691, 9690
  207030, 9349, 9350, 9359, 9358, 9682, 9683, 9692, 9691
  207031, 9350, 9351, 9360, 9359, 9683, 9684, 9693, 9692
  207032, 9352, 9353, 9362, 9361, 9685, 9686, 9695, 9694
  207033, 9353, 9354, 9363, 9362, 9686, 9687, 9696, 9695
  207034, 9354, 9355, 9364, 9363, 9687, 9688, 9697, 9696
  207035, 9355, 9356, 9365, 9364, 9688, 9689, 9698, 9697
  207036, 9356, 9357, 9366, 9365, 9689, 9690, 9699, 9698
  207037, 9357, 9358, 9367, 9366, 9690, 9691, 9700, 9699
  207038, 9358, 9359, 9368, 9367, 9691, 9692, 9701, 9700
  207039, 9359, 9360, 9369, 9368, 9692, 9693, 9702, 9701
  207040, 9361, 9362, 9371, 9370, 9694, 9695, 9704, 9703
  207041, 9362, 9363, 9372, 9371, 9695, 9696, 9705, 9704
  207042, 9363, 9364, 9373, 9372, 9696, 9697, 9706, 9705
  207043, 9364, 9365, 9374, 9373, 9697, 9698, 9707, 9706
  207044, 9365, 9366, 9375, 9374, 9698, 9699, 9708, 9707
  207045, 9366, 9367, 9376, 9375, 9699, 9700, 9709, 9708
  207046, 9367, 9368, 9377, 9376, 9700, 9701, 9710, 9709
  207047, 9368, 9369, 9378, 9377, 9701, 9702, 9711, 9710
  207048, 9370, 9371, 9380, 9379, 9703, 9704, 9713, 9712
  207049, 9371, 9372, 9381, 9380, 9704, 9705, 9714, 9713
  207050, 9372, 9373, 9382, 9381, 9705, 9706, 9715, 9714
  207051, 9373, 9374, 9383, 9382, 9706, 9707, 9716, 9715
  207052, 9374, 9375, 9384, 9383, 9707, 9708, 9717, 9716
  207053, 9375, 9376, 9385, 9384, 9708, 9709, 9718, 9717
  207054, 9376, 9377, 9386, 9385, 9709, 9710, 9719, 9718
  207055, 9377, 9378, 9387, 9386, 9710, 9711, 9720, 9719
  207056, 9379, 9380, 9389, 9388, 9712, 9713, 9722, 9721
  207057, 9380, 9381, 9390, 9389, 9713, 9714, 9723, 9722
  207058, 9381, 9382, 9391, 9390, 9714, 9715, 9724, 9723
  207059, 9382, 9383, 9392, 9391, 9715, 9716, 9725, 9724
  207060, 9383, 9384, 9393, 9392, 9716, 9717, 9726, 9725
  207061, 9384, 9385, 9394, 9393, 9717, 9718, 9727, 9726
  207062, 9385, 9386, 9395, 9394, 9718, 9719, 9728, 9727
  207063, 9386, 9387, 9396, 9395, 9719, 9720, 9729, 9728
  207064, 9388, 9389, 9398, 9397, 9721, 9722, 9731, 9730
  207065, 9389, 9390, 9399, 9398, 9722, 9723, 9732, 9731
  207066, 9390, 9391, 9400, 9399, 9723, 9724, 9733, 9732
  207067, 9391, 9392, 9401, 9400, 9724, 9725, 9734, 9733
  207068, 9392, 9393, 9402, 9401, 9725, 9726, 9735, 9734
  207069, 9393, 9394, 9403, 9402, 9726, 9727, 9736, 9735
  207070, 9394, 9395, 9404, 9403, 9727, 9728, 9737, 9736
  207071, 9395, 9396, 9405, 9404, 9728, 9729, 9738, 9737
  207072, 9397, 9398, 9407, 9406, 9730, 9731, 9740, 9739
  207073, 9398, 9399, 9408, 9407, 9731, 9732, 9741, 9740
  207074, 9399, 9400, 9409, 9408, 9732, 9733, 9742, 9741
  207075, 9400, 9401, 9410, 9409, 9733, 9734, 9743, 9742
  207076, 9401, 9402, 9411, 9410, 9734, 9735, 9744, 9743
  207077, 9402, 9403, 9412, 9411, 9735, 9736, 9745, 9744
  207078, 9403, 9404, 9413, 9412, 9736, 9737, 9746, 9745
  207079, 9404, 9405, 9414, 9413, 9737, 9738, 9747, 9746
  207080, 9406, 9407, 9416, 9415, 9739, 9740, 9749, 9748
  207081, 9407, 9408, 9417, 9416, 9740, 9741, 9750, 9749
  207082, 9408, 9409, 9418, 9417, 9741, 9742, 9751, 9750
  207083, 9409, 9410, 9419, 9418, 9742, 9743, 9752, 9751
  207084, 9410, 9411, 9420, 9419, 9743, 9744, 9753, 9752
  207085, 9411, 9412, 9421, 9420, 9744, 9745, 9754, 9753
  207086, 9412, 9413, 9422, 9421, 9745, 9746, 9755, 9754
  207087, 9413, 9414, 9423, 9422, 9746, 9747, 9756, 9755
  207088, 9415, 9416, 9425, 9424, 9748, 9749, 9758, 9757
  207089, 9416, 9417, 9426, 9425, 9749, 9750, 9759, 9758
  207090, 9417, 9418, 9427, 9426, 9750, 9751, 9760, 9759
  207091, 9418, 9419, 9428, 9427, 9751, 9752, 9761, 9760
  207092, 9419, 9420, 9429, 9428, 9752, 9753, 9762, 9761
  207093, 9420, 9421, 9430, 9429, 9753, 9754, 9763, 9762
  207094, 9421, 9422, 9431, 9430, 9754, 9755, 9764, 9763
  207095, 9422, 9423, 9432, 9431, 9755, 9756, 9765, 9764
  207096, 9424, 9425, 9434, 9433, 9757, 9758, 9767, 9766
  207097, 9425, 9426, 9435, 9434, 9758, 9759, 9768, 9767
  207098, 9426, 9427, 9436, 9435, 9759, 9760, 9769, 9768
  207099, 9427, 9428, 9437, 9436, 9760, 9761, 9770, 9769
  207100, 9428, 9429, 9438, 9437, 9761, 9762, 9771, 9770
  207101, 9429, 9430, 9439, 9438, 9762, 9763, 9772, 9771
  207102, 9430, 9431, 9440, 9439, 9763, 9764, 9773, 9772
  207103, 9431, 9432, 9441, 9440, 9764, 9765, 9774, 9773
  207104, 9433, 9434, 9443, 9442, 9766, 9767, 9776, 9775
  207105, 9434, 9435, 9444, 9443, 9767, 9768, 9777, 9776
  207106, 9435, 9436, 9445, 9444, 9768, 9769, 9778, 9777
  207107, 9436, 9437, 9446, 9445, 9769, 9770, 9779, 9778
  207108, 9437, 9438, 9447, 9446, 9770, 9771, 9780, 9779
  207109, 9438, 9439, 9448, 9447, 9771, 9772, 9781, 9780
  207110, 9439, 9440, 9449, 9448, 9772, 9773, 9782, 9781
  207111, 9440, 9441, 9450, 9449, 9773, 9774, 9783, 9782
  207112, 9442, 9443, 9452, 9451, 9775, 9776, 9785, 9784
  207113, 9443, 9444, 9453, 9452, 9776, 9777, 9786, 9785
  207114, 9444, 9445, 9454, 9453, 9777, 9778, 9787, 9786
  207115, 9445, 9446, 9455, 9454, 9778, 9779, 9788, 9787
  207116, 9446, 9447, 9456, 9455, 9779, 9780, 9789, 9788
  207117, 9447, 9448, 9457, 9456, 9780, 9781, 9790, 9789
  207118, 9448, 9449, 9458, 9457, 9781, 9782, 9791, 9790
  207119, 9449, 9450, 9459, 9458, 9782, 9783, 9792, 9791
  207120, 9451, 9452, 9461, 9460, 9784, 9785, 9794, 9793
  207121, 9452, 9453, 9462, 9461, 9785, 9786, 9795, 9794
  207122, 9453, 9454, 9463, 9462, 9786, 9787, 9796, 9795
  207123, 9454, 9455, 9464, 9463, 9787, 9788, 9797, 9796
  207124, 9455, 9456, 9465, 9464, 9788, 9789, 9798, 9797
  207125, 9456, 9457, 9466, 9465, 9789, 9790, 9799, 9798
  207126, 9457, 9458, 9467, 9466, 9790, 9791, 9800, 9799
  207127, 9458, 9459, 9468, 9467, 9791, 9792, 9801, 9800
  207128, 9460, 9461, 9470, 9469, 9793, 9794, 9803, 9802
  207129, 9461, 9462, 9471, 9470, 9794, 9795, 9804, 9803
  207130, 9462, 9463, 9472, 9471, 9795, 9796, 9805, 9804
  207131, 9463, 9464, 9473, 9472, 9796, 9797, 9806, 9805
  207132, 9464, 9465, 9474, 9473, 9797, 9798, 9807, 9806
  207133, 9465, 9466, 9475, 9474, 9798, 9799, 9808, 9807
  207134, 9466, 9467, 9476, 9475, 9799, 9800, 9809, 9808
  207135, 9467, 9468, 9477, 9476, 9800, 9801, 9810, 9809
  207136, 9469, 9470, 9479, 9478, 9802, 9803, 9812, 9811
  207137, 9470, 9471, 9480, 9479, 9803, 9804, 9813, 9812
  207138, 9471, 9472, 9481, 9480, 9804, 9805, 9814, 9813
  207139, 9472, 9473, 9482, 9481, 9805, 9806, 9815, 9814
  207140, 9473, 9474, 9483, 9482, 9806, 9807, 9816, 9815
  207141, 9474, 9475, 9484, 9483, 9807, 9808, 9817, 9816
  207142, 9475, 9476, 9485, 9484, 9808, 9809, 9818, 9817
  207143, 9476, 9477, 9486, 9485, 9809, 9810, 9819, 9818
  207144, 9478, 9479, 9488, 9487, 9811, 9812, 9821, 9820
  207145, 9479, 9480, 9489, 9488, 9812, 9813, 9822, 9821
  207146, 9480, 9481, 9490, 9489, 9813, 9814, 9823, 9822
  207147, 9481, 9482, 9491, 9490, 9814, 9815, 9824, 9823
  207148, 9482, 9483, 9492, 9491, 9815, 9816, 9825, 9824
  207149, 9483, 9484, 9493, 9492, 9816, 9817, 9826, 9825
  207150, 9484, 9485, 9494, 9493, 9817, 9818, 9827, 9826
  207151, 9485, 9486, 9495, 9494, 9818, 9819, 9828, 9827
  207152, 9487, 9488, 9497, 9496, 9820, 9821, 9830, 9829
  207153, 9488, 9489, 9498, 9497, 9821, 9822, 9831, 9830
  207154, 9489, 9490, 9499, 9498, 9822, 9823, 9832, 9831
  207155, 9490, 9491, 9500, 9499, 9823, 9824, 9833, 9832
  207156, 9491, 9492, 9501, 9500, 9824, 9825, 9834, 9833
  207157, 9492, 9493, 9502, 9501, 9825, 9826, 9835, 9834
  207158, 9493, 9494, 9503, 9502, 9826, 9827, 9836, 9835
  207159, 9494, 9495, 9504, 9503, 9827, 9828, 9837, 9836
  207160, 9496, 9497, 9506, 9505, 9829, 9830, 9839, 9838
  207161, 9497, 9498, 9507, 9506, 9830, 9831, 9840, 9839
  207162, 9498, 9499, 9508, 9507, 9831, 9832, 9841, 9840
  207163, 9499, 9500, 9509, 9508, 9832, 9833, 9842, 9841
  207164, 9500, 9501, 9510, 9509, 9833, 9834, 9843, 9842
  207165, 9501, 9502, 9511, 9510, 9834, 9835, 9844, 9843
  207166, 9502, 9503, 9512, 9511, 9835, 9836, 9845, 9844
  207167, 9503, 9504, 9513, 9512, 9836, 9837, 9846, 9845
  207168, 9505, 9506, 9515, 9514, 9838, 9839, 9848, 9847
  207169, 9506, 9507, 9516, 9515, 9839, 9840, 9849, 9848
  207170, 9507, 9508, 9517, 9516, 9840, 9841, 9850, 9849
  207171, 9508, 9509, 9518, 9517, 9841, 9842, 9851, 9850
  207172, 9509, 9510, 9519, 9518, 9842, 9843, 9852, 9851
  207173, 9510, 9511, 9520, 9519, 9843, 9844, 9853, 9852
  207174, 9511, 9512, 9521, 9520, 9844, 9845, 9854, 9853
  207175, 9512, 9513, 9522, 9521, 9845, 9846, 9855, 9854
  207176, 9514, 9515, 9524, 9523, 9847, 9848, 9857, 9856
  207177, 9515, 9516, 9525, 9524, 9848, 9849, 9858, 9857
  207178, 9516, 9517, 9526, 9525, 9849, 9850, 9859, 9858
  207179, 9517, 9518, 9527, 9526, 9850, 9851, 9860, 9859
  207180, 9518, 9519, 9528, 9527, 9851, 9852, 9861, 9860
  207181, 9519, 9520, 9529, 9528, 9852, 9853, 9862, 9861
  207182, 9520, 9521, 9530, 9529, 9853, 9854, 9863, 9862
  207183, 9521, 9522, 9531, 9530, 9854, 9855, 9864, 9863
  207184, 9523, 9524, 9533, 9532, 9856, 9857, 9866, 9865
  207185, 9524, 9525, 9534, 9533, 9857, 9858, 9867, 9866
  207186, 9525, 9526, 9535, 9534, 9858, 9859, 9868, 9867
  207187, 9526, 9527, 9536, 9535, 9859, 9860, 9869, 9868
  207188, 9527, 9528, 9537, 9536, 9860, 9861, 9870, 9869
  207189, 9528, 9529, 9538, 9537, 9861, 9862, 9871, 9870
  207190, 9529, 9530, 9539, 9538, 9862, 9863, 9872, 9871
  207191, 9530, 9531, 9540, 9539, 9863, 9864, 9873, 9872
  207192, 9532, 9533, 9542, 9541, 9865, 9866, 9875, 9874
  207193, 9533, 9534, 9543, 9542, 9866, 9867, 9876, 9875
  207194, 9534, 9535, 9544, 9543, 9867, 9868, 9877, 9876
  207195, 9535, 9536, 9545, 9544, 9868, 9869, 9878, 9877
  207196, 9536, 9537, 9546, 9545, 9869, 9870, 9879, 9878
  207197, 9537, 9538, 9547, 9546, 9870, 9871, 9880, 9879
  207198, 9538, 9539, 9548, 9547, 9871, 9872, 9881, 9880
  207199, 9539, 9540, 9549, 9548, 9872, 9873, 9882, 9881
  207200, 9550, 9551, 9560, 9559, 9883, 9884, 9893, 9892
  207201, 9551, 9552, 9561, 9560, 9884, 9885, 9894, 9893
  207202, 9552, 9553, 9562, 9561, 9885, 9886, 9895, 9894
  207203, 9553, 9554, 9563, 9562, 9886, 9887, 9896, 9895
  207204, 9554, 9555, 9564, 9563, 9887, 9888, 9897, 9896
  207205, 9555, 9556, 9565, 9564, 9888, 9889, 9898, 9897
  207206, 9556, 9557, 9566, 9565, 9889, 9890, 9899, 9898
  207207, 9557, 9558, 9567, 9566, 9890, 9891, 9900, 9899
  207208, 9559, 9560, 9569, 9568, 9892, 9893, 9902, 9901
  207209, 9560, 9561, 9570, 9569, 9893, 9894, 9903, 9902
  207210, 9561, 9562, 9571, 9570, 9894, 9895, 9904, 9903
  207211, 9562, 9563, 9572, 9571, 9895, 9896, 9905, 9904
  207212, 9563, 9564, 9573, 9572, 9896, 9897, 9906, 9905
  207213, 9564, 9565, 9574, 9573, 9897, 9898, 9907, 9906
  207214, 9565, 9566, 9575, 9574, 9898, 9899, 9908, 9907
  207215, 9566, 9567, 9576, 9575, 9899, 9900, 9909, 9908
  207216, 9568, 9569, 9578, 9577, 9901, 9902, 9911, 9910
  207217, 9569, 9570, 9579, 9578, 9902, 9903, 9912, 9911
  207218, 9570, 9571, 9580, 9579, 9903, 9904, 9913, 9912
  207219, 9571, 9572, 9581, 9580, 9904, 9905, 9914, 9913
  207220, 9572, 9573, 9582, 9581, 9905, 9906, 9915, 9914
  207221, 9573, 9574, 9583, 9582, 9906, 9907, 9916, 9915
  207222, 9574, 9575, 9584, 9583, 9907, 9908, 9917, 9916
  207223, 9575, 9576, 9585, 9584, 9908, 9909, 9918, 9917
  207224, 9577, 9578, 9587, 9586, 9910, 9911, 9920, 9919
  207225, 9578, 9579, 9588, 9587, 9911, 9912, 9921, 9920
  207226, 9579, 9580, 9589, 9588, 9912, 9913, 9922, 9921
  207227, 9580, 9581, 9590, 9589, 9913, 9914, 9923, 9922
  207228, 9581, 9582, 9591, 9590, 9914, 9915, 9924, 9923
  207229, 9582, 9583, 9592, 9591, 9915, 9916, 9925, 9924
  207230, 9583, 9584, 9593, 9592, 9916, 9917, 9926, 9925
  207231, 9584, 9585, 9594, 9593, 9917, 9918, 9927, 9926
  207232, 9586, 9587, 9596, 9595, 9919, 9920, 9929, 9928
  207233, 9587, 9588, 9597, 9596, 9920, 9921, 9930, 9929
  207234, 9588, 9589, 9598, 9597, 9921, 9922, 9931, 9930
  207235, 9589, 9590, 9599, 9598, 9922, 9923, 9932, 9931
  207236, 9590, 9591, 9600, 9599, 9923, 9924, 9933, 9932
  207237, 9591, 9592, 9601, 9600, 9924, 9925, 9934, 9933
  207238, 9592, 9593, 9602, 9601, 9925, 9926, 9935, 9934
  207239, 9593, 9594, 9603, 9602, 9926, 9927, 9936, 9935
  207240, 9595, 9596, 9605, 9604, 9928, 9929, 9938, 9937
  207241, 9596, 9597, 9606, 9605, 9929, 9930, 9939, 9938
  207242, 9597, 9598, 9607, 9606, 9930, 9931, 9940, 9939
  207243, 9598, 9599, 9608, 9607, 9931, 9932, 9941, 9940
  207244, 9599, 9600, 9609, 9608, 9932, 9933, 9942, 9941
  207245, 9600, 9601, 9610, 9609, 9933, 9934, 9943, 9942
  207246, 9601, 9602, 9611, 9610, 9934, 9935, 9944, 9943
  207247, 9602, 9603, 9612, 9611, 9935, 9936, 9945, 9944
  207248, 9604, 9605, 9614, 9613, 9937, 9938, 9947, 9946
  207249, 9605, 9606, 9615, 9614, 9938, 9939, 9948, 9947
  207250, 9606, 9607, 9616, 9615, 9939, 9940, 9949, 9948
  207251, 9607, 9608, 9617, 9616, 9940, 9941, 9950, 9949
  207252, 9608, 9609, 9618, 9617, 9941, 9942, 9951, 9950
  207253, 9609, 9610, 9619, 9618, 9942, 9943, 9952, 9951
  207254, 9610, 9611, 9620, 9619, 9943, 9944, 9953, 9952
  207255, 9611, 9612, 9621, 9620, 9944, 9945, 9954, 9953
  207256, 9613, 9614, 9623, 9622, 9946, 9947, 9956, 9955
  207257, 9614, 9615, 9624, 9623, 9947, 9948, 9957, 9956
  207258, 9615, 9616, 9625, 9624, 9948, 9949, 9958, 9957
  207259, 9616, 9617, 9626, 9625, 9949, 9950, 9959, 9958
  207260, 9617, 9618, 9627, 9626, 9950, 9951, 9960, 9959
  207261, 9618, 9619, 9628, 9627, 9951, 9952, 9961, 9960
  207262, 9619, 9620, 9629, 9628, 9952, 9953, 9962, 9961
  207263, 9620, 9621, 9630, 9629, 9953, 9954, 9963, 9962
  207264, 9622, 9623, 9632, 9631, 9955, 9956, 9965, 9964
  207265, 9623, 9624, 9633, 9632, 9956, 9957, 9966, 9965
  207266, 9624, 9625, 9634, 9633, 9957, 9958, 9967, 9966
  207267, 9625, 9626, 9635, 9634, 9958, 9959, 9968, 9967
  207268, 9626, 9627, 9636, 9635, 9959, 9960, 9969, 9968
  207269, 9627, 9628, 9637, 9636, 9960, 9961, 9970, 9969
  207270, 9628, 9629, 9638, 9637, 9961, 9962, 9971, 9970
  207271, 9629, 9630, 9639, 9638, 9962, 9963, 9972, 9971
  207272, 9631, 9632, 9641, 9640, 9964, 9965, 9974, 9973
  207273, 9632, 9633, 9642, 9641, 9965, 9966, 9975, 9974
  207274, 9633, 9634, 9643, 9642, 9966, 9967, 9976, 9975
  207275, 9634, 9635, 9644, 9643, 9967, 9968, 9977, 9976
  207276, 9635, 9636, 9645, 9644, 9968, 9969, 9978, 9977
  207277, 9636, 9637, 9646, 9645, 9969, 9970, 9979, 9978
  207278, 9637, 9638, 9647, 9646, 9970, 9971, 9980, 9979
  207279, 9638, 9639, 9648, 9647, 9971, 9972, 9981, 9980
  207280, 9640, 9641, 9650, 9649, 9973, 9974, 9983, 9982
  207281, 9641, 9642, 9651, 9650, 9974, 9975, 9984, 9983
  207282, 9642, 9643, 9652, 9651, 9975, 9976, 9985, 9984
  207283, 9643, 9644, 9653, 9652, 9976, 9977, 9986, 9985
  207284, 9644, 9645, 9654, 9653, 9977, 9978, 9987, 9986
  207285, 9645, 9646, 9655, 9654, 9978, 9979, 9988, 9987
  207286, 9646, 9647, 9656, 9655, 9979, 9980, 9989, 9988
  207287, 9647, 9648, 9657, 9656, 9980, 9981, 9990, 9989
  207288, 9649, 9650, 9659, 9658, 9982, 9983, 9992, 9991
  207289, 9650, 9651, 9660, 9659, 9983, 9984, 9993, 9992
  207290, 9651, 9652, 9661, 9660, 9984, 9985, 9994, 9993
  207291, 9652, 9653, 9662, 9661, 9985, 9986, 9995, 9994
  207292, 9653, 9654, 9663, 9662, 9986, 9987, 9996, 9995
  207293, 9654, 9655, 9664, 9663, 9987, 9988, 9997, 9996
  207294, 9655, 9656, 9665, 9664, 9988, 9989, 9998, 9997
  207295, 9656, 9657, 9666, 9665, 9989, 9990, 9999, 9998
  207296, 9658, 9659, 9668, 9667, 9991, 9992, 10001, 10000
  207297, 9659, 9660, 9669, 9668, 9992, 9993, 10002, 10001
  207298, 9660, 9661, 9670, 9669, 9993, 9994, 10003, 10002
  207299, 9661, 9662, 9671, 9670, 9994, 9995, 10004, 10003
  207300, 9662, 9663, 9672, 9671, 9995, 9996, 10005, 10004
  207301, 9663, 9664, 9673, 9672, 9996, 9997, 10006, 10005
  207302, 9664, 9665, 9674, 9673, 9997, 9998, 10007, 10006
  207303, 9665, 9666, 9675, 9674, 9998, 9999, 10008, 10007
  207304, 9667, 9668, 9677, 9676, 10000, 10001, 10010, 10009
  207305, 9668, 9669, 9678, 9677, 10001, 10002, 10011, 10010
  207306, 9669, 9670, 9679, 9678, 10002, 10003, 10012, 10011
  207307, 9670, 9671, 9680, 9679, 10003, 10004, 10013, 10012
  207308, 9671, 9672, 9681, 9680, 10004, 10005, 10014, 10013
  207309, 9672, 9673, 9682, 9681, 10005, 10006, 10015, 10014
  207310, 9673, 9674, 9683, 9682, 10006, 10007, 10016, 10015
  207311, 9674, 9675, 9684, 9683, 10007, 10008, 10017, 10016
  207312, 9676, 9677, 9686, 9685, 10009, 10010, 10019, 10018
  207313, 9677, 9678, 9687, 9686, 10010, 10011, 10020, 10019
  207314, 9678, 9679, 9688, 9687, 10011, 10012, 10021, 10020
  207315, 9679, 9680, 9689, 9688, 10012, 10013, 10022, 10021
  207316, 9680, 9681, 9690, 9689, 10013, 10014, 10023, 10022
  207317, 9681, 9682, 9691, 9690, 10014, 10015, 10024, 10023
  207318, 9682, 9683, 9692, 9691, 10015, 10016, 10025, 10024
  207319, 9683, 9684, 9693, 9692, 10016, 10017, 10026, 10025
  207320, 9685, 9686, 9695, 9694, 10018, 10019, 10028, 10027
  207321, 9686, 9687, 9696, 9695, 10019, 10020, 10029, 10028
  207322, 9687, 9688, 9697, 9696, 10020, 10021, 10030, 10029
  207323, 9688, 9689, 9698, 9697, 10021, 10022, 10031, 10030
  207324, 9689, 9690, 9699, 9698, 10022, 10023, 10032, 10031
  207325, 9690, 9691, 9700, 9699, 10023, 10024, 10033, 10032
  207326, 9691, 9692, 9701, 9700, 10024, 10025, 10034, 10033
  207327, 9692, 9693, 9702, 9701, 10025, 10026, 10035, 10034
  207328, 9694, 9695, 9704, 9703, 10027, 10028, 10037, 10036
  207329, 9695, 9696, 9705, 9704, 10028, 10029, 10038, 10037
  207330, 9696, 9697, 9706, 9705, 10029, 10030, 10039, 10038
  207331, 9697, 9698, 9707, 9706, 10030, 10031, 10040, 10039
  207332, 9698, 9699, 9708, 9707, 10031, 10032, 10041, 10040
  207333, 9699, 9700, 9709, 9708, 10032, 10033, 10042, 10041
  207334, 9700, 9701, 9710, 9709, 10033, 10034, 10043, 10042
  207335, 9701, 9702, 9711, 9710, 10034, 10035, 10044, 10043
  207336, 9703, 9704, 9713, 9712, 10036, 10037, 10046, 10045
  207337, 9704, 9705, 9714, 9713, 10037, 10038, 10047, 10046
  207338, 9705, 9706, 9715, 9714, 10038, 10039, 10048, 10047
  207339, 9706, 9707, 9716, 9715, 10039, 10040, 10049, 10048
  207340, 9707, 9708, 9717, 9716, 10040, 10041, 10050, 10049
  207341, 9708, 9709, 9718, 9717, 10041, 10042, 10051, 10050
  207342, 9709, 9710, 9719, 9718, 10042, 10043, 10052, 10051
  207343, 9710, 9711, 9720, 9719, 10043, 10044, 10053, 10052
  207344, 9712, 9713, 9722, 9721, 10045, 10046, 10055, 10054
  207345, 9713, 9714, 9723, 9722, 10046, 10047, 10056, 10055
  207346, 9714, 9715, 9724, 9723, 10047, 10048, 10057, 10056
  207347, 9715, 9716, 9725, 9724, 10048, 10049, 10058, 10057
  207348, 9716, 9717, 9726, 9725, 10049, 10050, 10059, 10058
  207349, 9717, 9718, 9727, 9726, 10050, 10051, 10060, 10059
  207350, 9718, 9719, 9728, 9727, 10051, 10052, 10061, 10060
  207351, 9719, 9720, 9729, 9728, 10052, 10053, 10062, 10061
  207352, 9721, 9722, 9731, 9730, 10054, 10055, 10064, 10063
  207353, 9722, 9723, 9732, 9731, 10055, 10056, 10065, 10064
  207354, 9723, 9724, 9733, 9732, 10056, 10057, 10066, 10065
  207355, 9724, 9725, 9734, 9733, 10057, 10058, 10067, 10066
  207356, 9725, 9726, 9735, 9734, 10058, 10059, 10068, 10067
  207357, 9726, 9727, 9736, 9735, 10059, 10060, 10069, 10068
  207358, 9727, 9728, 9737, 9736, 10060, 10061, 10070, 10069
  207359, 9728, 9729, 9738, 9737, 10061, 10062, 10071, 10070
  207360, 9730, 9731, 9740, 9739, 10063, 10064, 10073, 10072
  207361, 9731, 9732, 9741, 9740, 10064, 10065, 10074, 10073
  207362, 9732, 9733, 9742, 9741, 10065, 10066, 10075, 10074
  207363, 9733, 9734, 9743, 9742, 10066, 10067, 10076, 10075
  207364, 9734, 9735, 9744, 9743, 10067, 10068, 10077, 10076
  207365, 9735, 9736, 9745, 9744, 10068, 10069, 10078, 10077
  207366, 9736, 9737, 9746, 9745, 10069, 10070, 10079, 10078
  207367, 9737, 9738, 9747, 9746, 10070, 10071, 10080, 10079
  207368, 9739, 9740, 9749, 9748, 10072, 10073, 10082, 10081
  207369, 9740, 9741, 9750, 9749, 10073, 10074, 10083, 10082
  207370, 9741, 9742, 9751, 9750, 10074, 10075, 10084, 10083
  207371, 9742, 9743, 9752, 9751, 10075, 10076, 10085, 10084
  207372, 9743, 9744, 9753, 9752, 10076, 10077, 10086, 10085
  207373, 9744, 9745, 9754, 9753, 10077, 10078, 10087, 10086
  207374, 9745, 9746, 9755, 9754, 10078, 10079, 10088, 10087
  207375, 9746, 9747, 9756, 9755, 10079, 10080, 10089, 10088
  207376, 9748, 9749, 9758, 9757, 10081, 10082, 10091, 10090
  207377, 9749, 9750, 9759, 9758, 10082, 10083, 10092, 10091
  207378, 9750, 9751, 9760, 9759, 10083, 10084, 10093, 10092
  207379, 9751, 9752, 9761, 9760, 10084, 10085, 10094, 10093
  207380, 9752, 9753, 9762, 9761, 10085, 10086, 10095, 10094
  207381, 9753, 9754, 9763, 9762, 10086, 10087, 10096, 10095
  207382, 9754, 9755, 9764, 9763, 10087, 10088, 10097, 10096
  207383, 9755, 9756, 9765, 9764, 10088, 10089, 10098, 10097
  207384, 9757, 9758, 9767, 9766, 10090, 10091, 10100, 10099
  207385, 9758, 9759, 9768, 9767, 10091, 10092, 10101, 10100
  207386, 9759, 9760, 9769, 9768, 10092, 10093, 10102, 10101
  207387, 9760, 9761, 9770, 9769, 10093, 10094, 10103, 10102
  207388, 9761, 9762, 9771, 9770, 10094, 10095, 10104, 10103
  207389, 9762, 9763, 9772, 9771, 10095, 10096, 10105, 10104
  207390, 9763, 9764, 9773, 9772, 10096, 10097, 10106, 10105
  207391, 9764, 9765, 9774, 9773, 10097, 10098, 10107, 10106
  207392, 9766, 9767, 9776, 9775, 10099, 10100, 10109, 10108
  207393, 9767, 9768, 9777, 9776, 10100, 10101, 10110, 10109
  207394, 9768, 9769, 9778, 9777, 10101, 10102, 10111, 10110
  207395, 9769, 9770, 9779, 9778, 10102, 10103, 10112, 10111
  207396, 9770, 9771, 9780, 9779, 10103, 10104, 10113, 10112
  207397, 9771, 9772, 9781, 9780, 10104, 10105, 10114, 10113
  207398, 9772, 9773, 9782, 9781, 10105, 10106, 10115, 10114
  207399, 9773, 9774, 9783, 9782, 10106, 10107, 10116, 10115
  207400, 9775, 9776, 9785, 9784, 10108, 10109, 10118, 10117
  207401, 9776, 9777, 9786, 9785, 10109, 10110, 10119, 10118
  207402, 9777, 9778, 9787, 9786, 10110, 10111, 10120, 10119
  207403, 9778, 9779, 9788, 9787, 10111, 10112, 10121, 10120
  207404, 9779, 9780, 9789, 9788, 10112, 10113, 10122, 10121
  207405, 9780, 9781, 9790, 9789, 10113, 10114, 10123, 10122
  207406, 9781, 9782, 9791, 9790, 10114, 10115, 10124, 10123
  207407, 9782, 9783, 9792, 9791, 10115, 10116, 10125, 10124
  207408, 9784, 9785, 9794, 9793, 10117, 10118, 10127, 10126
  207409, 9785, 9786, 9795, 9794, 10118, 10119, 10128, 10127
  207410, 9786, 9787, 9796, 9795, 10119, 10120, 10129, 10128
  207411, 9787, 9788, 9797, 9796, 10120, 10121, 10130, 10129
  207412, 9788, 9789, 9798, 9797, 10121, 10122, 10131, 10130
  207413, 9789, 9790, 9799, 9798, 10122, 10123, 10132, 10131
  207414, 9790, 9791, 9800, 9799, 10123, 10124, 10133, 10132
  207415, 9791, 9792, 9801, 9800, 10124, 10125, 10134, 10133
  207416, 9793, 9794, 9803, 9802, 10126, 10127, 10136, 10135
  207417, 9794, 9795, 9804, 9803, 10127, 10128, 10137, 10136
  207418, 9795, 9796, 9805, 9804, 10128, 10129, 10138, 10137
  207419, 9796, 9797, 9806, 9805, 10129, 10130, 10139, 10138
  207420, 9797, 9798, 9807, 9806, 10130, 10131, 10140, 10139
  207421, 9798, 9799, 9808, 9807, 10131, 10132, 10141, 10140
  207422, 9799, 9800, 9809, 9808, 10132, 10133, 10142, 10141
  207423, 9800, 9801, 9810, 9809, 10133, 10134, 10143, 10142
  207424, 9802, 9803, 9812, 9811, 10135, 10136, 10145, 10144
  207425, 9803, 9804, 9813, 9812, 10136, 10137, 10146, 10145
  207426, 9804, 9805, 9814, 9813, 10137, 10138, 10147, 10146
  207427, 9805, 9806, 9815, 9814, 10138, 10139, 10148, 10147
  207428, 9806, 9807, 9816, 9815, 10139, 10140, 10149, 10148
  207429, 9807, 9808, 9817, 9816, 10140, 10141, 10150, 10149
  207430, 9808, 9809, 9818, 9817, 10141, 10142, 10151, 10150
  207431, 9809, 9810, 9819, 9818, 10142, 10143, 10152, 10151
  207432, 9811, 9812, 9821, 9820, 10144, 10145, 10154, 10153
  207433, 9812, 9813, 9822, 9821, 10145, 10146, 10155, 10154
  207434, 9813, 9814, 9823, 9822, 10146, 10147, 10156, 10155
  207435, 9814, 9815, 9824, 9823, 10147, 10148, 10157, 10156
  207436, 9815, 9816, 9825, 9824, 10148, 10149, 10158, 10157
  207437, 9816, 9817, 9826, 9825, 10149, 10150, 10159, 10158
  207438, 9817, 9818, 9827, 9826, 10150, 10151, 10160, 10159
  207439, 9818, 9819, 9828, 9827, 10151, 10152, 10161, 10160
  207440, 9820, 9821, 9830, 9829, 10153, 10154, 10163, 10162
  207441, 9821, 9822, 9831, 9830, 10154, 10155, 10164, 10163
  207442, 9822, 9823, 9832, 9831, 10155, 10156, 10165, 10164
  207443, 9823, 9824, 9833, 9832, 10156, 10157, 10166, 10165
  207444, 9824, 9825, 9834, 9833, 10157, 10158, 10167, 10166
  207445, 9825, 9826, 9835, 9834, 10158, 10159, 10168, 10167
  207446, 9826, 9827, 9836, 9835, 10159, 10160, 10169, 10168
  207447, 9827, 9828, 9837, 9836, 10160, 10161, 10170, 10169
  207448, 9829, 9830, 9839, 9838, 10162, 10163, 10172, 10171
  207449, 9830, 9831, 9840, 9839, 10163, 10164, 10173, 10172
  207450, 9831, 9832, 9841, 9840, 10164, 10165, 10174, 10173
  207451, 9832, 9833, 9842, 9841, 10165, 10166, 10175, 10174
  207452, 9833, 9834, 9843, 9842, 10166, 10167, 10176, 10175
  207453, 9834, 9835, 9844, 9843, 10167, 10168, 10177, 10176
  207454, 9835, 9836, 9845, 9844, 10168, 10169, 10178, 10177
  207455, 9836, 9837, 9846, 9845, 10169, 10170, 10179, 10178
  207456, 9838, 9839, 9848, 9847, 10171, 10172, 10181, 10180
  207457, 9839, 9840, 9849, 9848, 10172, 10173, 10182, 10181
  207458, 9840, 9841, 9850, 9849, 10173, 10174, 10183, 10182
  207459, 9841, 9842, 9851, 9850, 10174, 10175, 10184, 10183
  207460, 9842, 9843, 9852, 9851, 10175, 10176, 10185, 10184
  207461, 9843, 9844, 9853, 9852, 10176, 10177, 10186, 10185
  207462, 9844, 9845, 9854, 9853, 10177, 10178, 10187, 10186
  207463, 9845, 9846, 9855, 9854, 10178, 10179, 10188, 10187
  207464, 9847, 9848, 9857, 9856, 10180, 10181, 10190, 10189
  207465, 9848, 9849, 9858, 9857, 10181, 10182, 10191, 10190
  207466, 9849, 9850, 9859, 9858, 10182, 10183, 10192, 10191
  207467, 9850, 9851, 9860, 9859, 10183, 10184, 10193, 10192
  207468, 9851, 9852, 9861, 9860, 10184, 10185, 10194, 10193
  207469, 9852, 9853, 9862, 9861, 10185, 10186, 10195, 10194
  207470, 9853, 9854, 9863, 9862, 10186, 10187, 10196, 10195
  207471, 9854, 9855, 9864, 9863, 10187, 10188, 10197, 10196
  207472, 9856, 9857, 9866, 9865, 10189, 10190, 10199, 10198
  207473, 9857, 9858, 9867, 9866, 10190, 10191, 10200, 10199
  207474, 9858, 9859, 9868, 9867, 10191, 10192, 10201, 10200
  207475, 9859, 9860, 9869, 9868, 10192, 10193, 10202, 10201
  207476, 9860, 9861, 9870, 9869, 10193, 10194, 10203, 10202
  207477, 9861, 9862, 9871, 9870, 10194, 10195, 10204, 10203
  207478, 9862, 9863, 9872, 9871, 10195, 10196, 10205, 10204
  207479, 9863, 9864, 9873, 9872, 10196, 10197, 10206, 10205
  207480, 9865, 9866, 9875, 9874, 10198, 10199, 10208, 10207
  207481, 9866, 9867, 9876, 9875, 10199, 10200, 10209, 10208
  207482, 9867, 9868, 9877, 9876, 10200, 10201, 10210, 10209
  207483, 9868, 9869, 9878, 9877, 10201, 10202, 10211, 10210
  207484, 9869, 9870, 9879, 9878, 10202, 10203, 10212, 10211
  207485, 9870, 9871, 9880, 9879, 10203, 10204, 10213, 10212
  207486, 9871, 9872, 9881, 9880, 10204, 10205, 10214, 10213
  207487, 9872, 9873, 9882, 9881, 10205, 10206, 10215, 10214
  207488, 9883, 9884, 9893, 9892, 10216, 10217, 10226, 10225
  207489, 9884, 9885, 9894, 9893, 10217, 10218, 10227, 10226
  207490, 9885, 9886, 9895, 9894, 10218, 10219, 10228, 10227
  207491, 9886, 9887, 9896, 9895, 10219, 10220, 10229, 10228
  207492, 9887, 9888, 9897, 9896, 10220, 10221, 10230, 10229
  207493, 9888, 9889, 9898, 9897, 10221, 10222, 10231, 10230
  207494, 9889, 9890, 9899, 9898, 10222, 10223, 10232, 10231
  207495, 9890, 9891, 9900, 9899, 10223, 10224, 10233, 10232
  207496, 9892, 9893, 9902, 9901, 10225, 10226, 10235, 10234
  207497, 9893, 9894, 9903, 9902, 10226, 10227, 10236, 10235
  207498, 9894, 9895, 9904, 9903, 10227, 10228, 10237, 10236
  207499, 9895, 9896, 9905, 9904, 10228, 10229, 10238, 10237
  207500, 9896, 9897, 9906, 9905, 10229, 10230, 10239, 10238
  207501, 9897, 9898, 9907, 9906, 10230, 10231, 10240, 10239
  207502, 9898, 9899, 9908, 9907, 10231, 10232, 10241, 10240
  207503, 9899, 9900, 9909, 9908, 10232, 10233, 10242, 10241
  207504, 9901, 9902, 9911, 9910, 10234, 10235, 10244, 10243
  207505, 9902, 9903, 9912, 9911, 10235, 10236, 10245, 10244
  207506, 9903, 9904, 9913, 9912, 10236, 10237, 10246, 10245
  207507, 9904, 9905, 9914, 9913, 10237, 10238, 10247, 10246
  207508, 9905, 9906, 9915, 9914, 10238, 10239, 10248, 10247
  207509, 9906, 9907, 9916, 9915, 10239, 10240, 10249, 10248
  207510, 9907, 9908, 9917, 9916, 10240, 10241, 10250, 10249
  207511, 9908, 9909, 9918, 9917, 10241, 10242, 10251, 10250
  207512, 9910, 9911, 9920, 9919, 10243, 10244, 10253, 10252
  207513, 9911, 9912, 9921, 9920, 10244, 10245, 10254, 10253
  207514, 9912, 9913, 9922, 9921, 10245, 10246, 10255, 10254
  207515, 9913, 9914, 9923, 9922, 10246, 10247, 10256, 10255
  207516, 9914, 9915, 9924, 9923, 10247, 10248, 10257, 10256
  207517, 9915, 9916, 9925, 9924, 10248, 10249, 10258, 10257
  207518, 9916, 9917, 9926, 9925, 10249, 10250, 10259, 10258
  207519, 9917, 9918, 9927, 9926, 10250, 10251, 10260, 10259
  207520, 9919, 9920, 9929, 9928, 10252, 10253, 10262, 10261
  207521, 9920, 9921, 9930, 9929, 10253, 10254, 10263, 10262
  207522, 9921, 9922, 9931, 9930, 10254, 10255, 10264, 10263
  207523, 9922, 9923, 9932, 9931, 10255, 10256, 10265, 10264
  207524, 9923, 9924, 9933, 9932, 10256, 10257, 10266, 10265
  207525, 9924, 9925, 9934, 9933, 10257, 10258, 10267, 10266
  207526, 9925, 9926, 9935, 9934, 10258, 10259, 10268, 10267
  207527, 9926, 9927, 9936, 9935, 10259, 10260, 10269, 10268
  207528, 9928, 9929, 9938, 9937, 10261, 10262, 10271, 10270
  207529, 9929, 9930, 9939, 9938, 10262, 10263, 10272, 10271
  207530, 9930, 9931, 9940, 9939, 10263, 10264, 10273, 10272
  207531, 9931, 9932, 9941, 9940, 10264, 10265, 10274, 10273
  207532, 9932, 9933, 9942, 9941, 10265, 10266, 10275, 10274
  207533, 9933, 9934, 9943, 9942, 10266, 10267, 10276, 10275
  207534, 9934, 9935, 9944, 9943, 10267, 10268, 10277, 10276
  207535, 9935, 9936, 9945, 9944, 10268, 10269, 10278, 10277
  207536, 9937, 9938, 9947, 9946, 10270, 10271, 10280, 10279
  207537, 9938, 9939, 9948, 9947, 10271, 10272, 10281, 10280
  207538, 9939, 9940, 9949, 9948, 10272, 10273, 10282, 10281
  207539, 9940, 9941, 9950, 9949, 10273, 10274, 10283, 10282
  207540, 9941, 9942, 9951, 9950, 10274, 10275, 10284, 10283
  207541, 9942, 9943, 9952, 9951, 10275, 10276, 10285, 10284
  207542, 9943, 9944, 9953, 9952, 10276, 10277, 10286, 10285
  207543, 9944, 9945, 9954, 9953, 10277, 10278, 10287, 10286
  207544, 9946, 9947, 9956, 9955, 10279, 10280, 10289, 10288
  207545, 9947, 9948, 9957, 9956, 10280, 10281, 10290, 10289
  207546, 9948, 9949, 9958, 9957, 10281, 10282, 10291, 10290
  207547, 9949, 9950, 9959, 9958, 10282, 10283, 10292, 10291
  207548, 9950, 9951, 9960, 9959, 10283, 10284, 10293, 10292
  207549, 9951, 9952, 9961, 9960, 10284, 10285, 10294, 10293
  207550, 9952, 9953, 9962, 9961, 10285, 10286, 10295, 10294
  207551, 9953, 9954, 9963, 9962, 10286, 10287, 10296, 10295
  207552, 9955, 9956, 9965, 9964, 10288, 10289, 10298, 10297
  207553, 9956, 9957, 9966, 9965, 10289, 10290, 10299, 10298
  207554, 9957, 9958, 9967, 9966, 10290, 10291, 10300, 10299
  207555, 9958, 9959, 9968, 9967, 10291, 10292, 10301, 10300
  207556, 9959, 9960, 9969, 9968, 10292, 10293, 10302, 10301
  207557, 9960, 9961, 9970, 9969, 10293, 10294, 10303, 10302
  207558, 9961, 9962, 9971, 9970, 10294, 10295, 10304, 10303
  207559, 9962, 9963, 9972, 9971, 10295, 10296, 10305, 10304
  207560, 9964, 9965, 9974, 9973, 10297, 10298, 10307, 10306
  207561, 9965, 9966, 9975, 9974, 10298, 10299, 10308, 10307
  207562, 9966, 9967, 9976, 9975, 10299, 10300, 10309, 10308
  207563, 9967, 9968, 9977, 9976, 10300, 10301, 10310, 10309
  207564, 9968, 9969, 9978, 9977, 10301, 10302, 10311, 10310
  207565, 9969, 9970, 9979, 9978, 10302, 10303, 10312, 10311
  207566, 9970, 9971, 9980, 9979, 10303, 10304, 10313, 10312
  207567, 9971, 9972, 9981, 9980, 10304, 10305, 10314, 10313
  207568, 9973, 9974, 9983, 9982, 10306, 10307, 10316, 10315
  207569, 9974, 9975, 9984, 9983, 10307, 10308, 10317, 10316
  207570, 9975, 9976, 9985, 9984, 10308, 10309, 10318, 10317
  207571, 9976, 9977, 9986, 9985, 10309, 10310, 10319, 10318
  207572, 9977, 9978, 9987, 9986, 10310, 10311, 10320, 10319
  207573, 9978, 9979, 9988, 9987, 10311, 10312, 10321, 10320
  207574, 9979, 9980, 9989, 9988, 10312, 10313, 10322, 10321
  207575, 9980, 9981, 9990, 9989, 10313, 10314, 10323, 10322
  207576, 9982, 9983, 9992, 9991, 10315, 10316, 10325, 10324
  207577, 9983, 9984, 9993, 9992, 10316, 10317, 10326, 10325
  207578, 9984, 9985, 9994, 9993, 10317, 10318, 10327, 10326
  207579, 9985, 9986, 9995, 9994, 10318, 10319, 10328, 10327
  207580, 9986, 9987, 9996, 9995, 10319, 10320, 10329, 10328
  207581, 9987, 9988, 9997, 9996, 10320, 10321, 10330, 10329
  207582, 9988, 9989, 9998, 9997, 10321, 10322, 10331, 10330
  207583, 9989, 9990, 9999, 9998, 10322, 10323, 10332, 10331
  207584, 9991, 9992, 10001, 10000, 10324, 10325, 10334, 10333
  207585, 9992, 9993, 10002, 10001, 10325, 10326, 10335, 10334
  207586, 9993, 9994, 10003, 10002, 10326, 10327, 10336, 10335
  207587, 9994, 9995, 10004, 10003, 10327, 10328, 10337, 10336
  207588, 9995, 9996, 10005, 10004, 10328, 10329, 10338, 10337
  207589, 9996, 9997, 10006, 10005, 10329, 10330, 10339, 10338
  207590, 9997, 9998, 10007, 10006, 10330, 10331, 10340, 10339
  207591, 9998, 9999, 10008, 10007, 10331, 10332, 10341, 10340
  207592, 10000, 10001, 10010, 10009, 10333, 10334, 10343, 10342
  207593, 10001, 10002, 10011, 10010, 10334, 10335, 10344, 10343
  207594, 10002, 10003, 10012, 10011, 10335, 10336, 10345, 10344
  207595, 10003, 10004, 10013, 10012, 10336, 10337, 10346, 10345
  207596, 10004, 10005, 10014, 10013, 10337, 10338, 10347, 10346
  207597, 10005, 10006, 10015, 10014, 10338, 10339, 10348, 10347
  207598, 10006, 10007, 10016, 10015, 10339, 10340, 10349, 10348
  207599, 10007, 10008, 10017, 10016, 10340, 10341, 10350, 10349
  207600, 10009, 10010, 10019, 10018, 10342, 10343, 10352, 10351
  207601, 10010, 10011, 10020, 10019, 10343, 10344, 10353, 10352
  207602, 10011, 10012, 10021, 10020, 10344, 10345, 10354, 10353
  207603, 10012, 10013, 10022, 10021, 10345, 10346, 10355, 10354
  207604, 10013, 10014, 10023, 10022, 10346, 10347, 10356, 10355
  207605, 10014, 10015, 10024, 10023, 10347, 10348, 10357, 10356
  207606, 10015, 10016, 10025, 10024, 10348, 10349, 10358, 10357
  207607, 10016, 10017, 10026, 10025, 10349, 10350, 10359, 10358
  207608, 10018, 10019, 10028, 10027, 10351, 10352, 10361, 10360
  207609, 10019, 10020, 10029, 10028, 10352, 10353, 10362, 10361
  207610, 10020, 10021, 10030, 10029, 10353, 10354, 10363, 10362
  207611, 10021, 10022, 10031, 10030, 10354, 10355, 10364, 10363
  207612, 10022, 10023, 10032, 10031, 10355, 10356, 10365, 10364
  207613, 10023, 10024, 10033, 10032, 10356, 10357, 10366, 10365
  207614, 10024, 10025, 10034, 10033, 10357, 10358, 10367, 10366
  207615, 10025, 10026, 10035, 10034, 10358, 10359, 10368, 10367
  207616, 10027, 10028, 10037, 10036, 10360, 10361, 10370, 10369
  207617, 10028, 10029, 10038, 10037, 10361, 10362, 10371, 10370
  207618, 10029, 10030, 10039, 10038, 10362, 10363, 10372, 10371
  207619, 10030, 10031, 10040, 10039, 10363, 10364, 10373, 10372
  207620, 10031, 10032, 10041, 10040, 10364, 10365, 10374, 10373
  207621, 10032, 10033, 10042, 10041, 10365, 10366, 10375, 10374
  207622, 10033, 10034, 10043, 10042, 10366, 10367, 10376, 10375
  207623, 10034, 10035, 10044, 10043, 10367, 10368, 10377, 10376
  207624, 10036, 10037, 10046, 10045, 10369, 10370, 10379, 10378
  207625, 10037, 10038, 10047, 10046, 10370, 10371, 10380, 10379
  207626, 10038, 10039, 10048, 10047, 10371, 10372, 10381, 10380
  207627, 10039, 10040, 10049, 10048, 10372, 10373, 10382, 10381
  207628, 10040, 10041, 10050, 10049, 10373, 10374, 10383, 10382
  207629, 10041, 10042, 10051, 10050, 10374, 10375, 10384, 10383
  207630, 10042, 10043, 10052, 10051, 10375, 10376, 10385, 10384
  207631, 10043, 10044, 10053, 10052, 10376, 10377, 10386, 10385
  207632, 10045, 10046, 10055, 10054, 10378, 10379, 10388, 10387
  207633, 10046, 10047, 10056, 10055, 10379, 10380, 10389, 10388
  207634, 10047, 10048, 10057, 10056, 10380, 10381, 10390, 10389
  207635, 10048, 10049, 10058, 10057, 10381, 10382, 10391, 10390
  207636, 10049, 10050, 10059, 10058, 10382, 10383, 10392, 10391
  207637, 10050, 10051, 10060, 10059, 10383, 10384, 10393, 10392
  207638, 10051, 10052, 10061, 10060, 10384, 10385, 10394, 10393
  207639, 10052, 10053, 10062, 10061, 10385, 10386, 10395, 10394
  207640, 10054, 10055, 10064, 10063, 10387, 10388, 10397, 10396
  207641, 10055, 10056, 10065, 10064, 10388, 10389, 10398, 10397
  207642, 10056, 10057, 10066, 10065, 10389, 10390, 10399, 10398
  207643, 10057, 10058, 10067, 10066, 10390, 10391, 10400, 10399
  207644, 10058, 10059, 10068, 10067, 10391, 10392, 10401, 10400
  207645, 10059, 10060, 10069, 10068, 10392, 10393, 10402, 10401
  207646, 10060, 10061, 10070, 10069, 10393, 10394, 10403, 10402
  207647, 10061, 10062, 10071, 10070, 10394, 10395, 10404, 10403
  207648, 10063, 10064, 10073, 10072, 10396, 10397, 10406, 10405
  207649, 10064, 10065, 10074, 10073, 10397, 10398, 10407, 10406
  207650, 10065, 10066, 10075, 10074, 10398, 10399, 10408, 10407
  207651, 10066, 10067, 10076, 10075, 10399, 10400, 10409, 10408
  207652, 10067, 10068, 10077, 10076, 10400, 10401, 10410, 10409
  207653, 10068, 10069, 10078, 10077, 10401, 10402, 10411, 10410
  207654, 10069, 10070, 10079, 10078, 10402, 10403, 10412, 10411
  207655, 10070, 10071, 10080, 10079, 10403, 10404, 10413, 10412
  207656, 10072, 10073, 10082, 10081, 10405, 10406, 10415, 10414
  207657, 10073, 10074, 10083, 10082, 10406, 10407, 10416, 10415
  207658, 10074, 10075, 10084, 10083, 10407, 10408, 10417, 10416
  207659, 10075, 10076, 10085, 10084, 10408, 10409, 10418, 10417
  207660, 10076, 10077, 10086, 10085, 10409, 10410, 10419, 10418
  207661, 10077, 10078, 10087, 10086, 10410, 10411, 10420, 10419
  207662, 10078, 10079, 10088, 10087, 10411, 10412, 10421, 10420
  207663, 10079, 10080, 10089, 10088, 10412, 10413, 10422, 10421
  207664, 10081, 10082, 10091, 10090, 10414, 10415, 10424, 10423
  207665, 10082, 10083, 10092, 10091, 10415, 10416, 10425, 10424
  207666, 10083, 10084, 10093, 10092, 10416, 10417, 10426, 10425
  207667, 10084, 10085, 10094, 10093, 10417, 10418, 10427, 10426
  207668, 10085, 10086, 10095, 10094, 10418, 10419, 10428, 10427
  207669, 10086, 10087, 10096, 10095, 10419, 10420, 10429, 10428
  207670, 10087, 10088, 10097, 10096, 10420, 10421, 10430, 10429
  207671, 10088, 10089, 10098, 10097, 10421, 10422, 10431, 10430
  207672, 10090, 10091, 10100, 10099, 10423, 10424, 10433, 10432
  207673, 10091, 10092, 10101, 10100, 10424, 10425, 10434, 10433
  207674, 10092, 10093, 10102, 10101, 10425, 10426, 10435, 10434
  207675, 10093, 10094, 10103, 10102, 10426, 10427, 10436, 10435
  207676, 10094, 10095, 10104, 10103, 10427, 10428, 10437, 10436
  207677, 10095, 10096, 10105, 10104, 10428, 10429, 10438, 10437
  207678, 10096, 10097, 10106, 10105, 10429, 10430, 10439, 10438
  207679, 10097, 10098, 10107, 10106, 10430, 10431, 10440, 10439
  207680, 10099, 10100, 10109, 10108, 10432, 10433, 10442, 10441
  207681, 10100, 10101, 10110, 10109, 10433, 10434, 10443, 10442
  207682, 10101, 10102, 10111, 10110, 10434, 10435, 10444, 10443
  207683, 10102, 10103, 10112, 10111, 10435, 10436, 10445, 10444
  207684, 10103, 10104, 10113, 10112, 10436, 10437, 10446, 10445
  207685, 10104, 10105, 10114, 10113, 10437, 10438, 10447, 10446
  207686, 10105, 10106, 10115, 10114, 10438, 10439, 10448, 10447
  207687, 10106, 10107, 10116, 10115, 10439, 10440, 10449, 10448
  207688, 10108, 10109, 10118, 10117, 10441, 10442, 10451, 10450
  207689, 10109, 10110, 10119, 10118, 10442, 10443, 10452, 10451
  207690, 10110, 10111, 10120, 10119, 10443, 10444, 10453, 10452
  207691, 10111, 10112, 10121, 10120, 10444, 10445, 10454, 10453
  207692, 10112, 10113, 10122, 10121, 10445, 10446, 10455, 10454
  207693, 10113, 10114, 10123, 10122, 10446, 10447, 10456, 10455
  207694, 10114, 10115, 10124, 10123, 10447, 10448, 10457, 10456
  207695, 10115, 10116, 10125, 10124, 10448, 10449, 10458, 10457
  207696, 10117, 10118, 10127, 10126, 10450, 10451, 10460, 10459
  207697, 10118, 10119, 10128, 10127, 10451, 10452, 10461, 10460
  207698, 10119, 10120, 10129, 10128, 10452, 10453, 10462, 10461
  207699, 10120, 10121, 10130, 10129, 10453, 10454, 10463, 10462
  207700, 10121, 10122, 10131, 10130, 10454, 10455, 10464, 10463
  207701, 10122, 10123, 10132, 10131, 10455, 10456, 10465, 10464
  207702, 10123, 10124, 10133, 10132, 10456, 10457, 10466, 10465
  207703, 10124, 10125, 10134, 10133, 10457, 10458, 10467, 10466
  207704, 10126, 10127, 10136, 10135, 10459, 10460, 10469, 10468
  207705, 10127, 10128, 10137, 10136, 10460, 10461, 10470, 10469
  207706, 10128, 10129, 10138, 10137, 10461, 10462, 10471, 10470
  207707, 10129, 10130, 10139, 10138, 10462, 10463, 10472, 10471
  207708, 10130, 10131, 10140, 10139, 10463, 10464, 10473, 10472
  207709, 10131, 10132, 10141, 10140, 10464, 10465, 10474, 10473
  207710, 10132, 10133, 10142, 10141, 10465, 10466, 10475, 10474
  207711, 10133, 10134, 10143, 10142, 10466, 10467, 10476, 10475
  207712, 10135, 10136, 10145, 10144, 10468, 10469, 10478, 10477
  207713, 10136, 10137, 10146, 10145, 10469, 10470, 10479, 10478
  207714, 10137, 10138, 10147, 10146, 10470, 10471, 10480, 10479
  207715, 10138, 10139, 10148, 10147, 10471, 10472, 10481, 10480
  207716, 10139, 10140, 10149, 10148, 10472, 10473, 10482, 10481
  207717, 10140, 10141, 10150, 10149, 10473, 10474, 10483, 10482
  207718, 10141, 10142, 10151, 10150, 10474, 10475, 10484, 10483
  207719, 10142, 10143, 10152, 10151, 10475, 10476, 10485, 10484
  207720, 10144, 10145, 10154, 10153, 10477, 10478, 10487, 10486
  207721, 10145, 10146, 10155, 10154, 10478, 10479, 10488, 10487
  207722, 10146, 10147, 10156, 10155, 10479, 10480, 10489, 10488
  207723, 10147, 10148, 10157, 10156, 10480, 10481, 10490, 10489
  207724, 10148, 10149, 10158, 10157, 10481, 10482, 10491, 10490
  207725, 10149, 10150, 10159, 10158, 10482, 10483, 10492, 10491
  207726, 10150, 10151, 10160, 10159, 10483, 10484, 10493, 10492
  207727, 10151, 10152, 10161, 10160, 10484, 10485, 10494, 10493
  207728, 10153, 10154, 10163, 10162, 10486, 10487, 10496, 10495
  207729, 10154, 10155, 10164, 10163, 10487, 10488, 10497, 10496
  207730, 10155, 10156, 10165, 10164, 10488, 10489, 10498, 10497
  207731, 10156, 10157, 10166, 10165, 10489, 10490, 10499, 10498
  207732, 10157, 10158, 10167, 10166, 10490, 10491, 10500, 10499
  207733, 10158, 10159, 10168, 10167, 10491, 10492, 10501, 10500
  207734, 10159, 10160, 10169, 10168, 10492, 10493, 10502, 10501
  207735, 10160, 10161, 10170, 10169, 10493, 10494, 10503, 10502
  207736, 10162, 10163, 10172, 10171, 10495, 10496, 10505, 10504
  207737, 10163, 10164, 10173, 10172, 10496, 10497, 10506, 10505
  207738, 10164, 10165, 10174, 10173, 10497, 10498, 10507, 10506
  207739, 10165, 10166, 10175, 10174, 10498, 10499, 10508, 10507
  207740, 10166, 10167, 10176, 10175, 10499, 10500, 10509, 10508
  207741, 10167, 10168, 10177, 10176, 10500, 10501, 10510, 10509
  207742, 10168, 10169, 10178, 10177, 10501, 10502, 10511, 10510
  207743, 10169, 10170, 10179, 10178, 10502, 10503, 10512, 10511
  207744, 10171, 10172, 10181, 10180, 10504, 10505, 10514, 10513
  207745, 10172, 10173, 10182, 10181, 10505, 10506, 10515, 10514
  207746, 10173, 10174, 10183, 10182, 10506, 10507, 10516, 10515
  207747, 10174, 10175, 10184, 10183, 10507, 10508, 10517, 10516
  207748, 10175, 10176, 10185, 10184, 10508, 10509, 10518, 10517
  207749, 10176, 10177, 10186, 10185, 10509, 10510, 10519, 10518
  207750, 10177, 10178, 10187, 10186, 10510, 10511, 10520, 10519
  207751, 10178, 10179, 10188, 10187, 10511, 10512, 10521, 10520
  207752, 10180, 10181, 10190, 10189, 10513, 10514, 10523, 10522
  207753, 10181, 10182, 10191, 10190, 10514, 10515, 10524, 10523
  207754, 10182, 10183, 10192, 10191, 10515, 10516, 10525, 10524
  207755, 10183, 10184, 10193, 10192, 10516, 10517, 10526, 10525
  207756, 10184, 10185, 10194, 10193, 10517, 10518, 10527, 10526
  207757, 10185, 10186, 10195, 10194, 10518, 10519, 10528, 10527
  207758, 10186, 10187, 10196, 10195, 10519, 10520, 10529, 10528
  207759, 10187, 10188, 10197, 10196, 10520, 10521, 10530, 10529
  207760, 10189, 10190, 10199, 10198, 10522, 10523, 10532, 10531
  207761, 10190, 10191, 10200, 10199, 10523, 10524, 10533, 10532
  207762, 10191, 10192, 10201, 10200, 10524, 10525, 10534, 10533
  207763, 10192, 10193, 10202, 10201, 10525, 10526, 10535, 10534
  207764, 10193, 10194, 10203, 10202, 10526, 10527, 10536, 10535
  207765, 10194, 10195, 10204, 10203, 10527, 10528, 10537, 10536
  207766, 10195, 10196, 10205, 10204, 10528, 10529, 10538, 10537
  207767, 10196, 10197, 10206, 10205, 10529, 10530, 10539, 10538
  207768, 10198, 10199, 10208, 10207, 10531, 10532, 10541, 10540
  207769, 10199, 10200, 10209, 10208, 10532, 10533, 10542, 10541
  207770, 10200, 10201, 10210, 10209, 10533, 10534, 10543, 10542
  207771, 10201, 10202, 10211, 10210, 10534, 10535, 10544, 10543
  207772, 10202, 10203, 10212, 10211, 10535, 10536, 10545, 10544
  207773, 10203, 10204, 10213, 10212, 10536, 10537, 10546, 10545
  207774, 10204, 10205, 10214, 10213, 10537, 10538, 10547, 10546
  207775, 10205, 10206, 10215, 10214, 10538, 10539, 10548, 10547
  207776, 10216, 10217, 10226, 10225, 10549, 10550, 10559, 10558
  207777, 10217, 10218, 10227, 10226, 10550, 10551, 10560, 10559
  207778, 10218, 10219, 10228, 10227, 10551, 10552, 10561, 10560
  207779, 10219, 10220, 10229, 10228, 10552, 10553, 10562, 10561
  207780, 10220, 10221, 10230, 10229, 10553, 10554, 10563, 10562
  207781, 10221, 10222, 10231, 10230, 10554, 10555, 10564, 10563
  207782, 10222, 10223, 10232, 10231, 10555, 10556, 10565, 10564
  207783, 10223, 10224, 10233, 10232, 10556, 10557, 10566, 10565
  207784, 10225, 10226, 10235, 10234, 10558, 10559, 10568, 10567
  207785, 10226, 10227, 10236, 10235, 10559, 10560, 10569, 10568
  207786, 10227, 10228, 10237, 10236, 10560, 10561, 10570, 10569
  207787, 10228, 10229, 10238, 10237, 10561, 10562, 10571, 10570
  207788, 10229, 10230, 10239, 10238, 10562, 10563, 10572, 10571
  207789, 10230, 10231, 10240, 10239, 10563, 10564, 10573, 10572
  207790, 10231, 10232, 10241, 10240, 10564, 10565, 10574, 10573
  207791, 10232, 10233, 10242, 10241, 10565, 10566, 10575, 10574
  207792, 10234, 10235, 10244, 10243, 10567, 10568, 10577, 10576
  207793, 10235, 10236, 10245, 10244, 10568, 10569, 10578, 10577
  207794, 10236, 10237, 10246, 10245, 10569, 10570, 10579, 10578
  207795, 10237, 10238, 10247, 10246, 10570, 10571, 10580, 10579
  207796, 10238, 10239, 10248, 10247, 10571, 10572, 10581, 10580
  207797, 10239, 10240, 10249, 10248, 10572, 10573, 10582, 10581
  207798, 10240, 10241, 10250, 10249, 10573, 10574, 10583, 10582
  207799, 10241, 10242, 10251, 10250, 10574, 10575, 10584, 10583
  207800, 10243, 10244, 10253, 10252, 10576, 10577, 10586, 10585
  207801, 10244, 10245, 10254, 10253, 10577, 10578, 10587, 10586
  207802, 10245, 10246, 10255, 10254, 10578, 10579, 10588, 10587
  207803, 10246, 10247, 10256, 10255, 10579, 10580, 10589, 10588
  207804, 10247, 10248, 10257, 10256, 10580, 10581, 10590, 10589
  207805, 10248, 10249, 10258, 10257, 10581, 10582, 10591, 10590
  207806, 10249, 10250, 10259, 10258, 10582, 10583, 10592, 10591
  207807, 10250, 10251, 10260, 10259, 10583, 10584, 10593, 10592
  207808, 10252, 10253, 10262, 10261, 10585, 10586, 10595, 10594
  207809, 10253, 10254, 10263, 10262, 10586, 10587, 10596, 10595
  207810, 10254, 10255, 10264, 10263, 10587, 10588, 10597, 10596
  207811, 10255, 10256, 10265, 10264, 10588, 10589, 10598, 10597
  207812, 10256, 10257, 10266, 10265, 10589, 10590, 10599, 10598
  207813, 10257, 10258, 10267, 10266, 10590, 10591, 10600, 10599
  207814, 10258, 10259, 10268, 10267, 10591, 10592, 10601, 10600
  207815, 10259, 10260, 10269, 10268, 10592, 10593, 10602, 10601
  207816, 10261, 10262, 10271, 10270, 10594, 10595, 10604, 10603
  207817, 10262, 10263, 10272, 10271, 10595, 10596, 10605, 10604
  207818, 10263, 10264, 10273, 10272, 10596, 10597, 10606, 10605
  207819, 10264, 10265, 10274, 10273, 10597, 10598, 10607, 10606
  207820, 10265, 10266, 10275, 10274, 10598, 10599, 10608, 10607
  207821, 10266, 10267, 10276, 10275, 10599, 10600, 10609, 10608
  207822, 10267, 10268, 10277, 10276, 10600, 10601, 10610, 10609
  207823, 10268, 10269, 10278, 10277, 10601, 10602, 10611, 10610
  207824, 10270, 10271, 10280, 10279, 10603, 10604, 10613, 10612
  207825, 10271, 10272, 10281, 10280, 10604, 10605, 10614, 10613
  207826, 10272, 10273, 10282, 10281, 10605, 10606, 10615, 10614
  207827, 10273, 10274, 10283, 10282, 10606, 10607, 10616, 10615
  207828, 10274, 10275, 10284, 10283, 10607, 10608, 10617, 10616
  207829, 10275, 10276, 10285, 10284, 10608, 10609, 10618, 10617
  207830, 10276, 10277, 10286, 10285, 10609, 10610, 10619, 10618
  207831, 10277, 10278, 10287, 10286, 10610, 10611, 10620, 10619
  207832, 10279, 10280, 10289, 10288, 10612, 10613, 10622, 10621
  207833, 10280, 10281, 10290, 10289, 10613, 10614, 10623, 10622
  207834, 10281, 10282, 10291, 10290, 10614, 10615, 10624, 10623
  207835, 10282, 10283, 10292, 10291, 10615, 10616, 10625, 10624
  207836, 10283, 10284, 10293, 10292, 10616, 10617, 10626, 10625
  207837, 10284, 10285, 10294, 10293, 10617, 10618, 10627, 10626
  207838, 10285, 10286, 10295, 10294, 10618, 10619, 10628, 10627
  207839, 10286, 10287, 10296, 10295, 10619, 10620, 10629, 10628
  207840, 10288, 10289, 10298, 10297, 10621, 10622, 10631, 10630
  207841, 10289, 10290, 10299, 10298, 10622, 10623, 10632, 10631
  207842, 10290, 10291, 10300, 10299, 10623, 10624, 10633, 10632
  207843, 10291, 10292, 10301, 10300, 10624, 10625, 10634, 10633
  207844, 10292, 10293, 10302, 10301, 10625, 10626, 10635, 10634
  207845, 10293, 10294, 10303, 10302, 10626, 10627, 10636, 10635
  207846, 10294, 10295, 10304, 10303, 10627, 10628, 10637, 10636
  207847, 10295, 10296, 10305, 10304, 10628, 10629, 10638, 10637
  207848, 10297, 10298, 10307, 10306, 10630, 10631, 10640, 10639
  207849, 10298, 10299, 10308, 10307, 10631, 10632, 10641, 10640
  207850, 10299, 10300, 10309, 10308, 10632, 10633, 10642, 10641
  207851, 10300, 10301, 10310, 10309, 10633, 10634, 10643, 10642
  207852, 10301, 10302, 10311, 10310, 10634, 10635, 10644, 10643
  207853, 10302, 10303, 10312, 10311, 10635, 10636, 10645, 10644
  207854, 10303, 10304, 10313, 10312, 10636, 10637, 10646, 10645
  207855, 10304, 10305, 10314, 10313, 10637, 10638, 10647, 10646
  207856, 10306, 10307, 10316, 10315, 10639, 10640, 10649, 10648
  207857, 10307, 10308, 10317, 10316, 10640, 10641, 10650, 10649
  207858, 10308, 10309, 10318, 10317, 10641, 10642, 10651, 10650
  207859, 10309, 10310, 10319, 10318, 10642, 10643, 10652, 10651
  207860, 10310, 10311, 10320, 10319, 10643, 10644, 10653, 10652
  207861, 10311, 10312, 10321, 10320, 10644, 10645, 10654, 10653
  207862, 10312, 10313, 10322, 10321, 10645, 10646, 10655, 10654
  207863, 10313, 10314, 10323, 10322, 10646, 10647, 10656, 10655
  207864, 10315, 10316, 10325, 10324, 10648, 10649, 10658, 10657
  207865, 10316, 10317, 10326, 10325, 10649, 10650, 10659, 10658
  207866, 10317, 10318, 10327, 10326, 10650, 10651, 10660, 10659
  207867, 10318, 10319, 10328, 10327, 10651, 10652, 10661, 10660
  207868, 10319, 10320, 10329, 10328, 10652, 10653, 10662, 10661
  207869, 10320, 10321, 10330, 10329, 10653, 10654, 10663, 10662
  207870, 10321, 10322, 10331, 10330, 10654, 10655, 10664, 10663
  207871, 10322, 10323, 10332, 10331, 10655, 10656, 10665, 10664
  207872, 10324, 10325, 10334, 10333, 10657, 10658, 10667, 10666
  207873, 10325, 10326, 10335, 10334, 10658, 10659, 10668, 10667
  207874, 10326, 10327, 10336, 10335, 10659, 10660, 10669, 10668
  207875, 10327, 10328, 10337, 10336, 10660, 10661, 10670, 10669
  207876, 10328, 10329, 10338, 10337, 10661, 10662, 10671, 10670
  207877, 10329, 10330, 10339, 10338, 10662, 10663, 10672, 10671
  207878, 10330, 10331, 10340, 10339, 10663, 10664, 10673, 10672
  207879, 10331, 10332, 10341, 10340, 10664, 10665, 10674, 10673
  207880, 10333, 10334, 10343, 10342, 10666, 10667, 10676, 10675
  207881, 10334, 10335, 10344, 10343, 10667, 10668, 10677, 10676
  207882, 10335, 10336, 10345, 10344, 10668, 10669, 10678, 10677
  207883, 10336, 10337, 10346, 10345, 10669, 10670, 10679, 10678
  207884, 10337, 10338, 10347, 10346, 10670, 10671, 10680, 10679
  207885, 10338, 10339, 10348, 10347, 10671, 10672, 10681, 10680
  207886, 10339, 10340, 10349, 10348, 10672, 10673, 10682, 10681
  207887, 10340, 10341, 10350, 10349, 10673, 10674, 10683, 10682
  207888, 10342, 10343, 10352, 10351, 10675, 10676, 10685, 10684
  207889, 10343, 10344, 10353, 10352, 10676, 10677, 10686, 10685
  207890, 10344, 10345, 10354, 10353, 10677, 10678, 10687, 10686
  207891, 10345, 10346, 10355, 10354, 10678, 10679, 10688, 10687
  207892, 10346, 10347, 10356, 10355, 10679, 10680, 10689, 10688
  207893, 10347, 10348, 10357, 10356, 10680, 10681, 10690, 10689
  207894, 10348, 10349, 10358, 10357, 10681, 10682, 10691, 10690
  207895, 10349, 10350, 10359, 10358, 10682, 10683, 10692, 10691
  207896, 10351, 10352, 10361, 10360, 10684, 10685, 10694, 10693
  207897, 10352, 10353, 10362, 10361, 10685, 10686, 10695, 10694
  207898, 10353, 10354, 10363, 10362, 10686, 10687, 10696, 10695
  207899, 10354, 10355, 10364, 10363, 10687, 10688, 10697, 10696
  207900, 10355, 10356, 10365, 10364, 10688, 10689, 10698, 10697
  207901, 10356, 10357, 10366, 10365, 10689, 10690, 10699, 10698
  207902, 10357, 10358, 10367, 10366, 10690, 10691, 10700, 10699
  207903, 10358, 10359, 10368, 10367, 10691, 10692, 10701, 10700
  207904, 10360, 10361, 10370, 10369, 10693, 10694, 10703, 10702
  207905, 10361, 10362, 10371, 10370, 10694, 10695, 10704, 10703
  207906, 10362, 10363, 10372, 10371, 10695, 10696, 10705, 10704
  207907, 10363, 10364, 10373, 10372, 10696, 10697, 10706, 10705
  207908, 10364, 10365, 10374, 10373, 10697, 10698, 10707, 10706
  207909, 10365, 10366, 10375, 10374, 10698, 10699, 10708, 10707
  207910, 10366, 10367, 10376, 10375, 10699, 10700, 10709, 10708
  207911, 10367, 10368, 10377, 10376, 10700, 10701, 10710, 10709
  207912, 10369, 10370, 10379, 10378, 10702, 10703, 10712, 10711
  207913, 10370, 10371, 10380, 10379, 10703, 10704, 10713, 10712
  207914, 10371, 10372, 10381, 10380, 10704, 10705, 10714, 10713
  207915, 10372, 10373, 10382, 10381, 10705, 10706, 10715, 10714
  207916, 10373, 10374, 10383, 10382, 10706, 10707, 10716, 10715
  207917, 10374, 10375, 10384, 10383, 10707, 10708, 10717, 10716
  207918, 10375, 10376, 10385, 10384, 10708, 10709, 10718, 10717
  207919, 10376, 10377, 10386, 10385, 10709, 10710, 10719, 10718
  207920, 10378, 10379, 10388, 10387, 10711, 10712, 10721, 10720
  207921, 10379, 10380, 10389, 10388, 10712, 10713, 10722, 10721
  207922, 10380, 10381, 10390, 10389, 10713, 10714, 10723, 10722
  207923, 10381, 10382, 10391, 10390, 10714, 10715, 10724, 10723
  207924, 10382, 10383, 10392, 10391, 10715, 10716, 10725, 10724
  207925, 10383, 10384, 10393, 10392, 10716, 10717, 10726, 10725
  207926, 10384, 10385, 10394, 10393, 10717, 10718, 10727, 10726
  207927, 10385, 10386, 10395, 10394, 10718, 10719, 10728, 10727
  207928, 10387, 10388, 10397, 10396, 10720, 10721, 10730, 10729
  207929, 10388, 10389, 10398, 10397, 10721, 10722, 10731, 10730
  207930, 10389, 10390, 10399, 10398, 10722, 10723, 10732, 10731
  207931, 10390, 10391, 10400, 10399, 10723, 10724, 10733, 10732
  207932, 10391, 10392, 10401, 10400, 10724, 10725, 10734, 10733
  207933, 10392, 10393, 10402, 10401, 10725, 10726, 10735, 10734
  207934, 10393, 10394, 10403, 10402, 10726, 10727, 10736, 10735
  207935, 10394, 10395, 10404, 10403, 10727, 10728, 10737, 10736
  207936, 10396, 10397, 10406, 10405, 10729, 10730, 10739, 10738
  207937, 10397, 10398, 10407, 10406, 10730, 10731, 10740, 10739
  207938, 10398, 10399, 10408, 10407, 10731, 10732, 10741, 10740
  207939, 10399, 10400, 10409, 10408, 10732, 10733, 10742, 10741
  207940, 10400, 10401, 10410, 10409, 10733, 10734, 10743, 10742
  207941, 10401, 10402, 10411, 10410, 10734, 10735, 10744, 10743
  207942, 10402, 10403, 10412, 10411, 10735, 10736, 10745, 10744
  207943, 10403, 10404, 10413, 10412, 10736, 10737, 10746, 10745
  207944, 10405, 10406, 10415, 10414, 10738, 10739, 10748, 10747
  207945, 10406, 10407, 10416, 10415, 10739, 10740, 10749, 10748
  207946, 10407, 10408, 10417, 10416, 10740, 10741, 10750, 10749
  207947, 10408, 10409, 10418, 10417, 10741, 10742, 10751, 10750
  207948, 10409, 10410, 10419, 10418, 10742, 10743, 10752, 10751
  207949, 10410, 10411, 10420, 10419, 10743, 10744, 10753, 10752
  207950, 10411, 10412, 10421, 10420, 10744, 10745, 10754, 10753
  207951, 10412, 10413, 10422, 10421, 10745, 10746, 10755, 10754
  207952, 10414, 10415, 10424, 10423, 10747, 10748, 10757, 10756
  207953, 10415, 10416, 10425, 10424, 10748, 10749, 10758, 10757
  207954, 10416, 10417, 10426, 10425, 10749, 10750, 10759, 10758
  207955, 10417, 10418, 10427, 10426, 10750, 10751, 10760, 10759
  207956, 10418, 10419, 10428, 10427, 10751, 10752, 10761, 10760
  207957, 10419, 10420, 10429, 10428, 10752, 10753, 10762, 10761
  207958, 10420, 10421, 10430, 10429, 10753, 10754, 10763, 10762
  207959, 10421, 10422, 10431, 10430, 10754, 10755, 10764, 10763
  207960, 10423, 10424, 10433, 10432, 10756, 10757, 10766, 10765
  207961, 10424, 10425, 10434, 10433, 10757, 10758, 10767, 10766
  207962, 10425, 10426, 10435, 10434, 10758, 10759, 10768, 10767
  207963, 10426, 10427, 10436, 10435, 10759, 10760, 10769, 10768
  207964, 10427, 10428, 10437, 10436, 10760, 10761, 10770, 10769
  207965, 10428, 10429, 10438, 10437, 10761, 10762, 10771, 10770
  207966, 10429, 10430, 10439, 10438, 10762, 10763, 10772, 10771
  207967, 10430, 10431, 10440, 10439, 10763, 10764, 10773, 10772
  207968, 10432, 10433, 10442, 10441, 10765, 10766, 10775, 10774
  207969, 10433, 10434, 10443, 10442, 10766, 10767, 10776, 10775
  207970, 10434, 10435, 10444, 10443, 10767, 10768, 10777, 10776
  207971, 10435, 10436, 10445, 10444, 10768, 10769, 10778, 10777
  207972, 10436, 10437, 10446, 10445, 10769, 10770, 10779, 10778
  207973, 10437, 10438, 10447, 10446, 10770, 10771, 10780, 10779
  207974, 10438, 10439, 10448, 10447, 10771, 10772, 10781, 10780
  207975, 10439, 10440, 10449, 10448, 10772, 10773, 10782, 10781
  207976, 10441, 10442, 10451, 10450, 10774, 10775, 10784, 10783
  207977, 10442, 10443, 10452, 10451, 10775, 10776, 10785, 10784
  207978, 10443, 10444, 10453, 10452, 10776, 10777, 10786, 10785
  207979, 10444, 10445, 10454, 10453, 10777, 10778, 10787, 10786
  207980, 10445, 10446, 10455, 10454, 10778, 10779, 10788, 10787
  207981, 10446, 10447, 10456, 10455, 10779, 10780, 10789, 10788
  207982, 10447, 10448, 10457, 10456, 10780, 10781, 10790, 10789
  207983, 10448, 10449, 10458, 10457, 10781, 10782, 10791, 10790
  207984, 10450, 10451, 10460, 10459, 10783, 10784, 10793, 10792
  207985, 10451, 10452, 10461, 10460, 10784, 10785, 10794, 10793
  207986, 10452, 10453, 10462, 10461, 10785, 10786, 10795, 10794
  207987, 10453, 10454, 10463, 10462, 10786, 10787, 10796, 10795
  207988, 10454, 10455, 10464, 10463, 10787, 10788, 10797, 10796
  207989, 10455, 10456, 10465, 10464, 10788, 10789, 10798, 10797
  207990, 10456, 10457, 10466, 10465, 10789, 10790, 10799, 10798
  207991, 10457, 10458, 10467, 10466, 10790, 10791, 10800, 10799
  207992, 10459, 10460, 10469, 10468, 10792, 10793, 10802, 10801
  207993, 10460, 10461, 10470, 10469, 10793, 10794, 10803, 10802
  207994, 10461, 10462, 10471, 10470, 10794, 10795, 10804, 10803
  207995, 10462, 10463, 10472, 10471, 10795, 10796, 10805, 10804
  207996, 10463, 10464, 10473, 10472, 10796, 10797, 10806, 10805
  207997, 10464, 10465, 10474, 10473, 10797, 10798, 10807, 10806
  207998, 10465, 10466, 10475, 10474, 10798, 10799, 10808, 10807
  207999, 10466, 10467, 10476, 10475, 10799, 10800, 10809, 10808
  208000, 10468, 10469, 10478, 10477, 10801, 10802, 10811, 10810
  208001, 10469, 10470, 10479, 10478, 10802, 10803, 10812, 10811
  208002, 10470, 10471, 10480, 10479, 10803, 10804, 10813, 10812
  208003, 10471, 10472, 10481, 10480, 10804, 10805, 10814, 10813
  208004, 10472, 10473, 10482, 10481, 10805, 10806, 10815, 10814
  208005, 10473, 10474, 10483, 10482, 10806, 10807, 10816, 10815
  208006, 10474, 10475, 10484, 10483, 10807, 10808, 10817, 10816
  208007, 10475, 10476, 10485, 10484, 10808, 10809, 10818, 10817
  208008, 10477, 10478, 10487, 10486, 10810, 10811, 10820, 10819
  208009, 10478, 10479, 10488, 10487, 10811, 10812, 10821, 10820
  208010, 10479, 10480, 10489, 10488, 10812, 10813, 10822, 10821
  208011, 10480, 10481, 10490, 10489, 10813, 10814, 10823, 10822
  208012, 10481, 10482, 10491, 10490, 10814, 10815, 10824, 10823
  208013, 10482, 10483, 10492, 10491, 10815, 10816, 10825, 10824
  208014, 10483, 10484, 10493, 10492, 10816, 10817, 10826, 10825
  208015, 10484, 10485, 10494, 10493, 10817, 10818, 10827, 10826
  208016, 10486, 10487, 10496, 10495, 10819, 10820, 10829, 10828
  208017, 10487, 10488, 10497, 10496, 10820, 10821, 10830, 10829
  208018, 10488, 10489, 10498, 10497, 10821, 10822, 10831, 10830
  208019, 10489, 10490, 10499, 10498, 10822, 10823, 10832, 10831
  208020, 10490, 10491, 10500, 10499, 10823, 10824, 10833, 10832
  208021, 10491, 10492, 10501, 10500, 10824, 10825, 10834, 10833
  208022, 10492, 10493, 10502, 10501, 10825, 10826, 10835, 10834
  208023, 10493, 10494, 10503, 10502, 10826, 10827, 10836, 10835
  208024, 10495, 10496, 10505, 10504, 10828, 10829, 10838, 10837
  208025, 10496, 10497, 10506, 10505, 10829, 10830, 10839, 10838
  208026, 10497, 10498, 10507, 10506, 10830, 10831, 10840, 10839
  208027, 10498, 10499, 10508, 10507, 10831, 10832, 10841, 10840
  208028, 10499, 10500, 10509, 10508, 10832, 10833, 10842, 10841
  208029, 10500, 10501, 10510, 10509, 10833, 10834, 10843, 10842
  208030, 10501, 10502, 10511, 10510, 10834, 10835, 10844, 10843
  208031, 10502, 10503, 10512, 10511, 10835, 10836, 10845, 10844
  208032, 10504, 10505, 10514, 10513, 10837, 10838, 10847, 10846
  208033, 10505, 10506, 10515, 10514, 10838, 10839, 10848, 10847
  208034, 10506, 10507, 10516, 10515, 10839, 10840, 10849, 10848
  208035, 10507, 10508, 10517, 10516, 10840, 10841, 10850, 10849
  208036, 10508, 10509, 10518, 10517, 10841, 10842, 10851, 10850
  208037, 10509, 10510, 10519, 10518, 10842, 10843, 10852, 10851
  208038, 10510, 10511, 10520, 10519, 10843, 10844, 10853, 10852
  208039, 10511, 10512, 10521, 10520, 10844, 10845, 10854, 10853
  208040, 10513, 10514, 10523, 10522, 10846, 10847, 10856, 10855
  208041, 10514, 10515, 10524, 10523, 10847, 10848, 10857, 10856
  208042, 10515, 10516, 10525, 10524, 10848, 10849, 10858, 10857
  208043, 10516, 10517, 10526, 10525, 10849, 10850, 10859, 10858
  208044, 10517, 10518, 10527, 10526, 10850, 10851, 10860, 10859
  208045, 10518, 10519, 10528, 10527, 10851, 10852, 10861, 10860
  208046, 10519, 10520, 10529, 10528, 10852, 10853, 10862, 10861
  208047, 10520, 10521, 10530, 10529, 10853, 10854, 10863, 10862
  208048, 10522, 10523, 10532, 10531, 10855, 10856, 10865, 10864
  208049, 10523, 10524, 10533, 10532, 10856, 10857, 10866, 10865
  208050, 10524, 10525, 10534, 10533, 10857, 10858, 10867, 10866
  208051, 10525, 10526, 10535, 10534, 10858, 10859, 10868, 10867
  208052, 10526, 10527, 10536, 10535, 10859, 10860, 10869, 10868
  208053, 10527, 10528, 10537, 10536, 10860, 10861, 10870, 10869
  208054, 10528, 10529, 10538, 10537, 10861, 10862, 10871, 10870
  208055, 10529, 10530, 10539, 10538, 10862, 10863, 10872, 10871
  208056, 10531, 10532, 10541, 10540, 10864, 10865, 10874, 10873
  208057, 10532, 10533, 10542, 10541, 10865, 10866, 10875, 10874
  208058, 10533, 10534, 10543, 10542, 10866, 10867, 10876, 10875
  208059, 10534, 10535, 10544, 10543, 10867, 10868, 10877, 10876
  208060, 10535, 10536, 10545, 10544, 10868, 10869, 10878, 10877
  208061, 10536, 10537, 10546, 10545, 10869, 10870, 10879, 10878
  208062, 10537, 10538, 10547, 10546, 10870, 10871, 10880, 10879
  208063, 10538, 10539, 10548, 10547, 10871, 10872, 10881, 10880
  208064, 10549, 10550, 10559, 10558, 10882, 10883, 10892, 10891
  208065, 10550, 10551, 10560, 10559, 10883, 10884, 10893, 10892
  208066, 10551, 10552, 10561, 10560, 10884, 10885, 10894, 10893
  208067, 10552, 10553, 10562, 10561, 10885, 10886, 10895, 10894
  208068, 10553, 10554, 10563, 10562, 10886, 10887, 10896, 10895
  208069, 10554, 10555, 10564, 10563, 10887, 10888, 10897, 10896
  208070, 10555, 10556, 10565, 10564, 10888, 10889, 10898, 10897
  208071, 10556, 10557, 10566, 10565, 10889, 10890, 10899, 10898
  208072, 10558, 10559, 10568, 10567, 10891, 10892, 10901, 10900
  208073, 10559, 10560, 10569, 10568, 10892, 10893, 10902, 10901
  208074, 10560, 10561, 10570, 10569, 10893, 10894, 10903, 10902
  208075, 10561, 10562, 10571, 10570, 10894, 10895, 10904, 10903
  208076, 10562, 10563, 10572, 10571, 10895, 10896, 10905, 10904
  208077, 10563, 10564, 10573, 10572, 10896, 10897, 10906, 10905
  208078, 10564, 10565, 10574, 10573, 10897, 10898, 10907, 10906
  208079, 10565, 10566, 10575, 10574, 10898, 10899, 10908, 10907
  208080, 10567, 10568, 10577, 10576, 10900, 10901, 10910, 10909
  208081, 10568, 10569, 10578, 10577, 10901, 10902, 10911, 10910
  208082, 10569, 10570, 10579, 10578, 10902, 10903, 10912, 10911
  208083, 10570, 10571, 10580, 10579, 10903, 10904, 10913, 10912
  208084, 10571, 10572, 10581, 10580, 10904, 10905, 10914, 10913
  208085, 10572, 10573, 10582, 10581, 10905, 10906, 10915, 10914
  208086, 10573, 10574, 10583, 10582, 10906, 10907, 10916, 10915
  208087, 10574, 10575, 10584, 10583, 10907, 10908, 10917, 10916
  208088, 10576, 10577, 10586, 10585, 10909, 10910, 10919, 10918
  208089, 10577, 10578, 10587, 10586, 10910, 10911, 10920, 10919
  208090, 10578, 10579, 10588, 10587, 10911, 10912, 10921, 10920
  208091, 10579, 10580, 10589, 10588, 10912, 10913, 10922, 10921
  208092, 10580, 10581, 10590, 10589, 10913, 10914, 10923, 10922
  208093, 10581, 10582, 10591, 10590, 10914, 10915, 10924, 10923
  208094, 10582, 10583, 10592, 10591, 10915, 10916, 10925, 10924
  208095, 10583, 10584, 10593, 10592, 10916, 10917, 10926, 10925
  208096, 10585, 10586, 10595, 10594, 10918, 10919, 10928, 10927
  208097, 10586, 10587, 10596, 10595, 10919, 10920, 10929, 10928
  208098, 10587, 10588, 10597, 10596, 10920, 10921, 10930, 10929
  208099, 10588, 10589, 10598, 10597, 10921, 10922, 10931, 10930
  208100, 10589, 10590, 10599, 10598, 10922, 10923, 10932, 10931
  208101, 10590, 10591, 10600, 10599, 10923, 10924, 10933, 10932
  208102, 10591, 10592, 10601, 10600, 10924, 10925, 10934, 10933
  208103, 10592, 10593, 10602, 10601, 10925, 10926, 10935, 10934
  208104, 10594, 10595, 10604, 10603, 10927, 10928, 10937, 10936
  208105, 10595, 10596, 10605, 10604, 10928, 10929, 10938, 10937
  208106, 10596, 10597, 10606, 10605, 10929, 10930, 10939, 10938
  208107, 10597, 10598, 10607, 10606, 10930, 10931, 10940, 10939
  208108, 10598, 10599, 10608, 10607, 10931, 10932, 10941, 10940
  208109, 10599, 10600, 10609, 10608, 10932, 10933, 10942, 10941
  208110, 10600, 10601, 10610, 10609, 10933, 10934, 10943, 10942
  208111, 10601, 10602, 10611, 10610, 10934, 10935, 10944, 10943
  208112, 10603, 10604, 10613, 10612, 10936, 10937, 10946, 10945
  208113, 10604, 10605, 10614, 10613, 10937, 10938, 10947, 10946
  208114, 10605, 10606, 10615, 10614, 10938, 10939, 10948, 10947
  208115, 10606, 10607, 10616, 10615, 10939, 10940, 10949, 10948
  208116, 10607, 10608, 10617, 10616, 10940, 10941, 10950, 10949
  208117, 10608, 10609, 10618, 10617, 10941, 10942, 10951, 10950
  208118, 10609, 10610, 10619, 10618, 10942, 10943, 10952, 10951
  208119, 10610, 10611, 10620, 10619, 10943, 10944, 10953, 10952
  208120, 10612, 10613, 10622, 10621, 10945, 10946, 10955, 10954
  208121, 10613, 10614, 10623, 10622, 10946, 10947, 10956, 10955
  208122, 10614, 10615, 10624, 10623, 10947, 10948, 10957, 10956
  208123, 10615, 10616, 10625, 10624, 10948, 10949, 10958, 10957
  208124, 10616, 10617, 10626, 10625, 10949, 10950, 10959, 10958
  208125, 10617, 10618, 10627, 10626, 10950, 10951, 10960, 10959
  208126, 10618, 10619, 10628, 10627, 10951, 10952, 10961, 10960
  208127, 10619, 10620, 10629, 10628, 10952, 10953, 10962, 10961
  208128, 10621, 10622, 10631, 10630, 10954, 10955, 10964, 10963
  208129, 10622, 10623, 10632, 10631, 10955, 10956, 10965, 10964
  208130, 10623, 10624, 10633, 10632, 10956, 10957, 10966, 10965
  208131, 10624, 10625, 10634, 10633, 10957, 10958, 10967, 10966
  208132, 10625, 10626, 10635, 10634, 10958, 10959, 10968, 10967
  208133, 10626, 10627, 10636, 10635, 10959, 10960, 10969, 10968
  208134, 10627, 10628, 10637, 10636, 10960, 10961, 10970, 10969
  208135, 10628, 10629, 10638, 10637, 10961, 10962, 10971, 10970
  208136, 10630, 10631, 10640, 10639, 10963, 10964, 10973, 10972
  208137, 10631, 10632, 10641, 10640, 10964, 10965, 10974, 10973
  208138, 10632, 10633, 10642, 10641, 10965, 10966, 10975, 10974
  208139, 10633, 10634, 10643, 10642, 10966, 10967, 10976, 10975
  208140, 10634, 10635, 10644, 10643, 10967, 10968, 10977, 10976
  208141, 10635, 10636, 10645, 10644, 10968, 10969, 10978, 10977
  208142, 10636, 10637, 10646, 10645, 10969, 10970, 10979, 10978
  208143, 10637, 10638, 10647, 10646, 10970, 10971, 10980, 10979
  208144, 10639, 10640, 10649, 10648, 10972, 10973, 10982, 10981
  208145, 10640, 10641, 10650, 10649, 10973, 10974, 10983, 10982
  208146, 10641, 10642, 10651, 10650, 10974, 10975, 10984, 10983
  208147, 10642, 10643, 10652, 10651, 10975, 10976, 10985, 10984
  208148, 10643, 10644, 10653, 10652, 10976, 10977, 10986, 10985
  208149, 10644, 10645, 10654, 10653, 10977, 10978, 10987, 10986
  208150, 10645, 10646, 10655, 10654, 10978, 10979, 10988, 10987
  208151, 10646, 10647, 10656, 10655, 10979, 10980, 10989, 10988
  208152, 10648, 10649, 10658, 10657, 10981, 10982, 10991, 10990
  208153, 10649, 10650, 10659, 10658, 10982, 10983, 10992, 10991
  208154, 10650, 10651, 10660, 10659, 10983, 10984, 10993, 10992
  208155, 10651, 10652, 10661, 10660, 10984, 10985, 10994, 10993
  208156, 10652, 10653, 10662, 10661, 10985, 10986, 10995, 10994
  208157, 10653, 10654, 10663, 10662, 10986, 10987, 10996, 10995
  208158, 10654, 10655, 10664, 10663, 10987, 10988, 10997, 10996
  208159, 10655, 10656, 10665, 10664, 10988, 10989, 10998, 10997
  208160, 10657, 10658, 10667, 10666, 10990, 10991, 11000, 10999
  208161, 10658, 10659, 10668, 10667, 10991, 10992, 11001, 11000
  208162, 10659, 10660, 10669, 10668, 10992, 10993, 11002, 11001
  208163, 10660, 10661, 10670, 10669, 10993, 10994, 11003, 11002
  208164, 10661, 10662, 10671, 10670, 10994, 10995, 11004, 11003
  208165, 10662, 10663, 10672, 10671, 10995, 10996, 11005, 11004
  208166, 10663, 10664, 10673, 10672, 10996, 10997, 11006, 11005
  208167, 10664, 10665, 10674, 10673, 10997, 10998, 11007, 11006
  208168, 10666, 10667, 10676, 10675, 10999, 11000, 11009, 11008
  208169, 10667, 10668, 10677, 10676, 11000, 11001, 11010, 11009
  208170, 10668, 10669, 10678, 10677, 11001, 11002, 11011, 11010
  208171, 10669, 10670, 10679, 10678, 11002, 11003, 11012, 11011
  208172, 10670, 10671, 10680, 10679, 11003, 11004, 11013, 11012
  208173, 10671, 10672, 10681, 10680, 11004, 11005, 11014, 11013
  208174, 10672, 10673, 10682, 10681, 11005, 11006, 11015, 11014
  208175, 10673, 10674, 10683, 10682, 11006, 11007, 11016, 11015
  208176, 10675, 10676, 10685, 10684, 11008, 11009, 11018, 11017
  208177, 10676, 10677, 10686, 10685, 11009, 11010, 11019, 11018
  208178, 10677, 10678, 10687, 10686, 11010, 11011, 11020, 11019
  208179, 10678, 10679, 10688, 10687, 11011, 11012, 11021, 11020
  208180, 10679, 10680, 10689, 10688, 11012, 11013, 11022, 11021
  208181, 10680, 10681, 10690, 10689, 11013, 11014, 11023, 11022
  208182, 10681, 10682, 10691, 10690, 11014, 11015, 11024, 11023
  208183, 10682, 10683, 10692, 10691, 11015, 11016, 11025, 11024
  208184, 10684, 10685, 10694, 10693, 11017, 11018, 11027, 11026
  208185, 10685, 10686, 10695, 10694, 11018, 11019, 11028, 11027
  208186, 10686, 10687, 10696, 10695, 11019, 11020, 11029, 11028
  208187, 10687, 10688, 10697, 10696, 11020, 11021, 11030, 11029
  208188, 10688, 10689, 10698, 10697, 11021, 11022, 11031, 11030
  208189, 10689, 10690, 10699, 10698, 11022, 11023, 11032, 11031
  208190, 10690, 10691, 10700, 10699, 11023, 11024, 11033, 11032
  208191, 10691, 10692, 10701, 10700, 11024, 11025, 11034, 11033
  208192, 10693, 10694, 10703, 10702, 11026, 11027, 11036, 11035
  208193, 10694, 10695, 10704, 10703, 11027, 11028, 11037, 11036
  208194, 10695, 10696, 10705, 10704, 11028, 11029, 11038, 11037
  208195, 10696, 10697, 10706, 10705, 11029, 11030, 11039, 11038
  208196, 10697, 10698, 10707, 10706, 11030, 11031, 11040, 11039
  208197, 10698, 10699, 10708, 10707, 11031, 11032, 11041, 11040
  208198, 10699, 10700, 10709, 10708, 11032, 11033, 11042, 11041
  208199, 10700, 10701, 10710, 10709, 11033, 11034, 11043, 11042
  208200, 10702, 10703, 10712, 10711, 11035, 11036, 11045, 11044
  208201, 10703, 10704, 10713, 10712, 11036, 11037, 11046, 11045
  208202, 10704, 10705, 10714, 10713, 11037, 11038, 11047, 11046
  208203, 10705, 10706, 10715, 10714, 11038, 11039, 11048, 11047
  208204, 10706, 10707, 10716, 10715, 11039, 11040, 11049, 11048
  208205, 10707, 10708, 10717, 10716, 11040, 11041, 11050, 11049
  208206, 10708, 10709, 10718, 10717, 11041, 11042, 11051, 11050
  208207, 10709, 10710, 10719, 10718, 11042, 11043, 11052, 11051
  208208, 10711, 10712, 10721, 10720, 11044, 11045, 11054, 11053
  208209, 10712, 10713, 10722, 10721, 11045, 11046, 11055, 11054
  208210, 10713, 10714, 10723, 10722, 11046, 11047, 11056, 11055
  208211, 10714, 10715, 10724, 10723, 11047, 11048, 11057, 11056
  208212, 10715, 10716, 10725, 10724, 11048, 11049, 11058, 11057
  208213, 10716, 10717, 10726, 10725, 11049, 11050, 11059, 11058
  208214, 10717, 10718, 10727, 10726, 11050, 11051, 11060, 11059
  208215, 10718, 10719, 10728, 10727, 11051, 11052, 11061, 11060
  208216, 10720, 10721, 10730, 10729, 11053, 11054, 11063, 11062
  208217, 10721, 10722, 10731, 10730, 11054, 11055, 11064, 11063
  208218, 10722, 10723, 10732, 10731, 11055, 11056, 11065, 11064
  208219, 10723, 10724, 10733, 10732, 11056, 11057, 11066, 11065
  208220, 10724, 10725, 10734, 10733, 11057, 11058, 11067, 11066
  208221, 10725, 10726, 10735, 10734, 11058, 11059, 11068, 11067
  208222, 10726, 10727, 10736, 10735, 11059, 11060, 11069, 11068
  208223, 10727, 10728, 10737, 10736, 11060, 11061, 11070, 11069
  208224, 10729, 10730, 10739, 10738, 11062, 11063, 11072, 11071
  208225, 10730, 10731, 10740, 10739, 11063, 11064, 11073, 11072
  208226, 10731, 10732, 10741, 10740, 11064, 11065, 11074, 11073
  208227, 10732, 10733, 10742, 10741, 11065, 11066, 11075, 11074
  208228, 10733, 10734, 10743, 10742, 11066, 11067, 11076, 11075
  208229, 10734, 10735, 10744, 10743, 11067, 11068, 11077, 11076
  208230, 10735, 10736, 10745, 10744, 11068, 11069, 11078, 11077
  208231, 10736, 10737, 10746, 10745, 11069, 11070, 11079, 11078
  208232, 10738, 10739, 10748, 10747, 11071, 11072, 11081, 11080
  208233, 10739, 10740, 10749, 10748, 11072, 11073, 11082, 11081
  208234, 10740, 10741, 10750, 10749, 11073, 11074, 11083, 11082
  208235, 10741, 10742, 10751, 10750, 11074, 11075, 11084, 11083
  208236, 10742, 10743, 10752, 10751, 11075, 11076, 11085, 11084
  208237, 10743, 10744, 10753, 10752, 11076, 11077, 11086, 11085
  208238, 10744, 10745, 10754, 10753, 11077, 11078, 11087, 11086
  208239, 10745, 10746, 10755, 10754, 11078, 11079, 11088, 11087
  208240, 10747, 10748, 10757, 10756, 11080, 11081, 11090, 11089
  208241, 10748, 10749, 10758, 10757, 11081, 11082, 11091, 11090
  208242, 10749, 10750, 10759, 10758, 11082, 11083, 11092, 11091
  208243, 10750, 10751, 10760, 10759, 11083, 11084, 11093, 11092
  208244, 10751, 10752, 10761, 10760, 11084, 11085, 11094, 11093
  208245, 10752, 10753, 10762, 10761, 11085, 11086, 11095, 11094
  208246, 10753, 10754, 10763, 10762, 11086, 11087, 11096, 11095
  208247, 10754, 10755, 10764, 10763, 11087, 11088, 11097, 11096
  208248, 10756, 10757, 10766, 10765, 11089, 11090, 11099, 11098
  208249, 10757, 10758, 10767, 10766, 11090, 11091, 11100, 11099
  208250, 10758, 10759, 10768, 10767, 11091, 11092, 11101, 11100
  208251, 10759, 10760, 10769, 10768, 11092, 11093, 11102, 11101
  208252, 10760, 10761, 10770, 10769, 11093, 11094, 11103, 11102
  208253, 10761, 10762, 10771, 10770, 11094, 11095, 11104, 11103
  208254, 10762, 10763, 10772, 10771, 11095, 11096, 11105, 11104
  208255, 10763, 10764, 10773, 10772, 11096, 11097, 11106, 11105
  208256, 10765, 10766, 10775, 10774, 11098, 11099, 11108, 11107
  208257, 10766, 10767, 10776, 10775, 11099, 11100, 11109, 11108
  208258, 10767, 10768, 10777, 10776, 11100, 11101, 11110, 11109
  208259, 10768, 10769, 10778, 10777, 11101, 11102, 11111, 11110
  208260, 10769, 10770, 10779, 10778, 11102, 11103, 11112, 11111
  208261, 10770, 10771, 10780, 10779, 11103, 11104, 11113, 11112
  208262, 10771, 10772, 10781, 10780, 11104, 11105, 11114, 11113
  208263, 10772, 10773, 10782, 10781, 11105, 11106, 11115, 11114
  208264, 10774, 10775, 10784, 10783, 11107, 11108, 11117, 11116
  208265, 10775, 10776, 10785, 10784, 11108, 11109, 11118, 11117
  208266, 10776, 10777, 10786, 10785, 11109, 11110, 11119, 11118
  208267, 10777, 10778, 10787, 10786, 11110, 11111, 11120, 11119
  208268, 10778, 10779, 10788, 10787, 11111, 11112, 11121, 11120
  208269, 10779, 10780, 10789, 10788, 11112, 11113, 11122, 11121
  208270, 10780, 10781, 10790, 10789, 11113, 11114, 11123, 11122
  208271, 10781, 10782, 10791, 10790, 11114, 11115, 11124, 11123
  208272, 10783, 10784, 10793, 10792, 11116, 11117, 11126, 11125
  208273, 10784, 10785, 10794, 10793, 11117, 11118, 11127, 11126
  208274, 10785, 10786, 10795, 10794, 11118, 11119, 11128, 11127
  208275, 10786, 10787, 10796, 10795, 11119, 11120, 11129, 11128
  208276, 10787, 10788, 10797, 10796, 11120, 11121, 11130, 11129
  208277, 10788, 10789, 10798, 10797, 11121, 11122, 11131, 11130
  208278, 10789, 10790, 10799, 10798, 11122, 11123, 11132, 11131
  208279, 10790, 10791, 10800, 10799, 11123, 11124, 11133, 11132
  208280, 10792, 10793, 10802, 10801, 11125, 11126, 11135, 11134
  208281, 10793, 10794, 10803, 10802, 11126, 11127, 11136, 11135
  208282, 10794, 10795, 10804, 10803, 11127, 11128, 11137, 11136
  208283, 10795, 10796, 10805, 10804, 11128, 11129, 11138, 11137
  208284, 10796, 10797, 10806, 10805, 11129, 11130, 11139, 11138
  208285, 10797, 10798, 10807, 10806, 11130, 11131, 11140, 11139
  208286, 10798, 10799, 10808, 10807, 11131, 11132, 11141, 11140
  208287, 10799, 10800, 10809, 10808, 11132, 11133, 11142, 11141
  208288, 10801, 10802, 10811, 10810, 11134, 11135, 11144, 11143
  208289, 10802, 10803, 10812, 10811, 11135, 11136, 11145, 11144
  208290, 10803, 10804, 10813, 10812, 11136, 11137, 11146, 11145
  208291, 10804, 10805, 10814, 10813, 11137, 11138, 11147, 11146
  208292, 10805, 10806, 10815, 10814, 11138, 11139, 11148, 11147
  208293, 10806, 10807, 10816, 10815, 11139, 11140, 11149, 11148
  208294, 10807, 10808, 10817, 10816, 11140, 11141, 11150, 11149
  208295, 10808, 10809, 10818, 10817, 11141, 11142, 11151, 11150
  208296, 10810, 10811, 10820, 10819, 11143, 11144, 11153, 11152
  208297, 10811, 10812, 10821, 10820, 11144, 11145, 11154, 11153
  208298, 10812, 10813, 10822, 10821, 11145, 11146, 11155, 11154
  208299, 10813, 10814, 10823, 10822, 11146, 11147, 11156, 11155
  208300, 10814, 10815, 10824, 10823, 11147, 11148, 11157, 11156
  208301, 10815, 10816, 10825, 10824, 11148, 11149, 11158, 11157
  208302, 10816, 10817, 10826, 10825, 11149, 11150, 11159, 11158
  208303, 10817, 10818, 10827, 10826, 11150, 11151, 11160, 11159
  208304, 10819, 10820, 10829, 10828, 11152, 11153, 11162, 11161
  208305, 10820, 10821, 10830, 10829, 11153, 11154, 11163, 11162
  208306, 10821, 10822, 10831, 10830, 11154, 11155, 11164, 11163
  208307, 10822, 10823, 10832, 10831, 11155, 11156, 11165, 11164
  208308, 10823, 10824, 10833, 10832, 11156, 11157, 11166, 11165
  208309, 10824, 10825, 10834, 10833, 11157, 11158, 11167, 11166
  208310, 10825, 10826, 10835, 10834, 11158, 11159, 11168, 11167
  208311, 10826, 10827, 10836, 10835, 11159, 11160, 11169, 11168
  208312, 10828, 10829, 10838, 10837, 11161, 11162, 11171, 11170
  208313, 10829, 10830, 10839, 10838, 11162, 11163, 11172, 11171
  208314, 10830, 10831, 10840, 10839, 11163, 11164, 11173, 11172
  208315, 10831, 10832, 10841, 10840, 11164, 11165, 11174, 11173
  208316, 10832, 10833, 10842, 10841, 11165, 11166, 11175, 11174
  208317, 10833, 10834, 10843, 10842, 11166, 11167, 11176, 11175
  208318, 10834, 10835, 10844, 10843, 11167, 11168, 11177, 11176
  208319, 10835, 10836, 10845, 10844, 11168, 11169, 11178, 11177
  208320, 10837, 10838, 10847, 10846, 11170, 11171, 11180, 11179
  208321, 10838, 10839, 10848, 10847, 11171, 11172, 11181, 11180
  208322, 10839, 10840, 10849, 10848, 11172, 11173, 11182, 11181
  208323, 10840, 10841, 10850, 10849, 11173, 11174, 11183, 11182
  208324, 10841, 10842, 10851, 10850, 11174, 11175, 11184, 11183
  208325, 10842, 10843, 10852, 10851, 11175, 11176, 11185, 11184
  208326, 10843, 10844, 10853, 10852, 11176, 11177, 11186, 11185
  208327, 10844, 10845, 10854, 10853, 11177, 11178, 11187, 11186
  208328, 10846, 10847, 10856, 10855, 11179, 11180, 11189, 11188
  208329, 10847, 10848, 10857, 10856, 11180, 11181, 11190, 11189
  208330, 10848, 10849, 10858, 10857, 11181, 11182, 11191, 11190
  208331, 10849, 10850, 10859, 10858, 11182, 11183, 11192, 11191
  208332, 10850, 10851, 10860, 10859, 11183, 11184, 11193, 11192
  208333, 10851, 10852, 10861, 10860, 11184, 11185, 11194, 11193
  208334, 10852, 10853, 10862, 10861, 11185, 11186, 11195, 11194
  208335, 10853, 10854, 10863, 10862, 11186, 11187, 11196, 11195
  208336, 10855, 10856, 10865, 10864, 11188, 11189, 11198, 11197
  208337, 10856, 10857, 10866, 10865, 11189, 11190, 11199, 11198
  208338, 10857, 10858, 10867, 10866, 11190, 11191, 11200, 11199
  208339, 10858, 10859, 10868, 10867, 11191, 11192, 11201, 11200
  208340, 10859, 10860, 10869, 10868, 11192, 11193, 11202, 11201
  208341, 10860, 10861, 10870, 10869, 11193, 11194, 11203, 11202
  208342, 10861, 10862, 10871, 10870, 11194, 11195, 11204, 11203
  208343, 10862, 10863, 10872, 10871, 11195, 11196, 11205, 11204
  208344, 10864, 10865, 10874, 10873, 11197, 11198, 11207, 11206
  208345, 10865, 10866, 10875, 10874, 11198, 11199, 11208, 11207
  208346, 10866, 10867, 10876, 10875, 11199, 11200, 11209, 11208
  208347, 10867, 10868, 10877, 10876, 11200, 11201, 11210, 11209
  208348, 10868, 10869, 10878, 10877, 11201, 11202, 11211, 11210
  208349, 10869, 10870, 10879, 10878, 11202, 11203, 11212, 11211
  208350, 10870, 10871, 10880, 10879, 11203, 11204, 11213, 11212
  208351, 10871, 10872, 10881, 10880, 11204, 11205, 11214, 11213
  208352, 10882, 10883, 10892, 10891, 11215, 11216, 11225, 11224
  208353, 10883, 10884, 10893, 10892, 11216, 11217, 11226, 11225
  208354, 10884, 10885, 10894, 10893, 11217, 11218, 11227, 11226
  208355, 10885, 10886, 10895, 10894, 11218, 11219, 11228, 11227
  208356, 10886, 10887, 10896, 10895, 11219, 11220, 11229, 11228
  208357, 10887, 10888, 10897, 10896, 11220, 11221, 11230, 11229
  208358, 10888, 10889, 10898, 10897, 11221, 11222, 11231, 11230
  208359, 10889, 10890, 10899, 10898, 11222, 11223, 11232, 11231
  208360, 10891, 10892, 10901, 10900, 11224, 11225, 11234, 11233
  208361, 10892, 10893, 10902, 10901, 11225, 11226, 11235, 11234
  208362, 10893, 10894, 10903, 10902, 11226, 11227, 11236, 11235
  208363, 10894, 10895, 10904, 10903, 11227, 11228, 11237, 11236
  208364, 10895, 10896, 10905, 10904, 11228, 11229, 11238, 11237
  208365, 10896, 10897, 10906, 10905, 11229, 11230, 11239, 11238
  208366, 10897, 10898, 10907, 10906, 11230, 11231, 11240, 11239
  208367, 10898, 10899, 10908, 10907, 11231, 11232, 11241, 11240
  208368, 10900, 10901, 10910, 10909, 11233, 11234, 11243, 11242
  208369, 10901, 10902, 10911, 10910, 11234, 11235, 11244, 11243
  208370, 10902, 10903, 10912, 10911, 11235, 11236, 11245, 11244
  208371, 10903, 10904, 10913, 10912, 11236, 11237, 11246, 11245
  208372, 10904, 10905, 10914, 10913, 11237, 11238, 11247, 11246
  208373, 10905, 10906, 10915, 10914, 11238, 11239, 11248, 11247
  208374, 10906, 10907, 10916, 10915, 11239, 11240, 11249, 11248
  208375, 10907, 10908, 10917, 10916, 11240, 11241, 11250, 11249
  208376, 10909, 10910, 10919, 10918, 11242, 11243, 11252, 11251
  208377, 10910, 10911, 10920, 10919, 11243, 11244, 11253, 11252
  208378, 10911, 10912, 10921, 10920, 11244, 11245, 11254, 11253
  208379, 10912, 10913, 10922, 10921, 11245, 11246, 11255, 11254
  208380, 10913, 10914, 10923, 10922, 11246, 11247, 11256, 11255
  208381, 10914, 10915, 10924, 10923, 11247, 11248, 11257, 11256
  208382, 10915, 10916, 10925, 10924, 11248, 11249, 11258, 11257
  208383, 10916, 10917, 10926, 10925, 11249, 11250, 11259, 11258
  208384, 10918, 10919, 10928, 10927, 11251, 11252, 11261, 11260
  208385, 10919, 10920, 10929, 10928, 11252, 11253, 11262, 11261
  208386, 10920, 10921, 10930, 10929, 11253, 11254, 11263, 11262
  208387, 10921, 10922, 10931, 10930, 11254, 11255, 11264, 11263
  208388, 10922, 10923, 10932, 10931, 11255, 11256, 11265, 11264
  208389, 10923, 10924, 10933, 10932, 11256, 11257, 11266, 11265
  208390, 10924, 10925, 10934, 10933, 11257, 11258, 11267, 11266
  208391, 10925, 10926, 10935, 10934, 11258, 11259, 11268, 11267
  208392, 10927, 10928, 10937, 10936, 11260, 11261, 11270, 11269
  208393, 10928, 10929, 10938, 10937, 11261, 11262, 11271, 11270
  208394, 10929, 10930, 10939, 10938, 11262, 11263, 11272, 11271
  208395, 10930, 10931, 10940, 10939, 11263, 11264, 11273, 11272
  208396, 10931, 10932, 10941, 10940, 11264, 11265, 11274, 11273
  208397, 10932, 10933, 10942, 10941, 11265, 11266, 11275, 11274
  208398, 10933, 10934, 10943, 10942, 11266, 11267, 11276, 11275
  208399, 10934, 10935, 10944, 10943, 11267, 11268, 11277, 11276
  208400, 10936, 10937, 10946, 10945, 11269, 11270, 11279, 11278
  208401, 10937, 10938, 10947, 10946, 11270, 11271, 11280, 11279
  208402, 10938, 10939, 10948, 10947, 11271, 11272, 11281, 11280
  208403, 10939, 10940, 10949, 10948, 11272, 11273, 11282, 11281
  208404, 10940, 10941, 10950, 10949, 11273, 11274, 11283, 11282
  208405, 10941, 10942, 10951, 10950, 11274, 11275, 11284, 11283
  208406, 10942, 10943, 10952, 10951, 11275, 11276, 11285, 11284
  208407, 10943, 10944, 10953, 10952, 11276, 11277, 11286, 11285
  208408, 10945, 10946, 10955, 10954, 11278, 11279, 11288, 11287
  208409, 10946, 10947, 10956, 10955, 11279, 11280, 11289, 11288
  208410, 10947, 10948, 10957, 10956, 11280, 11281, 11290, 11289
  208411, 10948, 10949, 10958, 10957, 11281, 11282, 11291, 11290
  208412, 10949, 10950, 10959, 10958, 11282, 11283, 11292, 11291
  208413, 10950, 10951, 10960, 10959, 11283, 11284, 11293, 11292
  208414, 10951, 10952, 10961, 10960, 11284, 11285, 11294, 11293
  208415, 10952, 10953, 10962, 10961, 11285, 11286, 11295, 11294
  208416, 10954, 10955, 10964, 10963, 11287, 11288, 11297, 11296
  208417, 10955, 10956, 10965, 10964, 11288, 11289, 11298, 11297
  208418, 10956, 10957, 10966, 10965, 11289, 11290, 11299, 11298
  208419, 10957, 10958, 10967, 10966, 11290, 11291, 11300, 11299
  208420, 10958, 10959, 10968, 10967, 11291, 11292, 11301, 11300
  208421, 10959, 10960, 10969, 10968, 11292, 11293, 11302, 11301
  208422, 10960, 10961, 10970, 10969, 11293, 11294, 11303, 11302
  208423, 10961, 10962, 10971, 10970, 11294, 11295, 11304, 11303
  208424, 10963, 10964, 10973, 10972, 11296, 11297, 11306, 11305
  208425, 10964, 10965, 10974, 10973, 11297, 11298, 11307, 11306
  208426, 10965, 10966, 10975, 10974, 11298, 11299, 11308, 11307
  208427, 10966, 10967, 10976, 10975, 11299, 11300, 11309, 11308
  208428, 10967, 10968, 10977, 10976, 11300, 11301, 11310, 11309
  208429, 10968, 10969, 10978, 10977, 11301, 11302, 11311, 11310
  208430, 10969, 10970, 10979, 10978, 11302, 11303, 11312, 11311
  208431, 10970, 10971, 10980, 10979, 11303, 11304, 11313, 11312
  208432, 10972, 10973, 10982, 10981, 11305, 11306, 11315, 11314
  208433, 10973, 10974, 10983, 10982, 11306, 11307, 11316, 11315
  208434, 10974, 10975, 10984, 10983, 11307, 11308, 11317, 11316
  208435, 10975, 10976, 10985, 10984, 11308, 11309, 11318, 11317
  208436, 10976, 10977, 10986, 10985, 11309, 11310, 11319, 11318
  208437, 10977, 10978, 10987, 10986, 11310, 11311, 11320, 11319
  208438, 10978, 10979, 10988, 10987, 11311, 11312, 11321, 11320
  208439, 10979, 10980, 10989, 10988, 11312, 11313, 11322, 11321
  208440, 10981, 10982, 10991, 10990, 11314, 11315, 11324, 11323
  208441, 10982, 10983, 10992, 10991, 11315, 11316, 11325, 11324
  208442, 10983, 10984, 10993, 10992, 11316, 11317, 11326, 11325
  208443, 10984, 10985, 10994, 10993, 11317, 11318, 11327, 11326
  208444, 10985, 10986, 10995, 10994, 11318, 11319, 11328, 11327
  208445, 10986, 10987, 10996, 10995, 11319, 11320, 11329, 11328
  208446, 10987, 10988, 10997, 10996, 11320, 11321, 11330, 11329
  208447, 10988, 10989, 10998, 10997, 11321, 11322, 11331, 11330
  208448, 10990, 10991, 11000, 10999, 11323, 11324, 11333, 11332
  208449, 10991, 10992, 11001, 11000, 11324, 11325, 11334, 11333
  208450, 10992, 10993, 11002, 11001, 11325, 11326, 11335, 11334
  208451, 10993, 10994, 11003, 11002, 11326, 11327, 11336, 11335
  208452, 10994, 10995, 11004, 11003, 11327, 11328, 11337, 11336
  208453, 10995, 10996, 11005, 11004, 11328, 11329, 11338, 11337
  208454, 10996, 10997, 11006, 11005, 11329, 11330, 11339, 11338
  208455, 10997, 10998, 11007, 11006, 11330, 11331, 11340, 11339
  208456, 10999, 11000, 11009, 11008, 11332, 11333, 11342, 11341
  208457, 11000, 11001, 11010, 11009, 11333, 11334, 11343, 11342
  208458, 11001, 11002, 11011, 11010, 11334, 11335, 11344, 11343
  208459, 11002, 11003, 11012, 11011, 11335, 11336, 11345, 11344
  208460, 11003, 11004, 11013, 11012, 11336, 11337, 11346, 11345
  208461, 11004, 11005, 11014, 11013, 11337, 11338, 11347, 11346
  208462, 11005, 11006, 11015, 11014, 11338, 11339, 11348, 11347
  208463, 11006, 11007, 11016, 11015, 11339, 11340, 11349, 11348
  208464, 11008, 11009, 11018, 11017, 11341, 11342, 11351, 11350
  208465, 11009, 11010, 11019, 11018, 11342, 11343, 11352, 11351
  208466, 11010, 11011, 11020, 11019, 11343, 11344, 11353, 11352
  208467, 11011, 11012, 11021, 11020, 11344, 11345, 11354, 11353
  208468, 11012, 11013, 11022, 11021, 11345, 11346, 11355, 11354
  208469, 11013, 11014, 11023, 11022, 11346, 11347, 11356, 11355
  208470, 11014, 11015, 11024, 11023, 11347, 11348, 11357, 11356
  208471, 11015, 11016, 11025, 11024, 11348, 11349, 11358, 11357
  208472, 11017, 11018, 11027, 11026, 11350, 11351, 11360, 11359
  208473, 11018, 11019, 11028, 11027, 11351, 11352, 11361, 11360
  208474, 11019, 11020, 11029, 11028, 11352, 11353, 11362, 11361
  208475, 11020, 11021, 11030, 11029, 11353, 11354, 11363, 11362
  208476, 11021, 11022, 11031, 11030, 11354, 11355, 11364, 11363
  208477, 11022, 11023, 11032, 11031, 11355, 11356, 11365, 11364
  208478, 11023, 11024, 11033, 11032, 11356, 11357, 11366, 11365
  208479, 11024, 11025, 11034, 11033, 11357, 11358, 11367, 11366
  208480, 11026, 11027, 11036, 11035, 11359, 11360, 11369, 11368
  208481, 11027, 11028, 11037, 11036, 11360, 11361, 11370, 11369
  208482, 11028, 11029, 11038, 11037, 11361, 11362, 11371, 11370
  208483, 11029, 11030, 11039, 11038, 11362, 11363, 11372, 11371
  208484, 11030, 11031, 11040, 11039, 11363, 11364, 11373, 11372
  208485, 11031, 11032, 11041, 11040, 11364, 11365, 11374, 11373
  208486, 11032, 11033, 11042, 11041, 11365, 11366, 11375, 11374
  208487, 11033, 11034, 11043, 11042, 11366, 11367, 11376, 11375
  208488, 11035, 11036, 11045, 11044, 11368, 11369, 11378, 11377
  208489, 11036, 11037, 11046, 11045, 11369, 11370, 11379, 11378
  208490, 11037, 11038, 11047, 11046, 11370, 11371, 11380, 11379
  208491, 11038, 11039, 11048, 11047, 11371, 11372, 11381, 11380
  208492, 11039, 11040, 11049, 11048, 11372, 11373, 11382, 11381
  208493, 11040, 11041, 11050, 11049, 11373, 11374, 11383, 11382
  208494, 11041, 11042, 11051, 11050, 11374, 11375, 11384, 11383
  208495, 11042, 11043, 11052, 11051, 11375, 11376, 11385, 11384
  208496, 11044, 11045, 11054, 11053, 11377, 11378, 11387, 11386
  208497, 11045, 11046, 11055, 11054, 11378, 11379, 11388, 11387
  208498, 11046, 11047, 11056, 11055, 11379, 11380, 11389, 11388
  208499, 11047, 11048, 11057, 11056, 11380, 11381, 11390, 11389
  208500, 11048, 11049, 11058, 11057, 11381, 11382, 11391, 11390
  208501, 11049, 11050, 11059, 11058, 11382, 11383, 11392, 11391
  208502, 11050, 11051, 11060, 11059, 11383, 11384, 11393, 11392
  208503, 11051, 11052, 11061, 11060, 11384, 11385, 11394, 11393
  208504, 11053, 11054, 11063, 11062, 11386, 11387, 11396, 11395
  208505, 11054, 11055, 11064, 11063, 11387, 11388, 11397, 11396
  208506, 11055, 11056, 11065, 11064, 11388, 11389, 11398, 11397
  208507, 11056, 11057, 11066, 11065, 11389, 11390, 11399, 11398
  208508, 11057, 11058, 11067, 11066, 11390, 11391, 11400, 11399
  208509, 11058, 11059, 11068, 11067, 11391, 11392, 11401, 11400
  208510, 11059, 11060, 11069, 11068, 11392, 11393, 11402, 11401
  208511, 11060, 11061, 11070, 11069, 11393, 11394, 11403, 11402
  208512, 11062, 11063, 11072, 11071, 11395, 11396, 11405, 11404
  208513, 11063, 11064, 11073, 11072, 11396, 11397, 11406, 11405
  208514, 11064, 11065, 11074, 11073, 11397, 11398, 11407, 11406
  208515, 11065, 11066, 11075, 11074, 11398, 11399, 11408, 11407
  208516, 11066, 11067, 11076, 11075, 11399, 11400, 11409, 11408
  208517, 11067, 11068, 11077, 11076, 11400, 11401, 11410, 11409
  208518, 11068, 11069, 11078, 11077, 11401, 11402, 11411, 11410
  208519, 11069, 11070, 11079, 11078, 11402, 11403, 11412, 11411
  208520, 11071, 11072, 11081, 11080, 11404, 11405, 11414, 11413
  208521, 11072, 11073, 11082, 11081, 11405, 11406, 11415, 11414
  208522, 11073, 11074, 11083, 11082, 11406, 11407, 11416, 11415
  208523, 11074, 11075, 11084, 11083, 11407, 11408, 11417, 11416
  208524, 11075, 11076, 11085, 11084, 11408, 11409, 11418, 11417
  208525, 11076, 11077, 11086, 11085, 11409, 11410, 11419, 11418
  208526, 11077, 11078, 11087, 11086, 11410, 11411, 11420, 11419
  208527, 11078, 11079, 11088, 11087, 11411, 11412, 11421, 11420
  208528, 11080, 11081, 11090, 11089, 11413, 11414, 11423, 11422
  208529, 11081, 11082, 11091, 11090, 11414, 11415, 11424, 11423
  208530, 11082, 11083, 11092, 11091, 11415, 11416, 11425, 11424
  208531, 11083, 11084, 11093, 11092, 11416, 11417, 11426, 11425
  208532, 11084, 11085, 11094, 11093, 11417, 11418, 11427, 11426
  208533, 11085, 11086, 11095, 11094, 11418, 11419, 11428, 11427
  208534, 11086, 11087, 11096, 11095, 11419, 11420, 11429, 11428
  208535, 11087, 11088, 11097, 11096, 11420, 11421, 11430, 11429
  208536, 11089, 11090, 11099, 11098, 11422, 11423, 11432, 11431
  208537, 11090, 11091, 11100, 11099, 11423, 11424, 11433, 11432
  208538, 11091, 11092, 11101, 11100, 11424, 11425, 11434, 11433
  208539, 11092, 11093, 11102, 11101, 11425, 11426, 11435, 11434
  208540, 11093, 11094, 11103, 11102, 11426, 11427, 11436, 11435
  208541, 11094, 11095, 11104, 11103, 11427, 11428, 11437, 11436
  208542, 11095, 11096, 11105, 11104, 11428, 11429, 11438, 11437
  208543, 11096, 11097, 11106, 11105, 11429, 11430, 11439, 11438
  208544, 11098, 11099, 11108, 11107, 11431, 11432, 11441, 11440
  208545, 11099, 11100, 11109, 11108, 11432, 11433, 11442, 11441
  208546, 11100, 11101, 11110, 11109, 11433, 11434, 11443, 11442
  208547, 11101, 11102, 11111, 11110, 11434, 11435, 11444, 11443
  208548, 11102, 11103, 11112, 11111, 11435, 11436, 11445, 11444
  208549, 11103, 11104, 11113, 11112, 11436, 11437, 11446, 11445
  208550, 11104, 11105, 11114, 11113, 11437, 11438, 11447, 11446
  208551, 11105, 11106, 11115, 11114, 11438, 11439, 11448, 11447
  208552, 11107, 11108, 11117, 11116, 11440, 11441, 11450, 11449
  208553, 11108, 11109, 11118, 11117, 11441, 11442, 11451, 11450
  208554, 11109, 11110, 11119, 11118, 11442, 11443, 11452, 11451
  208555, 11110, 11111, 11120, 11119, 11443, 11444, 11453, 11452
  208556, 11111, 11112, 11121, 11120, 11444, 11445, 11454, 11453
  208557, 11112, 11113, 11122, 11121, 11445, 11446, 11455, 11454
  208558, 11113, 11114, 11123, 11122, 11446, 11447, 11456, 11455
  208559, 11114, 11115, 11124, 11123, 11447, 11448, 11457, 11456
  208560, 11116, 11117, 11126, 11125, 11449, 11450, 11459, 11458
  208561, 11117, 11118, 11127, 11126, 11450, 11451, 11460, 11459
  208562, 11118, 11119, 11128, 11127, 11451, 11452, 11461, 11460
  208563, 11119, 11120, 11129, 11128, 11452, 11453, 11462, 11461
  208564, 11120, 11121, 11130, 11129, 11453, 11454, 11463, 11462
  208565, 11121, 11122, 11131, 11130, 11454, 11455, 11464, 11463
  208566, 11122, 11123, 11132, 11131, 11455, 11456, 11465, 11464
  208567, 11123, 11124, 11133, 11132, 11456, 11457, 11466, 11465
  208568, 11125, 11126, 11135, 11134, 11458, 11459, 11468, 11467
  208569, 11126, 11127, 11136, 11135, 11459, 11460, 11469, 11468
  208570, 11127, 11128, 11137, 11136, 11460, 11461, 11470, 11469
  208571, 11128, 11129, 11138, 11137, 11461, 11462, 11471, 11470
  208572, 11129, 11130, 11139, 11138, 11462, 11463, 11472, 11471
  208573, 11130, 11131, 11140, 11139, 11463, 11464, 11473, 11472
  208574, 11131, 11132, 11141, 11140, 11464, 11465, 11474, 11473
  208575, 11132, 11133, 11142, 11141, 11465, 11466, 11475, 11474
  208576, 11134, 11135, 11144, 11143, 11467, 11468, 11477, 11476
  208577, 11135, 11136, 11145, 11144, 11468, 11469, 11478, 11477
  208578, 11136, 11137, 11146, 11145, 11469, 11470, 11479, 11478
  208579, 11137, 11138, 11147, 11146, 11470, 11471, 11480, 11479
  208580, 11138, 11139, 11148, 11147, 11471, 11472, 11481, 11480
  208581, 11139, 11140, 11149, 11148, 11472, 11473, 11482, 11481
  208582, 11140, 11141, 11150, 11149, 11473, 11474, 11483, 11482
  208583, 11141, 11142, 11151, 11150, 11474, 11475, 11484, 11483
  208584, 11143, 11144, 11153, 11152, 11476, 11477, 11486, 11485
  208585, 11144, 11145, 11154, 11153, 11477, 11478, 11487, 11486
  208586, 11145, 11146, 11155, 11154, 11478, 11479, 11488, 11487
  208587, 11146, 11147, 11156, 11155, 11479, 11480, 11489, 11488
  208588, 11147, 11148, 11157, 11156, 11480, 11481, 11490, 11489
  208589, 11148, 11149, 11158, 11157, 11481, 11482, 11491, 11490
  208590, 11149, 11150, 11159, 11158, 11482, 11483, 11492, 11491
  208591, 11150, 11151, 11160, 11159, 11483, 11484, 11493, 11492
  208592, 11152, 11153, 11162, 11161, 11485, 11486, 11495, 11494
  208593, 11153, 11154, 11163, 11162, 11486, 11487, 11496, 11495
  208594, 11154, 11155, 11164, 11163, 11487, 11488, 11497, 11496
  208595, 11155, 11156, 11165, 11164, 11488, 11489, 11498, 11497
  208596, 11156, 11157, 11166, 11165, 11489, 11490, 11499, 11498
  208597, 11157, 11158, 11167, 11166, 11490, 11491, 11500, 11499
  208598, 11158, 11159, 11168, 11167, 11491, 11492, 11501, 11500
  208599, 11159, 11160, 11169, 11168, 11492, 11493, 11502, 11501
  208600, 11161, 11162, 11171, 11170, 11494, 11495, 11504, 11503
  208601, 11162, 11163, 11172, 11171, 11495, 11496, 11505, 11504
  208602, 11163, 11164, 11173, 11172, 11496, 11497, 11506, 11505
  208603, 11164, 11165, 11174, 11173, 11497, 11498, 11507, 11506
  208604, 11165, 11166, 11175, 11174, 11498, 11499, 11508, 11507
  208605, 11166, 11167, 11176, 11175, 11499, 11500, 11509, 11508
  208606, 11167, 11168, 11177, 11176, 11500, 11501, 11510, 11509
  208607, 11168, 11169, 11178, 11177, 11501, 11502, 11511, 11510
  208608, 11170, 11171, 11180, 11179, 11503, 11504, 11513, 11512
  208609, 11171, 11172, 11181, 11180, 11504, 11505, 11514, 11513
  208610, 11172, 11173, 11182, 11181, 11505, 11506, 11515, 11514
  208611, 11173, 11174, 11183, 11182, 11506, 11507, 11516, 11515
  208612, 11174, 11175, 11184, 11183, 11507, 11508, 11517, 11516
  208613, 11175, 11176, 11185, 11184, 11508, 11509, 11518, 11517
  208614, 11176, 11177, 11186, 11185, 11509, 11510, 11519, 11518
  208615, 11177, 11178, 11187, 11186, 11510, 11511, 11520, 11519
  208616, 11179, 11180, 11189, 11188, 11512, 11513, 11522, 11521
  208617, 11180, 11181, 11190, 11189, 11513, 11514, 11523, 11522
  208618, 11181, 11182, 11191, 11190, 11514, 11515, 11524, 11523
  208619, 11182, 11183, 11192, 11191, 11515, 11516, 11525, 11524
  208620, 11183, 11184, 11193, 11192, 11516, 11517, 11526, 11525
  208621, 11184, 11185, 11194, 11193, 11517, 11518, 11527, 11526
  208622, 11185, 11186, 11195, 11194, 11518, 11519, 11528, 11527
  208623, 11186, 11187, 11196, 11195, 11519, 11520, 11529, 11528
  208624, 11188, 11189, 11198, 11197, 11521, 11522, 11531, 11530
  208625, 11189, 11190, 11199, 11198, 11522, 11523, 11532, 11531
  208626, 11190, 11191, 11200, 11199, 11523, 11524, 11533, 11532
  208627, 11191, 11192, 11201, 11200, 11524, 11525, 11534, 11533
  208628, 11192, 11193, 11202, 11201, 11525, 11526, 11535, 11534
  208629, 11193, 11194, 11203, 11202, 11526, 11527, 11536, 11535
  208630, 11194, 11195, 11204, 11203, 11527, 11528, 11537, 11536
  208631, 11195, 11196, 11205, 11204, 11528, 11529, 11538, 11537
  208632, 11197, 11198, 11207, 11206, 11530, 11531, 11540, 11539
  208633, 11198, 11199, 11208, 11207, 11531, 11532, 11541, 11540
  208634, 11199, 11200, 11209, 11208, 11532, 11533, 11542, 11541
  208635, 11200, 11201, 11210, 11209, 11533, 11534, 11543, 11542
  208636, 11201, 11202, 11211, 11210, 11534, 11535, 11544, 11543
  208637, 11202, 11203, 11212, 11211, 11535, 11536, 11545, 11544
  208638, 11203, 11204, 11213, 11212, 11536, 11537, 11546, 11545
  208639, 11204, 11205, 11214, 11213, 11537, 11538, 11547, 11546
  208640, 11215, 11216, 11225, 11224, 11548, 11549, 11558, 11557
  208641, 11216, 11217, 11226, 11225, 11549, 11550, 11559, 11558
  208642, 11217, 11218, 11227, 11226, 11550, 11551, 11560, 11559
  208643, 11218, 11219, 11228, 11227, 11551, 11552, 11561, 11560
  208644, 11219, 11220, 11229, 11228, 11552, 11553, 11562, 11561
  208645, 11220, 11221, 11230, 11229, 11553, 11554, 11563, 11562
  208646, 11221, 11222, 11231, 11230, 11554, 11555, 11564, 11563
  208647, 11222, 11223, 11232, 11231, 11555, 11556, 11565, 11564
  208648, 11224, 11225, 11234, 11233, 11557, 11558, 11567, 11566
  208649, 11225, 11226, 11235, 11234, 11558, 11559, 11568, 11567
  208650, 11226, 11227, 11236, 11235, 11559, 11560, 11569, 11568
  208651, 11227, 11228, 11237, 11236, 11560, 11561, 11570, 11569
  208652, 11228, 11229, 11238, 11237, 11561, 11562, 11571, 11570
  208653, 11229, 11230, 11239, 11238, 11562, 11563, 11572, 11571
  208654, 11230, 11231, 11240, 11239, 11563, 11564, 11573, 11572
  208655, 11231, 11232, 11241, 11240, 11564, 11565, 11574, 11573
  208656, 11233, 11234, 11243, 11242, 11566, 11567, 11576, 11575
  208657, 11234, 11235, 11244, 11243, 11567, 11568, 11577, 11576
  208658, 11235, 11236, 11245, 11244, 11568, 11569, 11578, 11577
  208659, 11236, 11237, 11246, 11245, 11569, 11570, 11579, 11578
  208660, 11237, 11238, 11247, 11246, 11570, 11571, 11580, 11579
  208661, 11238, 11239, 11248, 11247, 11571, 11572, 11581, 11580
  208662, 11239, 11240, 11249, 11248, 11572, 11573, 11582, 11581
  208663, 11240, 11241, 11250, 11249, 11573, 11574, 11583, 11582
  208664, 11242, 11243, 11252, 11251, 11575, 11576, 11585, 11584
  208665, 11243, 11244, 11253, 11252, 11576, 11577, 11586, 11585
  208666, 11244, 11245, 11254, 11253, 11577, 11578, 11587, 11586
  208667, 11245, 11246, 11255, 11254, 11578, 11579, 11588, 11587
  208668, 11246, 11247, 11256, 11255, 11579, 11580, 11589, 11588
  208669, 11247, 11248, 11257, 11256, 11580, 11581, 11590, 11589
  208670, 11248, 11249, 11258, 11257, 11581, 11582, 11591, 11590
  208671, 11249, 11250, 11259, 11258, 11582, 11583, 11592, 11591
  208672, 11251, 11252, 11261, 11260, 11584, 11585, 11594, 11593
  208673, 11252, 11253, 11262, 11261, 11585, 11586, 11595, 11594
  208674, 11253, 11254, 11263, 11262, 11586, 11587, 11596, 11595
  208675, 11254, 11255, 11264, 11263, 11587, 11588, 11597, 11596
  208676, 11255, 11256, 11265, 11264, 11588, 11589, 11598, 11597
  208677, 11256, 11257, 11266, 11265, 11589, 11590, 11599, 11598
  208678, 11257, 11258, 11267, 11266, 11590, 11591, 11600, 11599
  208679, 11258, 11259, 11268, 11267, 11591, 11592, 11601, 11600
  208680, 11260, 11261, 11270, 11269, 11593, 11594, 11603, 11602
  208681, 11261, 11262, 11271, 11270, 11594, 11595, 11604, 11603
  208682, 11262, 11263, 11272, 11271, 11595, 11596, 11605, 11604
  208683, 11263, 11264, 11273, 11272, 11596, 11597, 11606, 11605
  208684, 11264, 11265, 11274, 11273, 11597, 11598, 11607, 11606
  208685, 11265, 11266, 11275, 11274, 11598, 11599, 11608, 11607
  208686, 11266, 11267, 11276, 11275, 11599, 11600, 11609, 11608
  208687, 11267, 11268, 11277, 11276, 11600, 11601, 11610, 11609
  208688, 11269, 11270, 11279, 11278, 11602, 11603, 11612, 11611
  208689, 11270, 11271, 11280, 11279, 11603, 11604, 11613, 11612
  208690, 11271, 11272, 11281, 11280, 11604, 11605, 11614, 11613
  208691, 11272, 11273, 11282, 11281, 11605, 11606, 11615, 11614
  208692, 11273, 11274, 11283, 11282, 11606, 11607, 11616, 11615
  208693, 11274, 11275, 11284, 11283, 11607, 11608, 11617, 11616
  208694, 11275, 11276, 11285, 11284, 11608, 11609, 11618, 11617
  208695, 11276, 11277, 11286, 11285, 11609, 11610, 11619, 11618
  208696, 11278, 11279, 11288, 11287, 11611, 11612, 11621, 11620
  208697, 11279, 11280, 11289, 11288, 11612, 11613, 11622, 11621
  208698, 11280, 11281, 11290, 11289, 11613, 11614, 11623, 11622
  208699, 11281, 11282, 11291, 11290, 11614, 11615, 11624, 11623
  208700, 11282, 11283, 11292, 11291, 11615, 11616, 11625, 11624
  208701, 11283, 11284, 11293, 11292, 11616, 11617, 11626, 11625
  208702, 11284, 11285, 11294, 11293, 11617, 11618, 11627, 11626
  208703, 11285, 11286, 11295, 11294, 11618, 11619, 11628, 11627
  208704, 11287, 11288, 11297, 11296, 11620, 11621, 11630, 11629
  208705, 11288, 11289, 11298, 11297, 11621, 11622, 11631, 11630
  208706, 11289, 11290, 11299, 11298, 11622, 11623, 11632, 11631
  208707, 11290, 11291, 11300, 11299, 11623, 11624, 11633, 11632
  208708, 11291, 11292, 11301, 11300, 11624, 11625, 11634, 11633
  208709, 11292, 11293, 11302, 11301, 11625, 11626, 11635, 11634
  208710, 11293, 11294, 11303, 11302, 11626, 11627, 11636, 11635
  208711, 11294, 11295, 11304, 11303, 11627, 11628, 11637, 11636
  208712, 11296, 11297, 11306, 11305, 11629, 11630, 11639, 11638
  208713, 11297, 11298, 11307, 11306, 11630, 11631, 11640, 11639
  208714, 11298, 11299, 11308, 11307, 11631, 11632, 11641, 11640
  208715, 11299, 11300, 11309, 11308, 11632, 11633, 11642, 11641
  208716, 11300, 11301, 11310, 11309, 11633, 11634, 11643, 11642
  208717, 11301, 11302, 11311, 11310, 11634, 11635, 11644, 11643
  208718, 11302, 11303, 11312, 11311, 11635, 11636, 11645, 11644
  208719, 11303, 11304, 11313, 11312, 11636, 11637, 11646, 11645
  208720, 11305, 11306, 11315, 11314, 11638, 11639, 11648, 11647
  208721, 11306, 11307, 11316, 11315, 11639, 11640, 11649, 11648
  208722, 11307, 11308, 11317, 11316, 11640, 11641, 11650, 11649
  208723, 11308, 11309, 11318, 11317, 11641, 11642, 11651, 11650
  208724, 11309, 11310, 11319, 11318, 11642, 11643, 11652, 11651
  208725, 11310, 11311, 11320, 11319, 11643, 11644, 11653, 11652
  208726, 11311, 11312, 11321, 11320, 11644, 11645, 11654, 11653
  208727, 11312, 11313, 11322, 11321, 11645, 11646, 11655, 11654
  208728, 11314, 11315, 11324, 11323, 11647, 11648, 11657, 11656
  208729, 11315, 11316, 11325, 11324, 11648, 11649, 11658, 11657
  208730, 11316, 11317, 11326, 11325, 11649, 11650, 11659, 11658
  208731, 11317, 11318, 11327, 11326, 11650, 11651, 11660, 11659
  208732, 11318, 11319, 11328, 11327, 11651, 11652, 11661, 11660
  208733, 11319, 11320, 11329, 11328, 11652, 11653, 11662, 11661
  208734, 11320, 11321, 11330, 11329, 11653, 11654, 11663, 11662
  208735, 11321, 11322, 11331, 11330, 11654, 11655, 11664, 11663
  208736, 11323, 11324, 11333, 11332, 11656, 11657, 11666, 11665
  208737, 11324, 11325, 11334, 11333, 11657, 11658, 11667, 11666
  208738, 11325, 11326, 11335, 11334, 11658, 11659, 11668, 11667
  208739, 11326, 11327, 11336, 11335, 11659, 11660, 11669, 11668
  208740, 11327, 11328, 11337, 11336, 11660, 11661, 11670, 11669
  208741, 11328, 11329, 11338, 11337, 11661, 11662, 11671, 11670
  208742, 11329, 11330, 11339, 11338, 11662, 11663, 11672, 11671
  208743, 11330, 11331, 11340, 11339, 11663, 11664, 11673, 11672
  208744, 11332, 11333, 11342, 11341, 11665, 11666, 11675, 11674
  208745, 11333, 11334, 11343, 11342, 11666, 11667, 11676, 11675
  208746, 11334, 11335, 11344, 11343, 11667, 11668, 11677, 11676
  208747, 11335, 11336, 11345, 11344, 11668, 11669, 11678, 11677
  208748, 11336, 11337, 11346, 11345, 11669, 11670, 11679, 11678
  208749, 11337, 11338, 11347, 11346, 11670, 11671, 11680, 11679
  208750, 11338, 11339, 11348, 11347, 11671, 11672, 11681, 11680
  208751, 11339, 11340, 11349, 11348, 11672, 11673, 11682, 11681
  208752, 11341, 11342, 11351, 11350, 11674, 11675, 11684, 11683
  208753, 11342, 11343, 11352, 11351, 11675, 11676, 11685, 11684
  208754, 11343, 11344, 11353, 11352, 11676, 11677, 11686, 11685
  208755, 11344, 11345, 11354, 11353, 11677, 11678, 11687, 11686
  208756, 11345, 11346, 11355, 11354, 11678, 11679, 11688, 11687
  208757, 11346, 11347, 11356, 11355, 11679, 11680, 11689, 11688
  208758, 11347, 11348, 11357, 11356, 11680, 11681, 11690, 11689
  208759, 11348, 11349, 11358, 11357, 11681, 11682, 11691, 11690
  208760, 11350, 11351, 11360, 11359, 11683, 11684, 11693, 11692
  208761, 11351, 11352, 11361, 11360, 11684, 11685, 11694, 11693
  208762, 11352, 11353, 11362, 11361, 11685, 11686, 11695, 11694
  208763, 11353, 11354, 11363, 11362, 11686, 11687, 11696, 11695
  208764, 11354, 11355, 11364, 11363, 11687, 11688, 11697, 11696
  208765, 11355, 11356, 11365, 11364, 11688, 11689, 11698, 11697
  208766, 11356, 11357, 11366, 11365, 11689, 11690, 11699, 11698
  208767, 11357, 11358, 11367, 11366, 11690, 11691, 11700, 11699
  208768, 11359, 11360, 11369, 11368, 11692, 11693, 11702, 11701
  208769, 11360, 11361, 11370, 11369, 11693, 11694, 11703, 11702
  208770, 11361, 11362, 11371, 11370, 11694, 11695, 11704, 11703
  208771, 11362, 11363, 11372, 11371, 11695, 11696, 11705, 11704
  208772, 11363, 11364, 11373, 11372, 11696, 11697, 11706, 11705
  208773, 11364, 11365, 11374, 11373, 11697, 11698, 11707, 11706
  208774, 11365, 11366, 11375, 11374, 11698, 11699, 11708, 11707
  208775, 11366, 11367, 11376, 11375, 11699, 11700, 11709, 11708
  208776, 11368, 11369, 11378, 11377, 11701, 11702, 11711, 11710
  208777, 11369, 11370, 11379, 11378, 11702, 11703, 11712, 11711
  208778, 11370, 11371, 11380, 11379, 11703, 11704, 11713, 11712
  208779, 11371, 11372, 11381, 11380, 11704, 11705, 11714, 11713
  208780, 11372, 11373, 11382, 11381, 11705, 11706, 11715, 11714
  208781, 11373, 11374, 11383, 11382, 11706, 11707, 11716, 11715
  208782, 11374, 11375, 11384, 11383, 11707, 11708, 11717, 11716
  208783, 11375, 11376, 11385, 11384, 11708, 11709, 11718, 11717
  208784, 11377, 11378, 11387, 11386, 11710, 11711, 11720, 11719
  208785, 11378, 11379, 11388, 11387, 11711, 11712, 11721, 11720
  208786, 11379, 11380, 11389, 11388, 11712, 11713, 11722, 11721
  208787, 11380, 11381, 11390, 11389, 11713, 11714, 11723, 11722
  208788, 11381, 11382, 11391, 11390, 11714, 11715, 11724, 11723
  208789, 11382, 11383, 11392, 11391, 11715, 11716, 11725, 11724
  208790, 11383, 11384, 11393, 11392, 11716, 11717, 11726, 11725
  208791, 11384, 11385, 11394, 11393, 11717, 11718, 11727, 11726
  208792, 11386, 11387, 11396, 11395, 11719, 11720, 11729, 11728
  208793, 11387, 11388, 11397, 11396, 11720, 11721, 11730, 11729
  208794, 11388, 11389, 11398, 11397, 11721, 11722, 11731, 11730
  208795, 11389, 11390, 11399, 11398, 11722, 11723, 11732, 11731
  208796, 11390, 11391, 11400, 11399, 11723, 11724, 11733, 11732
  208797, 11391, 11392, 11401, 11400, 11724, 11725, 11734, 11733
  208798, 11392, 11393, 11402, 11401, 11725, 11726, 11735, 11734
  208799, 11393, 11394, 11403, 11402, 11726, 11727, 11736, 11735
  208800, 11395, 11396, 11405, 11404, 11728, 11729, 11738, 11737
  208801, 11396, 11397, 11406, 11405, 11729, 11730, 11739, 11738
  208802, 11397, 11398, 11407, 11406, 11730, 11731, 11740, 11739
  208803, 11398, 11399, 11408, 11407, 11731, 11732, 11741, 11740
  208804, 11399, 11400, 11409, 11408, 11732, 11733, 11742, 11741
  208805, 11400, 11401, 11410, 11409, 11733, 11734, 11743, 11742
  208806, 11401, 11402, 11411, 11410, 11734, 11735, 11744, 11743
  208807, 11402, 11403, 11412, 11411, 11735, 11736, 11745, 11744
  208808, 11404, 11405, 11414, 11413, 11737, 11738, 11747, 11746
  208809, 11405, 11406, 11415, 11414, 11738, 11739, 11748, 11747
  208810, 11406, 11407, 11416, 11415, 11739, 11740, 11749, 11748
  208811, 11407, 11408, 11417, 11416, 11740, 11741, 11750, 11749
  208812, 11408, 11409, 11418, 11417, 11741, 11742, 11751, 11750
  208813, 11409, 11410, 11419, 11418, 11742, 11743, 11752, 11751
  208814, 11410, 11411, 11420, 11419, 11743, 11744, 11753, 11752
  208815, 11411, 11412, 11421, 11420, 11744, 11745, 11754, 11753
  208816, 11413, 11414, 11423, 11422, 11746, 11747, 11756, 11755
  208817, 11414, 11415, 11424, 11423, 11747, 11748, 11757, 11756
  208818, 11415, 11416, 11425, 11424, 11748, 11749, 11758, 11757
  208819, 11416, 11417, 11426, 11425, 11749, 11750, 11759, 11758
  208820, 11417, 11418, 11427, 11426, 11750, 11751, 11760, 11759
  208821, 11418, 11419, 11428, 11427, 11751, 11752, 11761, 11760
  208822, 11419, 11420, 11429, 11428, 11752, 11753, 11762, 11761
  208823, 11420, 11421, 11430, 11429, 11753, 11754, 11763, 11762
  208824, 11422, 11423, 11432, 11431, 11755, 11756, 11765, 11764
  208825, 11423, 11424, 11433, 11432, 11756, 11757, 11766, 11765
  208826, 11424, 11425, 11434, 11433, 11757, 11758, 11767, 11766
  208827, 11425, 11426, 11435, 11434, 11758, 11759, 11768, 11767
  208828, 11426, 11427, 11436, 11435, 11759, 11760, 11769, 11768
  208829, 11427, 11428, 11437, 11436, 11760, 11761, 11770, 11769
  208830, 11428, 11429, 11438, 11437, 11761, 11762, 11771, 11770
  208831, 11429, 11430, 11439, 11438, 11762, 11763, 11772, 11771
  208832, 11431, 11432, 11441, 11440, 11764, 11765, 11774, 11773
  208833, 11432, 11433, 11442, 11441, 11765, 11766, 11775, 11774
  208834, 11433, 11434, 11443, 11442, 11766, 11767, 11776, 11775
  208835, 11434, 11435, 11444, 11443, 11767, 11768, 11777, 11776
  208836, 11435, 11436, 11445, 11444, 11768, 11769, 11778, 11777
  208837, 11436, 11437, 11446, 11445, 11769, 11770, 11779, 11778
  208838, 11437, 11438, 11447, 11446, 11770, 11771, 11780, 11779
  208839, 11438, 11439, 11448, 11447, 11771, 11772, 11781, 11780
  208840, 11440, 11441, 11450, 11449, 11773, 11774, 11783, 11782
  208841, 11441, 11442, 11451, 11450, 11774, 11775, 11784, 11783
  208842, 11442, 11443, 11452, 11451, 11775, 11776, 11785, 11784
  208843, 11443, 11444, 11453, 11452, 11776, 11777, 11786, 11785
  208844, 11444, 11445, 11454, 11453, 11777, 11778, 11787, 11786
  208845, 11445, 11446, 11455, 11454, 11778, 11779, 11788, 11787
  208846, 11446, 11447, 11456, 11455, 11779, 11780, 11789, 11788
  208847, 11447, 11448, 11457, 11456, 11780, 11781, 11790, 11789
  208848, 11449, 11450, 11459, 11458, 11782, 11783, 11792, 11791
  208849, 11450, 11451, 11460, 11459, 11783, 11784, 11793, 11792
  208850, 11451, 11452, 11461, 11460, 11784, 11785, 11794, 11793
  208851, 11452, 11453, 11462, 11461, 11785, 11786, 11795, 11794
  208852, 11453, 11454, 11463, 11462, 11786, 11787, 11796, 11795
  208853, 11454, 11455, 11464, 11463, 11787, 11788, 11797, 11796
  208854, 11455, 11456, 11465, 11464, 11788, 11789, 11798, 11797
  208855, 11456, 11457, 11466, 11465, 11789, 11790, 11799, 11798
  208856, 11458, 11459, 11468, 11467, 11791, 11792, 11801, 11800
  208857, 11459, 11460, 11469, 11468, 11792, 11793, 11802, 11801
  208858, 11460, 11461, 11470, 11469, 11793, 11794, 11803, 11802
  208859, 11461, 11462, 11471, 11470, 11794, 11795, 11804, 11803
  208860, 11462, 11463, 11472, 11471, 11795, 11796, 11805, 11804
  208861, 11463, 11464, 11473, 11472, 11796, 11797, 11806, 11805
  208862, 11464, 11465, 11474, 11473, 11797, 11798, 11807, 11806
  208863, 11465, 11466, 11475, 11474, 11798, 11799, 11808, 11807
  208864, 11467, 11468, 11477, 11476, 11800, 11801, 11810, 11809
  208865, 11468, 11469, 11478, 11477, 11801, 11802, 11811, 11810
  208866, 11469, 11470, 11479, 11478, 11802, 11803, 11812, 11811
  208867, 11470, 11471, 11480, 11479, 11803, 11804, 11813, 11812
  208868, 11471, 11472, 11481, 11480, 11804, 11805, 11814, 11813
  208869, 11472, 11473, 11482, 11481, 11805, 11806, 11815, 11814
  208870, 11473, 11474, 11483, 11482, 11806, 11807, 11816, 11815
  208871, 11474, 11475, 11484, 11483, 11807, 11808, 11817, 11816
  208872, 11476, 11477, 11486, 11485, 11809, 11810, 11819, 11818
  208873, 11477, 11478, 11487, 11486, 11810, 11811, 11820, 11819
  208874, 11478, 11479, 11488, 11487, 11811, 11812, 11821, 11820
  208875, 11479, 11480, 11489, 11488, 11812, 11813, 11822, 11821
  208876, 11480, 11481, 11490, 11489, 11813, 11814, 11823, 11822
  208877, 11481, 11482, 11491, 11490, 11814, 11815, 11824, 11823
  208878, 11482, 11483, 11492, 11491, 11815, 11816, 11825, 11824
  208879, 11483, 11484, 11493, 11492, 11816, 11817, 11826, 11825
  208880, 11485, 11486, 11495, 11494, 11818, 11819, 11828, 11827
  208881, 11486, 11487, 11496, 11495, 11819, 11820, 11829, 11828
  208882, 11487, 11488, 11497, 11496, 11820, 11821, 11830, 11829
  208883, 11488, 11489, 11498, 11497, 11821, 11822, 11831, 11830
  208884, 11489, 11490, 11499, 11498, 11822, 11823, 11832, 11831
  208885, 11490, 11491, 11500, 11499, 11823, 11824, 11833, 11832
  208886, 11491, 11492, 11501, 11500, 11824, 11825, 11834, 11833
  208887, 11492, 11493, 11502, 11501, 11825, 11826, 11835, 11834
  208888, 11494, 11495, 11504, 11503, 11827, 11828, 11837, 11836
  208889, 11495, 11496, 11505, 11504, 11828, 11829, 11838, 11837
  208890, 11496, 11497, 11506, 11505, 11829, 11830, 11839, 11838
  208891, 11497, 11498, 11507, 11506, 11830, 11831, 11840, 11839
  208892, 11498, 11499, 11508, 11507, 11831, 11832, 11841, 11840
  208893, 11499, 11500, 11509, 11508, 11832, 11833, 11842, 11841
  208894, 11500, 11501, 11510, 11509, 11833, 11834, 11843, 11842
  208895, 11501, 11502, 11511, 11510, 11834, 11835, 11844, 11843
  208896, 11503, 11504, 11513, 11512, 11836, 11837, 11846, 11845
  208897, 11504, 11505, 11514, 11513, 11837, 11838, 11847, 11846
  208898, 11505, 11506, 11515, 11514, 11838, 11839, 11848, 11847
  208899, 11506, 11507, 11516, 11515, 11839, 11840, 11849, 11848
  208900, 11507, 11508, 11517, 11516, 11840, 11841, 11850, 11849
  208901, 11508, 11509, 11518, 11517, 11841, 11842, 11851, 11850
  208902, 11509, 11510, 11519, 11518, 11842, 11843, 11852, 11851
  208903, 11510, 11511, 11520, 11519, 11843, 11844, 11853, 11852
  208904, 11512, 11513, 11522, 11521, 11845, 11846, 11855, 11854
  208905, 11513, 11514, 11523, 11522, 11846, 11847, 11856, 11855
  208906, 11514, 11515, 11524, 11523, 11847, 11848, 11857, 11856
  208907, 11515, 11516, 11525, 11524, 11848, 11849, 11858, 11857
  208908, 11516, 11517, 11526, 11525, 11849, 11850, 11859, 11858
  208909, 11517, 11518, 11527, 11526, 11850, 11851, 11860, 11859
  208910, 11518, 11519, 11528, 11527, 11851, 11852, 11861, 11860
  208911, 11519, 11520, 11529, 11528, 11852, 11853, 11862, 11861
  208912, 11521, 11522, 11531, 11530, 11854, 11855, 11864, 11863
  208913, 11522, 11523, 11532, 11531, 11855, 11856, 11865, 11864
  208914, 11523, 11524, 11533, 11532, 11856, 11857, 11866, 11865
  208915, 11524, 11525, 11534, 11533, 11857, 11858, 11867, 11866
  208916, 11525, 11526, 11535, 11534, 11858, 11859, 11868, 11867
  208917, 11526, 11527, 11536, 11535, 11859, 11860, 11869, 11868
  208918, 11527, 11528, 11537, 11536, 11860, 11861, 11870, 11869
  208919, 11528, 11529, 11538, 11537, 11861, 11862, 11871, 11870
  208920, 11530, 11531, 11540, 11539, 11863, 11864, 11873, 11872
  208921, 11531, 11532, 11541, 11540, 11864, 11865, 11874, 11873
  208922, 11532, 11533, 11542, 11541, 11865, 11866, 11875, 11874
  208923, 11533, 11534, 11543, 11542, 11866, 11867, 11876, 11875
  208924, 11534, 11535, 11544, 11543, 11867, 11868, 11877, 11876
  208925, 11535, 11536, 11545, 11544, 11868, 11869, 11878, 11877
  208926, 11536, 11537, 11546, 11545, 11869, 11870, 11879, 11878
  208927, 11537, 11538, 11547, 11546, 11870, 11871, 11880, 11879
  208928, 11548, 11549, 11558, 11557, 11881, 11882, 11891, 11890
  208929, 11549, 11550, 11559, 11558, 11882, 11883, 11892, 11891
  208930, 11550, 11551, 11560, 11559, 11883, 11884, 11893, 11892
  208931, 11551, 11552, 11561, 11560, 11884, 11885, 11894, 11893
  208932, 11552, 11553, 11562, 11561, 11885, 11886, 11895, 11894
  208933, 11553, 11554, 11563, 11562, 11886, 11887, 11896, 11895
  208934, 11554, 11555, 11564, 11563, 11887, 11888, 11897, 11896
  208935, 11555, 11556, 11565, 11564, 11888, 11889, 11898, 11897
  208936, 11557, 11558, 11567, 11566, 11890, 11891, 11900, 11899
  208937, 11558, 11559, 11568, 11567, 11891, 11892, 11901, 11900
  208938, 11559, 11560, 11569, 11568, 11892, 11893, 11902, 11901
  208939, 11560, 11561, 11570, 11569, 11893, 11894, 11903, 11902
  208940, 11561, 11562, 11571, 11570, 11894, 11895, 11904, 11903
  208941, 11562, 11563, 11572, 11571, 11895, 11896, 11905, 11904
  208942, 11563, 11564, 11573, 11572, 11896, 11897, 11906, 11905
  208943, 11564, 11565, 11574, 11573, 11897, 11898, 11907, 11906
  208944, 11566, 11567, 11576, 11575, 11899, 11900, 11909, 11908
  208945, 11567, 11568, 11577, 11576, 11900, 11901, 11910, 11909
  208946, 11568, 11569, 11578, 11577, 11901, 11902, 11911, 11910
  208947, 11569, 11570, 11579, 11578, 11902, 11903, 11912, 11911
  208948, 11570, 11571, 11580, 11579, 11903, 11904, 11913, 11912
  208949, 11571, 11572, 11581, 11580, 11904, 11905, 11914, 11913
  208950, 11572, 11573, 11582, 11581, 11905, 11906, 11915, 11914
  208951, 11573, 11574, 11583, 11582, 11906, 11907, 11916, 11915
  208952, 11575, 11576, 11585, 11584, 11908, 11909, 11918, 11917
  208953, 11576, 11577, 11586, 11585, 11909, 11910, 11919, 11918
  208954, 11577, 11578, 11587, 11586, 11910, 11911, 11920, 11919
  208955, 11578, 11579, 11588, 11587, 11911, 11912, 11921, 11920
  208956, 11579, 11580, 11589, 11588, 11912, 11913, 11922, 11921
  208957, 11580, 11581, 11590, 11589, 11913, 11914, 11923, 11922
  208958, 11581, 11582, 11591, 11590, 11914, 11915, 11924, 11923
  208959, 11582, 11583, 11592, 11591, 11915, 11916, 11925, 11924
  208960, 11584, 11585, 11594, 11593, 11917, 11918, 11927, 11926
  208961, 11585, 11586, 11595, 11594, 11918, 11919, 11928, 11927
  208962, 11586, 11587, 11596, 11595, 11919, 11920, 11929, 11928
  208963, 11587, 11588, 11597, 11596, 11920, 11921, 11930, 11929
  208964, 11588, 11589, 11598, 11597, 11921, 11922, 11931, 11930
  208965, 11589, 11590, 11599, 11598, 11922, 11923, 11932, 11931
  208966, 11590, 11591, 11600, 11599, 11923, 11924, 11933, 11932
  208967, 11591, 11592, 11601, 11600, 11924, 11925, 11934, 11933
  208968, 11593, 11594, 11603, 11602, 11926, 11927, 11936, 11935
  208969, 11594, 11595, 11604, 11603, 11927, 11928, 11937, 11936
  208970, 11595, 11596, 11605, 11604, 11928, 11929, 11938, 11937
  208971, 11596, 11597, 11606, 11605, 11929, 11930, 11939, 11938
  208972, 11597, 11598, 11607, 11606, 11930, 11931, 11940, 11939
  208973, 11598, 11599, 11608, 11607, 11931, 11932, 11941, 11940
  208974, 11599, 11600, 11609, 11608, 11932, 11933, 11942, 11941
  208975, 11600, 11601, 11610, 11609, 11933, 11934, 11943, 11942
  208976, 11602, 11603, 11612, 11611, 11935, 11936, 11945, 11944
  208977, 11603, 11604, 11613, 11612, 11936, 11937, 11946, 11945
  208978, 11604, 11605, 11614, 11613, 11937, 11938, 11947, 11946
  208979, 11605, 11606, 11615, 11614, 11938, 11939, 11948, 11947
  208980, 11606, 11607, 11616, 11615, 11939, 11940, 11949, 11948
  208981, 11607, 11608, 11617, 11616, 11940, 11941, 11950, 11949
  208982, 11608, 11609, 11618, 11617, 11941, 11942, 11951, 11950
  208983, 11609, 11610, 11619, 11618, 11942, 11943, 11952, 11951
  208984, 11611, 11612, 11621, 11620, 11944, 11945, 11954, 11953
  208985, 11612, 11613, 11622, 11621, 11945, 11946, 11955, 11954
  208986, 11613, 11614, 11623, 11622, 11946, 11947, 11956, 11955
  208987, 11614, 11615, 11624, 11623, 11947, 11948, 11957, 11956
  208988, 11615, 11616, 11625, 11624, 11948, 11949, 11958, 11957
  208989, 11616, 11617, 11626, 11625, 11949, 11950, 11959, 11958
  208990, 11617, 11618, 11627, 11626, 11950, 11951, 11960, 11959
  208991, 11618, 11619, 11628, 11627, 11951, 11952, 11961, 11960
  208992, 11620, 11621, 11630, 11629, 11953, 11954, 11963, 11962
  208993, 11621, 11622, 11631, 11630, 11954, 11955, 11964, 11963
  208994, 11622, 11623, 11632, 11631, 11955, 11956, 11965, 11964
  208995, 11623, 11624, 11633, 11632, 11956, 11957, 11966, 11965
  208996, 11624, 11625, 11634, 11633, 11957, 11958, 11967, 11966
  208997, 11625, 11626, 11635, 11634, 11958, 11959, 11968, 11967
  208998, 11626, 11627, 11636, 11635, 11959, 11960, 11969, 11968
  208999, 11627, 11628, 11637, 11636, 11960, 11961, 11970, 11969
  209000, 11629, 11630, 11639, 11638, 11962, 11963, 11972, 11971
  209001, 11630, 11631, 11640, 11639, 11963, 11964, 11973, 11972
  209002, 11631, 11632, 11641, 11640, 11964, 11965, 11974, 11973
  209003, 11632, 11633, 11642, 11641, 11965, 11966, 11975, 11974
  209004, 11633, 11634, 11643, 11642, 11966, 11967, 11976, 11975
  209005, 11634, 11635, 11644, 11643, 11967, 11968, 11977, 11976
  209006, 11635, 11636, 11645, 11644, 11968, 11969, 11978, 11977
  209007, 11636, 11637, 11646, 11645, 11969, 11970, 11979, 11978
  209008, 11638, 11639, 11648, 11647, 11971, 11972, 11981, 11980
  209009, 11639, 11640, 11649, 11648, 11972, 11973, 11982, 11981
  209010, 11640, 11641, 11650, 11649, 11973, 11974, 11983, 11982
  209011, 11641, 11642, 11651, 11650, 11974, 11975, 11984, 11983
  209012, 11642, 11643, 11652, 11651, 11975, 11976, 11985, 11984
  209013, 11643, 11644, 11653, 11652, 11976, 11977, 11986, 11985
  209014, 11644, 11645, 11654, 11653, 11977, 11978, 11987, 11986
  209015, 11645, 11646, 11655, 11654, 11978, 11979, 11988, 11987
  209016, 11647, 11648, 11657, 11656, 11980, 11981, 11990, 11989
  209017, 11648, 11649, 11658, 11657, 11981, 11982, 11991, 11990
  209018, 11649, 11650, 11659, 11658, 11982, 11983, 11992, 11991
  209019, 11650, 11651, 11660, 11659, 11983, 11984, 11993, 11992
  209020, 11651, 11652, 11661, 11660, 11984, 11985, 11994, 11993
  209021, 11652, 11653, 11662, 11661, 11985, 11986, 11995, 11994
  209022, 11653, 11654, 11663, 11662, 11986, 11987, 11996, 11995
  209023, 11654, 11655, 11664, 11663, 11987, 11988, 11997, 11996
  209024, 11656, 11657, 11666, 11665, 11989, 11990, 11999, 11998
  209025, 11657, 11658, 11667, 11666, 11990, 11991, 12000, 11999
  209026, 11658, 11659, 11668, 11667, 11991, 11992, 12001, 12000
  209027, 11659, 11660, 11669, 11668, 11992, 11993, 12002, 12001
  209028, 11660, 11661, 11670, 11669, 11993, 11994, 12003, 12002
  209029, 11661, 11662, 11671, 11670, 11994, 11995, 12004, 12003
  209030, 11662, 11663, 11672, 11671, 11995, 11996, 12005, 12004
  209031, 11663, 11664, 11673, 11672, 11996, 11997, 12006, 12005
  209032, 11665, 11666, 11675, 11674, 11998, 11999, 12008, 12007
  209033, 11666, 11667, 11676, 11675, 11999, 12000, 12009, 12008
  209034, 11667, 11668, 11677, 11676, 12000, 12001, 12010, 12009
  209035, 11668, 11669, 11678, 11677, 12001, 12002, 12011, 12010
  209036, 11669, 11670, 11679, 11678, 12002, 12003, 12012, 12011
  209037, 11670, 11671, 11680, 11679, 12003, 12004, 12013, 12012
  209038, 11671, 11672, 11681, 11680, 12004, 12005, 12014, 12013
  209039, 11672, 11673, 11682, 11681, 12005, 12006, 12015, 12014
  209040, 11674, 11675, 11684, 11683, 12007, 12008, 12017, 12016
  209041, 11675, 11676, 11685, 11684, 12008, 12009, 12018, 12017
  209042, 11676, 11677, 11686, 11685, 12009, 12010, 12019, 12018
  209043, 11677, 11678, 11687, 11686, 12010, 12011, 12020, 12019
  209044, 11678, 11679, 11688, 11687, 12011, 12012, 12021, 12020
  209045, 11679, 11680, 11689, 11688, 12012, 12013, 12022, 12021
  209046, 11680, 11681, 11690, 11689, 12013, 12014, 12023, 12022
  209047, 11681, 11682, 11691, 11690, 12014, 12015, 12024, 12023
  209048, 11683, 11684, 11693, 11692, 12016, 12017, 12026, 12025
  209049, 11684, 11685, 11694, 11693, 12017, 12018, 12027, 12026
  209050, 11685, 11686, 11695, 11694, 12018, 12019, 12028, 12027
  209051, 11686, 11687, 11696, 11695, 12019, 12020, 12029, 12028
  209052, 11687, 11688, 11697, 11696, 12020, 12021, 12030, 12029
  209053, 11688, 11689, 11698, 11697, 12021, 12022, 12031, 12030
  209054, 11689, 11690, 11699, 11698, 12022, 12023, 12032, 12031
  209055, 11690, 11691, 11700, 11699, 12023, 12024, 12033, 12032
  209056, 11692, 11693, 11702, 11701, 12025, 12026, 12035, 12034
  209057, 11693, 11694, 11703, 11702, 12026, 12027, 12036, 12035
  209058, 11694, 11695, 11704, 11703, 12027, 12028, 12037, 12036
  209059, 11695, 11696, 11705, 11704, 12028, 12029, 12038, 12037
  209060, 11696, 11697, 11706, 11705, 12029, 12030, 12039, 12038
  209061, 11697, 11698, 11707, 11706, 12030, 12031, 12040, 12039
  209062, 11698, 11699, 11708, 11707, 12031, 12032, 12041, 12040
  209063, 11699, 11700, 11709, 11708, 12032, 12033, 12042, 12041
  209064, 11701, 11702, 11711, 11710, 12034, 12035, 12044, 12043
  209065, 11702, 11703, 11712, 11711, 12035, 12036, 12045, 12044
  209066, 11703, 11704, 11713, 11712, 12036, 12037, 12046, 12045
  209067, 11704, 11705, 11714, 11713, 12037, 12038, 12047, 12046
  209068, 11705, 11706, 11715, 11714, 12038, 12039, 12048, 12047
  209069, 11706, 11707, 11716, 11715, 12039, 12040, 12049, 12048
  209070, 11707, 11708, 11717, 11716, 12040, 12041, 12050, 12049
  209071, 11708, 11709, 11718, 11717, 12041, 12042, 12051, 12050
  209072, 11710, 11711, 11720, 11719, 12043, 12044, 12053, 12052
  209073, 11711, 11712, 11721, 11720, 12044, 12045, 12054, 12053
  209074, 11712, 11713, 11722, 11721, 12045, 12046, 12055, 12054
  209075, 11713, 11714, 11723, 11722, 12046, 12047, 12056, 12055
  209076, 11714, 11715, 11724, 11723, 12047, 12048, 12057, 12056
  209077, 11715, 11716, 11725, 11724, 12048, 12049, 12058, 12057
  209078, 11716, 11717, 11726, 11725, 12049, 12050, 12059, 12058
  209079, 11717, 11718, 11727, 11726, 12050, 12051, 12060, 12059
  209080, 11719, 11720, 11729, 11728, 12052, 12053, 12062, 12061
  209081, 11720, 11721, 11730, 11729, 12053, 12054, 12063, 12062
  209082, 11721, 11722, 11731, 11730, 12054, 12055, 12064, 12063
  209083, 11722, 11723, 11732, 11731, 12055, 12056, 12065, 12064
  209084, 11723, 11724, 11733, 11732, 12056, 12057, 12066, 12065
  209085, 11724, 11725, 11734, 11733, 12057, 12058, 12067, 12066
  209086, 11725, 11726, 11735, 11734, 12058, 12059, 12068, 12067
  209087, 11726, 11727, 11736, 11735, 12059, 12060, 12069, 12068
  209088, 11728, 11729, 11738, 11737, 12061, 12062, 12071, 12070
  209089, 11729, 11730, 11739, 11738, 12062, 12063, 12072, 12071
  209090, 11730, 11731, 11740, 11739, 12063, 12064, 12073, 12072
  209091, 11731, 11732, 11741, 11740, 12064, 12065, 12074, 12073
  209092, 11732, 11733, 11742, 11741, 12065, 12066, 12075, 12074
  209093, 11733, 11734, 11743, 11742, 12066, 12067, 12076, 12075
  209094, 11734, 11735, 11744, 11743, 12067, 12068, 12077, 12076
  209095, 11735, 11736, 11745, 11744, 12068, 12069, 12078, 12077
  209096, 11737, 11738, 11747, 11746, 12070, 12071, 12080, 12079
  209097, 11738, 11739, 11748, 11747, 12071, 12072, 12081, 12080
  209098, 11739, 11740, 11749, 11748, 12072, 12073, 12082, 12081
  209099, 11740, 11741, 11750, 11749, 12073, 12074, 12083, 12082
  209100, 11741, 11742, 11751, 11750, 12074, 12075, 12084, 12083
  209101, 11742, 11743, 11752, 11751, 12075, 12076, 12085, 12084
  209102, 11743, 11744, 11753, 11752, 12076, 12077, 12086, 12085
  209103, 11744, 11745, 11754, 11753, 12077, 12078, 12087, 12086
  209104, 11746, 11747, 11756, 11755, 12079, 12080, 12089, 12088
  209105, 11747, 11748, 11757, 11756, 12080, 12081, 12090, 12089
  209106, 11748, 11749, 11758, 11757, 12081, 12082, 12091, 12090
  209107, 11749, 11750, 11759, 11758, 12082, 12083, 12092, 12091
  209108, 11750, 11751, 11760, 11759, 12083, 12084, 12093, 12092
  209109, 11751, 11752, 11761, 11760, 12084, 12085, 12094, 12093
  209110, 11752, 11753, 11762, 11761, 12085, 12086, 12095, 12094
  209111, 11753, 11754, 11763, 11762, 12086, 12087, 12096, 12095
  209112, 11755, 11756, 11765, 11764, 12088, 12089, 12098, 12097
  209113, 11756, 11757, 11766, 11765, 12089, 12090, 12099, 12098
  209114, 11757, 11758, 11767, 11766, 12090, 12091, 12100, 12099
  209115, 11758, 11759, 11768, 11767, 12091, 12092, 12101, 12100
  209116, 11759, 11760, 11769, 11768, 12092, 12093, 12102, 12101
  209117, 11760, 11761, 11770, 11769, 12093, 12094, 12103, 12102
  209118, 11761, 11762, 11771, 11770, 12094, 12095, 12104, 12103
  209119, 11762, 11763, 11772, 11771, 12095, 12096, 12105, 12104
  209120, 11764, 11765, 11774, 11773, 12097, 12098, 12107, 12106
  209121, 11765, 11766, 11775, 11774, 12098, 12099, 12108, 12107
  209122, 11766, 11767, 11776, 11775, 12099, 12100, 12109, 12108
  209123, 11767, 11768, 11777, 11776, 12100, 12101, 12110, 12109
  209124, 11768, 11769, 11778, 11777, 12101, 12102, 12111, 12110
  209125, 11769, 11770, 11779, 11778, 12102, 12103, 12112, 12111
  209126, 11770, 11771, 11780, 11779, 12103, 12104, 12113, 12112
  209127, 11771, 11772, 11781, 11780, 12104, 12105, 12114, 12113
  209128, 11773, 11774, 11783, 11782, 12106, 12107, 12116, 12115
  209129, 11774, 11775, 11784, 11783, 12107, 12108, 12117, 12116
  209130, 11775, 11776, 11785, 11784, 12108, 12109, 12118, 12117
  209131, 11776, 11777, 11786, 11785, 12109, 12110, 12119, 12118
  209132, 11777, 11778, 11787, 11786, 12110, 12111, 12120, 12119
  209133, 11778, 11779, 11788, 11787, 12111, 12112, 12121, 12120
  209134, 11779, 11780, 11789, 11788, 12112, 12113, 12122, 12121
  209135, 11780, 11781, 11790, 11789, 12113, 12114, 12123, 12122
  209136, 11782, 11783, 11792, 11791, 12115, 12116, 12125, 12124
  209137, 11783, 11784, 11793, 11792, 12116, 12117, 12126, 12125
  209138, 11784, 11785, 11794, 11793, 12117, 12118, 12127, 12126
  209139, 11785, 11786, 11795, 11794, 12118, 12119, 12128, 12127
  209140, 11786, 11787, 11796, 11795, 12119, 12120, 12129, 12128
  209141, 11787, 11788, 11797, 11796, 12120, 12121, 12130, 12129
  209142, 11788, 11789, 11798, 11797, 12121, 12122, 12131, 12130
  209143, 11789, 11790, 11799, 11798, 12122, 12123, 12132, 12131
  209144, 11791, 11792, 11801, 11800, 12124, 12125, 12134, 12133
  209145, 11792, 11793, 11802, 11801, 12125, 12126, 12135, 12134
  209146, 11793, 11794, 11803, 11802, 12126, 12127, 12136, 12135
  209147, 11794, 11795, 11804, 11803, 12127, 12128, 12137, 12136
  209148, 11795, 11796, 11805, 11804, 12128, 12129, 12138, 12137
  209149, 11796, 11797, 11806, 11805, 12129, 12130, 12139, 12138
  209150, 11797, 11798, 11807, 11806, 12130, 12131, 12140, 12139
  209151, 11798, 11799, 11808, 11807, 12131, 12132, 12141, 12140
  209152, 11800, 11801, 11810, 11809, 12133, 12134, 12143, 12142
  209153, 11801, 11802, 11811, 11810, 12134, 12135, 12144, 12143
  209154, 11802, 11803, 11812, 11811, 12135, 12136, 12145, 12144
  209155, 11803, 11804, 11813, 11812, 12136, 12137, 12146, 12145
  209156, 11804, 11805, 11814, 11813, 12137, 12138, 12147, 12146
  209157, 11805, 11806, 11815, 11814, 12138, 12139, 12148, 12147
  209158, 11806, 11807, 11816, 11815, 12139, 12140, 12149, 12148
  209159, 11807, 11808, 11817, 11816, 12140, 12141, 12150, 12149
  209160, 11809, 11810, 11819, 11818, 12142, 12143, 12152, 12151
  209161, 11810, 11811, 11820, 11819, 12143, 12144, 12153, 12152
  209162, 11811, 11812, 11821, 11820, 12144, 12145, 12154, 12153
  209163, 11812, 11813, 11822, 11821, 12145, 12146, 12155, 12154
  209164, 11813, 11814, 11823, 11822, 12146, 12147, 12156, 12155
  209165, 11814, 11815, 11824, 11823, 12147, 12148, 12157, 12156
  209166, 11815, 11816, 11825, 11824, 12148, 12149, 12158, 12157
  209167, 11816, 11817, 11826, 11825, 12149, 12150, 12159, 12158
  209168, 11818, 11819, 11828, 11827, 12151, 12152, 12161, 12160
  209169, 11819, 11820, 11829, 11828, 12152, 12153, 12162, 12161
  209170, 11820, 11821, 11830, 11829, 12153, 12154, 12163, 12162
  209171, 11821, 11822, 11831, 11830, 12154, 12155, 12164, 12163
  209172, 11822, 11823, 11832, 11831, 12155, 12156, 12165, 12164
  209173, 11823, 11824, 11833, 11832, 12156, 12157, 12166, 12165
  209174, 11824, 11825, 11834, 11833, 12157, 12158, 12167, 12166
  209175, 11825, 11826, 11835, 11834, 12158, 12159, 12168, 12167
  209176, 11827, 11828, 11837, 11836, 12160, 12161, 12170, 12169
  209177, 11828, 11829, 11838, 11837, 12161, 12162, 12171, 12170
  209178, 11829, 11830, 11839, 11838, 12162, 12163, 12172, 12171
  209179, 11830, 11831, 11840, 11839, 12163, 12164, 12173, 12172
  209180, 11831, 11832, 11841, 11840, 12164, 12165, 12174, 12173
  209181, 11832, 11833, 11842, 11841, 12165, 12166, 12175, 12174
  209182, 11833, 11834, 11843, 11842, 12166, 12167, 12176, 12175
  209183, 11834, 11835, 11844, 11843, 12167, 12168, 12177, 12176
  209184, 11836, 11837, 11846, 11845, 12169, 12170, 12179, 12178
  209185, 11837, 11838, 11847, 11846, 12170, 12171, 12180, 12179
  209186, 11838, 11839, 11848, 11847, 12171, 12172, 12181, 12180
  209187, 11839, 11840, 11849, 11848, 12172, 12173, 12182, 12181
  209188, 11840, 11841, 11850, 11849, 12173, 12174, 12183, 12182
  209189, 11841, 11842, 11851, 11850, 12174, 12175, 12184, 12183
  209190, 11842, 11843, 11852, 11851, 12175, 12176, 12185, 12184
  209191, 11843, 11844, 11853, 11852, 12176, 12177, 12186, 12185
  209192, 11845, 11846, 11855, 11854, 12178, 12179, 12188, 12187
  209193, 11846, 11847, 11856, 11855, 12179, 12180, 12189, 12188
  209194, 11847, 11848, 11857, 11856, 12180, 12181, 12190, 12189
  209195, 11848, 11849, 11858, 11857, 12181, 12182, 12191, 12190
  209196, 11849, 11850, 11859, 11858, 12182, 12183, 12192, 12191
  209197, 11850, 11851, 11860, 11859, 12183, 12184, 12193, 12192
  209198, 11851, 11852, 11861, 11860, 12184, 12185, 12194, 12193
  209199, 11852, 11853, 11862, 11861, 12185, 12186, 12195, 12194
  209200, 11854, 11855, 11864, 11863, 12187, 12188, 12197, 12196
  209201, 11855, 11856, 11865, 11864, 12188, 12189, 12198, 12197
  209202, 11856, 11857, 11866, 11865, 12189, 12190, 12199, 12198
  209203, 11857, 11858, 11867, 11866, 12190, 12191, 12200, 12199
  209204, 11858, 11859, 11868, 11867, 12191, 12192, 12201, 12200
  209205, 11859, 11860, 11869, 11868, 12192, 12193, 12202, 12201
  209206, 11860, 11861, 11870, 11869, 12193, 12194, 12203, 12202
  209207, 11861, 11862, 11871, 11870, 12194, 12195, 12204, 12203
  209208, 11863, 11864, 11873, 11872, 12196, 12197, 12206, 12205
  209209, 11864, 11865, 11874, 11873, 12197, 12198, 12207, 12206
  209210, 11865, 11866, 11875, 11874, 12198, 12199, 12208, 12207
  209211, 11866, 11867, 11876, 11875, 12199, 12200, 12209, 12208
  209212, 11867, 11868, 11877, 11876, 12200, 12201, 12210, 12209
  209213, 11868, 11869, 11878, 11877, 12201, 12202, 12211, 12210
  209214, 11869, 11870, 11879, 11878, 12202, 12203, 12212, 12211
  209215, 11870, 11871, 11880, 11879, 12203, 12204, 12213, 12212
*Nset, nset=WX0
  1225,
  1226,
  1227,
  1228,
  1229,
  1230,
  1231,
  1232,
  1233,
  1234,
  1235,
  1236,
  1237,
  1238,
  1239,
  1240,
  1241,
  1242,
  1243,
  1244,
  1245,
  1246,
  1247,
  1248,
  1249,
  1250,
  1251,
  1252,
  1253,
  1254,
  1255,
  1256,
  1257,
  1258,
  1259,
  1260,
  1261,
  1262,
  1263,
  1264,
  1265,
  1266,
  1267,
  1268,
  1269,
  1270,
  1271,
  1272,
  1273,
  1274,
  1275,
  1276,
  1277,
  1278,
  1279,
  1280,
  1281,
  1282,
  1283,
  1284,
  1285,
  1286,
  1287,
  1288,
  1289,
  1290,
  1291,
  1292,
  1293,
  1294,
  1295,
  1296,
  1297,
  1298,
  1299,
  1300,
  1301,
  1302,
  1303,
  1304,
  1305,
  1306,
  1307,
  1308,
  1309,
  1310,
  1311,
  1312,
  1313,
  1314,
  1315,
  1316,
  1317,
  1318,
  1319,
  1320,
  1321,
  1322,
  1323,
  1324,
  1325,
  1326,
  1327,
  1328,
  1329,
  1330,
  1331,
  1332,
  1333,
  1334,
  1335,
  1336,
  1337,
  1338,
  1339,
  1340,
  1341,
  1342,
  1343,
  1344,
  1345,
  1346,
  1347,
  1348,
  1349,
  1350,
  1351,
  1352,
  1353,
  1354,
  1355,
  1356,
  1357,
  1358,
  1359,
  1360,
  1361,
  1362,
  1363,
  1364,
  1365,
  1366,
  1367,
  1368,
  1369,
  1370,
  1371,
  1372,
  1373,
  1374,
  1375,
  1376,
  1377,
  1378,
  1379,
  1380,
  1381,
  1382,
  1383,
  1384,
  1385,
  1386,
  1387,
  1388,
  1389,
  1390,
  1391,
  1392,
  1393,
  1394,
  1395,
  1396,
  1397,
  1398,
  1399,
  1400,
  1401,
  1402,
  1403,
  1404,
  1405,
  1406,
  1407,
  1408,
  1409,
  1410,
  1411,
  1412,
  1413,
  1414,
  1415,
  1416,
  1417,
  1418,
  1419,
  1420,
  1421,
  1422,
  1423,
  1424,
  1425,
  1426,
  1427,
  1428,
  1429,
  1430,
  1431,
  1432,
  1433,
  1434,
  1435,
  1436,
  1437,
  1438,
  1439,
  1440,
  1441,
  1442,
  1443,
  1444,
  1445,
  1446,
  1447,
  1448,
  1449,
  1450,
  1451,
  1452,
  1453,
  1454,
  1455,
  1456,
  1457,
  1458,
  1459,
  1460,
  1461,
  1462,
  1463,
  1464,
  1465,
  1466,
  1467,
  1468,
  1469,
  1470,
  1471,
  1472,
  1473,
  1474,
  1475,
  1476,
  1477,
  1478,
  1479,
  1480,
  1481,
  1482,
  1483,
  1484,
  1485,
  1486,
  1487,
  1488,
  1489,
  1490,
  1491,
  1492,
  1493,
  1494,
  1495,
  1496,
  1497,
  1498,
  1499,
  1500,
  1501,
  1502,
  1503,
  1504,
  1505,
  1506,
  1507,
  1508,
  1509,
  1510,
  1511,
  1512,
  1513,
  1514,
  1515,
  1516,
  1517,
  1518,
  1519,
  1520,
  1521,
  1522,
  1523,
  1524,
  1525,
  1526,
  1527,
  1528,
  1529,
  1530,
  1531,
  1532,
  1533,
  1534,
  1535,
  1536,
  1537,
  1538,
  1539,
  1540,
  1541,
  1542,
  1543,
  1544,
  1545,
  1546,
  1547,
  1548,
  1549,
  1550,
  1551,
  1552,
  1553,
  1554,
  1555,
  1556,
  1557,
*Nset, nset=WXL
  11881,
  11882,
  11883,
  11884,
  11885,
  11886,
  11887,
  11888,
  11889,
  11890,
  11891,
  11892,
  11893,
  11894,
  11895,
  11896,
  11897,
  11898,
  11899,
  11900,
  11901,
  11902,
  11903,
  11904,
  11905,
  11906,
  11907,
  11908,
  11909,
  11910,
  11911,
  11912,
  11913,
  11914,
  11915,
  11916,
  11917,
  11918,
  11919,
  11920,
  11921,
  11922,
  11923,
  11924,
  11925,
  11926,
  11927,
  11928,
  11929,
  11930,
  11931,
  11932,
  11933,
  11934,
  11935,
  11936,
  11937,
  11938,
  11939,
  11940,
  11941,
  11942,
  11943,
  11944,
  11945,
  11946,
  11947,
  11948,
  11949,
  11950,
  11951,
  11952,
  11953,
  11954,
  11955,
  11956,
  11957,
  11958,
  11959,
  11960,
  11961,
  11962,
  11963,
  11964,
  11965,
  11966,
  11967,
  11968,
  11969,
  11970,
  11971,
  11972,
  11973,
  11974,
  11975,
  11976,
  11977,
  11978,
  11979,
  11980,
  11981,
  11982,
  11983,
  11984,
  11985,
  11986,
  11987,
  11988,
  11989,
  11990,
  11991,
  11992,
  11993,
  11994,
  11995,
  11996,
  11997,
  11998,
  11999,
  12000,
  12001,
  12002,
  12003,
  12004,
  12005,
  12006,
  12007,
  12008,
  12009,
  12010,
  12011,
  12012,
  12013,
  12014,
  12015,
  12016,
  12017,
  12018,
  12019,
  12020,
  12021,
  12022,
  12023,
  12024,
  12025,
  12026,
  12027,
  12028,
  12029,
  12030,
  12031,
  12032,
  12033,
  12034,
  12035,
  12036,
  12037,
  12038,
  12039,
  12040,
  12041,
  12042,
  12043,
  12044,
  12045,
  12046,
  12047,
  12048,
  12049,
  12050,
  12051,
  12052,
  12053,
  12054,
  12055,
  12056,
  12057,
  12058,
  12059,
  12060,
  12061,
  12062,
  12063,
  12064,
  12065,
  12066,
  12067,
  12068,
  12069,
  12070,
  12071,
  12072,
  12073,
  12074,
  12075,
  12076,
  12077,
  12078,
  12079,
  12080,
  12081,
  12082,
  12083,
  12084,
  12085,
  12086,
  12087,
  12088,
  12089,
  12090,
  12091,
  12092,
  12093,
  12094,
  12095,
  12096,
  12097,
  12098,
  12099,
  12100,
  12101,
  12102,
  12103,
  12104,
  12105,
  12106,
  12107,
  12108,
  12109,
  12110,
  12111,
  12112,
  12113,
  12114,
  12115,
  12116,
  12117,
  12118,
  12119,
  12120,
  12121,
  12122,
  12123,
  12124,
  12125,
  12126,
  12127,
  12128,
  12129,
  12130,
  12131,
  12132,
  12133,
  12134,
  12135,
  12136,
  12137,
  12138,
  12139,
  12140,
  12141,
  12142,
  12143,
  12144,
  12145,
  12146,
  12147,
  12148,
  12149,
  12150,
  12151,
  12152,
  12153,
  12154,
  12155,
  12156,
  12157,
  12158,
  12159,
  12160,
  12161,
  12162,
  12163,
  12164,
  12165,
  12166,
  12167,
  12168,
  12169,
  12170,
  12171,
  12172,
  12173,
  12174,
  12175,
  12176,
  12177,
  12178,
  12179,
  12180,
  12181,
  12182,
  12183,
  12184,
  12185,
  12186,
  12187,
  12188,
  12189,
  12190,
  12191,
  12192,
  12193,
  12194,
  12195,
  12196,
  12197,
  12198,
  12199,
  12200,
  12201,
  12202,
  12203,
  12204,
  12205,
  12206,
  12207,
  12208,
  12209,
  12210,
  12211,
  12212,
  12213,
*Solid Section, elset=WPALL, material=AISI_304
,
*End Part
*Assembly, name=Assembly
*Instance, name=BI, part=Belt
*End Instance
*Instance, name=WI, part=WP
*End Instance
*End Assembly
*Surface Interaction, name=GenProp
*Friction
  0.45,
*Surface Behavior, pressure-overclosure=HARD
,
*Contact
*Contact Inclusions, ALL EXTERIOR
*Contact Property Assignment
  ,  , GenProp
*Step, name=Pretension, nlgeom=YES, inc=2000, unsymm=YES
*Static, stabilize=0.0001
  0.01, 1.0, 1e-08, 0.1
*Boundary
  BI.BLEFT, 1, 3, 0.0
  BI.BLEFT, 4, 6, 0.0
  BI.BRIGHT, 2, 2, 0.41
  BI.BRIGHT, 1, 1, 0.0
  BI.BRIGHT, 3, 3, 0.0
  BI.BRIGHT, 4, 6, 0.0
  WI.WX0, 1, 3, 0.0
  WI.WXL, 1, 3, 0.0
*Output, field, frequency=1
*Node Output
  U, RF
*Element Output
  S, SF
*Contact Output
  CSTRESS, CSTATUS
*End Step
*Step, name=FrameEngage, nlgeom=YES, inc=2000, unsymm=YES
*Static, stabilize=0.0001
  0.01, 1.0, 1e-08, 0.1
*Boundary, op=NEW
  BI.BLEFT, 1, 3, 0.0
  BI.BLEFT, 4, 6, 0.0
  BI.BRIGHT, 2, 2, 0.41
  BI.BRIGHT, 1, 1, 0.0
  BI.BRIGHT, 3, 3, -42.500000
  BI.BRIGHT, 4, 6, 0.0
  WI.WX0, 1, 3, 0.0
  WI.WXL, 1, 2, 0.0
*Output, field, frequency=1
*Node Output
  U, RF
*Element Output
  S, SF, PEEQ
*Contact Output
  CSTRESS, CSTATUS
*End Step
*Step, name=Equilibrium, nlgeom=YES, inc=2000, unsymm=YES
*Static, stabilize=0.0001
  0.1, 1.0, 1e-08, 0.5
*Output, field, frequency=1
*Node Output
  U, RF
*Element Output
  S, SF, PEEQ
*Contact Output
  CSTRESS, CSTATUS
*End Step