*Heading
** V9 Rough Contact x2=42.5+0.0deg TrueCyl WPshiftZ=-33.8
*Preprint, echo=NO, model=NO, history=NO, contact=NO
*Material, name=AISI_304
*Density
 7.9e-09,
*Elastic
 200000.0, 0.30
*Plastic
  230.0, 0.000000
  270.0, 0.002000
  320.0, 0.010000
  390.0, 0.030000
  470.0, 0.070000
  550.0, 0.150000
  630.0, 0.250000
  700.0, 0.400000
*Material, name=BeltMat
*Density
 1.5e-09,
*Elastic
 4000.0, 0.30
*Part, name=Belt
*Node
  1, -15.00000, -100.00000, 0.0
  2, -11.25000, -100.00000, 0.0
  3, -7.50000, -100.00000, 0.0
  4, -3.75000, -100.00000, 0.0
  5, 0.00000, -100.00000, 0.0
  6, 3.75000, -100.00000, 0.0
  7, 7.50000, -100.00000, 0.0
  8, 11.25000, -100.00000, 0.0
  9, 15.00000, -100.00000, 0.0
  10, -15.00000, -95.00000, 0.0
  11, -11.25000, -95.00000, 0.0
  12, -7.50000, -95.00000, 0.0
  13, -3.75000, -95.00000, 0.0
  14, 0.00000, -95.00000, 0.0
  15, 3.75000, -95.00000, 0.0
  16, 7.50000, -95.00000, 0.0
  17, 11.25000, -95.00000, 0.0
  18, 15.00000, -95.00000, 0.0
  19, -15.00000, -90.00000, 0.0
  20, -11.25000, -90.00000, 0.0
  21, -7.50000, -90.00000, 0.0
  22, -3.75000, -90.00000, 0.0
  23, 0.00000, -90.00000, 0.0
  24, 3.75000, -90.00000, 0.0
  25, 7.50000, -90.00000, 0.0
  26, 11.25000, -90.00000, 0.0
  27, 15.00000, -90.00000, 0.0
  28, -15.00000, -85.00000, 0.0
  29, -11.25000, -85.00000, 0.0
  30, -7.50000, -85.00000, 0.0
  31, -3.75000, -85.00000, 0.0
  32, 0.00000, -85.00000, 0.0
  33, 3.75000, -85.00000, 0.0
  34, 7.50000, -85.00000, 0.0
  35, 11.25000, -85.00000, 0.0
  36, 15.00000, -85.00000, 0.0
  37, -15.00000, -80.00000, 0.0
  38, -11.25000, -80.00000, 0.0
  39, -7.50000, -80.00000, 0.0
  40, -3.75000, -80.00000, 0.0
  41, 0.00000, -80.00000, 0.0
  42, 3.75000, -80.00000, 0.0
  43, 7.50000, -80.00000, 0.0
  44, 11.25000, -80.00000, 0.0
  45, 15.00000, -80.00000, 0.0
  46, -15.00000, -75.00000, 0.0
  47, -11.25000, -75.00000, 0.0
  48, -7.50000, -75.00000, 0.0
  49, -3.75000, -75.00000, 0.0
  50, 0.00000, -75.00000, 0.0
  51, 3.75000, -75.00000, 0.0
  52, 7.50000, -75.00000, 0.0
  53, 11.25000, -75.00000, 0.0
  54, 15.00000, -75.00000, 0.0
  55, -15.00000, -70.00000, 0.0
  56, -11.25000, -70.00000, 0.0
  57, -7.50000, -70.00000, 0.0
  58, -3.75000, -70.00000, 0.0
  59, 0.00000, -70.00000, 0.0
  60, 3.75000, -70.00000, 0.0
  61, 7.50000, -70.00000, 0.0
  62, 11.25000, -70.00000, 0.0
  63, 15.00000, -70.00000, 0.0
  64, -15.00000, -65.00000, 0.0
  65, -11.25000, -65.00000, 0.0
  66, -7.50000, -65.00000, 0.0
  67, -3.75000, -65.00000, 0.0
  68, 0.00000, -65.00000, 0.0
  69, 3.75000, -65.00000, 0.0
  70, 7.50000, -65.00000, 0.0
  71, 11.25000, -65.00000, 0.0
  72, 15.00000, -65.00000, 0.0
  73, -15.00000, -60.00000, 0.0
  74, -11.25000, -60.00000, 0.0
  75, -7.50000, -60.00000, 0.0
  76, -3.75000, -60.00000, 0.0
  77, 0.00000, -60.00000, 0.0
  78, 3.75000, -60.00000, 0.0
  79, 7.50000, -60.00000, 0.0
  80, 11.25000, -60.00000, 0.0
  81, 15.00000, -60.00000, 0.0
  82, -15.00000, -55.00000, 0.0
  83, -11.25000, -55.00000, 0.0
  84, -7.50000, -55.00000, 0.0
  85, -3.75000, -55.00000, 0.0
  86, 0.00000, -55.00000, 0.0
  87, 3.75000, -55.00000, 0.0
  88, 7.50000, -55.00000, 0.0
  89, 11.25000, -55.00000, 0.0
  90, 15.00000, -55.00000, 0.0
  91, -15.00000, -50.00000, 0.0
  92, -11.25000, -50.00000, 0.0
  93, -7.50000, -50.00000, 0.0
  94, -3.75000, -50.00000, 0.0
  95, 0.00000, -50.00000, 0.0
  96, 3.75000, -50.00000, 0.0
  97, 7.50000, -50.00000, 0.0
  98, 11.25000, -50.00000, 0.0
  99, 15.00000, -50.00000, 0.0
  100, -15.00000, -45.00000, 0.0
  101, -11.25000, -45.00000, 0.0
  102, -7.50000, -45.00000, 0.0
  103, -3.75000, -45.00000, 0.0
  104, 0.00000, -45.00000, 0.0
  105, 3.75000, -45.00000, 0.0
  106, 7.50000, -45.00000, 0.0
  107, 11.25000, -45.00000, 0.0
  108, 15.00000, -45.00000, 0.0
  109, -15.00000, -40.00000, 0.0
  110, -11.25000, -40.00000, 0.0
  111, -7.50000, -40.00000, 0.0
  112, -3.75000, -40.00000, 0.0
  113, 0.00000, -40.00000, 0.0
  114, 3.75000, -40.00000, 0.0
  115, 7.50000, -40.00000, 0.0
  116, 11.25000, -40.00000, 0.0
  117, 15.00000, -40.00000, 0.0
  118, -15.00000, -35.00000, 0.0
  119, -11.25000, -35.00000, 0.0
  120, -7.50000, -35.00000, 0.0
  121, -3.75000, -35.00000, 0.0
  122, 0.00000, -35.00000, 0.0
  123, 3.75000, -35.00000, 0.0
  124, 7.50000, -35.00000, 0.0
  125, 11.25000, -35.00000, 0.0
  126, 15.00000, -35.00000, 0.0
  127, -15.00000, -30.00000, 0.0
  128, -11.25000, -30.00000, 0.0
  129, -7.50000, -30.00000, 0.0
  130, -3.75000, -30.00000, 0.0
  131, 0.00000, -30.00000, 0.0
  132, 3.75000, -30.00000, 0.0
  133, 7.50000, -30.00000, 0.0
  134, 11.25000, -30.00000, 0.0
  135, 15.00000, -30.00000, 0.0
  136, -15.00000, -25.00000, 0.0
  137, -11.25000, -25.00000, 0.0
  138, -7.50000, -25.00000, 0.0
  139, -3.75000, -25.00000, 0.0
  140, 0.00000, -25.00000, 0.0
  141, 3.75000, -25.00000, 0.0
  142, 7.50000, -25.00000, 0.0
  143, 11.25000, -25.00000, 0.0
  144, 15.00000, -25.00000, 0.0
  145, -15.00000, -20.00000, 0.0
  146, -11.25000, -20.00000, 0.0
  147, -7.50000, -20.00000, 0.0
  148, -3.75000, -20.00000, 0.0
  149, 0.00000, -20.00000, 0.0
  150, 3.75000, -20.00000, 0.0
  151, 7.50000, -20.00000, 0.0
  152, 11.25000, -20.00000, 0.0
  153, 15.00000, -20.00000, 0.0
  154, -15.00000, -15.00000, 0.0
  155, -11.25000, -15.00000, 0.0
  156, -7.50000, -15.00000, 0.0
  157, -3.75000, -15.00000, 0.0
  158, 0.00000, -15.00000, 0.0
  159, 3.75000, -15.00000, 0.0
  160, 7.50000, -15.00000, 0.0
  161, 11.25000, -15.00000, 0.0
  162, 15.00000, -15.00000, 0.0
  163, -15.00000, -10.00000, 0.0
  164, -11.25000, -10.00000, 0.0
  165, -7.50000, -10.00000, 0.0
  166, -3.75000, -10.00000, 0.0
  167, 0.00000, -10.00000, 0.0
  168, 3.75000, -10.00000, 0.0
  169, 7.50000, -10.00000, 0.0
  170, 11.25000, -10.00000, 0.0
  171, 15.00000, -10.00000, 0.0
  172, -15.00000, -5.00000, 0.0
  173, -11.25000, -5.00000, 0.0
  174, -7.50000, -5.00000, 0.0
  175, -3.75000, -5.00000, 0.0
  176, 0.00000, -5.00000, 0.0
  177, 3.75000, -5.00000, 0.0
  178, 7.50000, -5.00000, 0.0
  179, 11.25000, -5.00000, 0.0
  180, 15.00000, -5.00000, 0.0
  181, -15.00000, 0.00000, 0.0
  182, -11.25000, 0.00000, 0.0
  183, -7.50000, 0.00000, 0.0
  184, -3.75000, 0.00000, 0.0
  185, 0.00000, 0.00000, 0.0
  186, 3.75000, 0.00000, 0.0
  187, 7.50000, 0.00000, 0.0
  188, 11.25000, 0.00000, 0.0
  189, 15.00000, 0.00000, 0.0
  190, -15.00000, 5.00000, 0.0
  191, -11.25000, 5.00000, 0.0
  192, -7.50000, 5.00000, 0.0
  193, -3.75000, 5.00000, 0.0
  194, 0.00000, 5.00000, 0.0
  195, 3.75000, 5.00000, 0.0
  196, 7.50000, 5.00000, 0.0
  197, 11.25000, 5.00000, 0.0
  198, 15.00000, 5.00000, 0.0
  199, -15.00000, 10.00000, 0.0
  200, -11.25000, 10.00000, 0.0
  201, -7.50000, 10.00000, 0.0
  202, -3.75000, 10.00000, 0.0
  203, 0.00000, 10.00000, 0.0
  204, 3.75000, 10.00000, 0.0
  205, 7.50000, 10.00000, 0.0
  206, 11.25000, 10.00000, 0.0
  207, 15.00000, 10.00000, 0.0
  208, -15.00000, 15.00000, 0.0
  209, -11.25000, 15.00000, 0.0
  210, -7.50000, 15.00000, 0.0
  211, -3.75000, 15.00000, 0.0
  212, 0.00000, 15.00000, 0.0
  213, 3.75000, 15.00000, 0.0
  214, 7.50000, 15.00000, 0.0
  215, 11.25000, 15.00000, 0.0
  216, 15.00000, 15.00000, 0.0
  217, -15.00000, 20.00000, 0.0
  218, -11.25000, 20.00000, 0.0
  219, -7.50000, 20.00000, 0.0
  220, -3.75000, 20.00000, 0.0
  221, 0.00000, 20.00000, 0.0
  222, 3.75000, 20.00000, 0.0
  223, 7.50000, 20.00000, 0.0
  224, 11.25000, 20.00000, 0.0
  225, 15.00000, 20.00000, 0.0
  226, -15.00000, 25.00000, 0.0
  227, -11.25000, 25.00000, 0.0
  228, -7.50000, 25.00000, 0.0
  229, -3.75000, 25.00000, 0.0
  230, 0.00000, 25.00000, 0.0
  231, 3.75000, 25.00000, 0.0
  232, 7.50000, 25.00000, 0.0
  233, 11.25000, 25.00000, 0.0
  234, 15.00000, 25.00000, 0.0
  235, -15.00000, 30.00000, 0.0
  236, -11.25000, 30.00000, 0.0
  237, -7.50000, 30.00000, 0.0
  238, -3.75000, 30.00000, 0.0
  239, 0.00000, 30.00000, 0.0
  240, 3.75000, 30.00000, 0.0
  241, 7.50000, 30.00000, 0.0
  242, 11.25000, 30.00000, 0.0
  243, 15.00000, 30.00000, 0.0
  244, -15.00000, 35.00000, 0.0
  245, -11.25000, 35.00000, 0.0
  246, -7.50000, 35.00000, 0.0
  247, -3.75000, 35.00000, 0.0
  248, 0.00000, 35.00000, 0.0
  249, 3.75000, 35.00000, 0.0
  250, 7.50000, 35.00000, 0.0
  251, 11.25000, 35.00000, 0.0
  252, 15.00000, 35.00000, 0.0
  253, -15.00000, 40.00000, 0.0
  254, -11.25000, 40.00000, 0.0
  255, -7.50000, 40.00000, 0.0
  256, -3.75000, 40.00000, 0.0
  257, 0.00000, 40.00000, 0.0
  258, 3.75000, 40.00000, 0.0
  259, 7.50000, 40.00000, 0.0
  260, 11.25000, 40.00000, 0.0
  261, 15.00000, 40.00000, 0.0
  262, -15.00000, 45.00000, 0.0
  263, -11.25000, 45.00000, 0.0
  264, -7.50000, 45.00000, 0.0
  265, -3.75000, 45.00000, 0.0
  266, 0.00000, 45.00000, 0.0
  267, 3.75000, 45.00000, 0.0
  268, 7.50000, 45.00000, 0.0
  269, 11.25000, 45.00000, 0.0
  270, 15.00000, 45.00000, 0.0
  271, -15.00000, 50.00000, 0.0
  272, -11.25000, 50.00000, 0.0
  273, -7.50000, 50.00000, 0.0
  274, -3.75000, 50.00000, 0.0
  275, 0.00000, 50.00000, 0.0
  276, 3.75000, 50.00000, 0.0
  277, 7.50000, 50.00000, 0.0
  278, 11.25000, 50.00000, 0.0
  279, 15.00000, 50.00000, 0.0
  280, -15.00000, 55.00000, 0.0
  281, -11.25000, 55.00000, 0.0
  282, -7.50000, 55.00000, 0.0
  283, -3.75000, 55.00000, 0.0
  284, 0.00000, 55.00000, 0.0
  285, 3.75000, 55.00000, 0.0
  286, 7.50000, 55.00000, 0.0
  287, 11.25000, 55.00000, 0.0
  288, 15.00000, 55.00000, 0.0
  289, -15.00000, 60.00000, 0.0
  290, -11.25000, 60.00000, 0.0
  291, -7.50000, 60.00000, 0.0
  292, -3.75000, 60.00000, 0.0
  293, 0.00000, 60.00000, 0.0
  294, 3.75000, 60.00000, 0.0
  295, 7.50000, 60.00000, 0.0
  296, 11.25000, 60.00000, 0.0
  297, 15.00000, 60.00000, 0.0
  298, -15.00000, 65.00000, 0.0
  299, -11.25000, 65.00000, 0.0
  300, -7.50000, 65.00000, 0.0
  301, -3.75000, 65.00000, 0.0
  302, 0.00000, 65.00000, 0.0
  303, 3.75000, 65.00000, 0.0
  304, 7.50000, 65.00000, 0.0
  305, 11.25000, 65.00000, 0.0
  306, 15.00000, 65.00000, 0.0
  307, -15.00000, 70.00000, 0.0
  308, -11.25000, 70.00000, 0.0
  309, -7.50000, 70.00000, 0.0
  310, -3.75000, 70.00000, 0.0
  311, 0.00000, 70.00000, 0.0
  312, 3.75000, 70.00000, 0.0
  313, 7.50000, 70.00000, 0.0
  314, 11.25000, 70.00000, 0.0
  315, 15.00000, 70.00000, 0.0
  316, -15.00000, 75.00000, 0.0
  317, -11.25000, 75.00000, 0.0
  318, -7.50000, 75.00000, 0.0
  319, -3.75000, 75.00000, 0.0
  320, 0.00000, 75.00000, 0.0
  321, 3.75000, 75.00000, 0.0
  322, 7.50000, 75.00000, 0.0
  323, 11.25000, 75.00000, 0.0
  324, 15.00000, 75.00000, 0.0
  325, -15.00000, 80.00000, 0.0
  326, -11.25000, 80.00000, 0.0
  327, -7.50000, 80.00000, 0.0
  328, -3.75000, 80.00000, 0.0
  329, 0.00000, 80.00000, 0.0
  330, 3.75000, 80.00000, 0.0
  331, 7.50000, 80.00000, 0.0
  332, 11.25000, 80.00000, 0.0
  333, 15.00000, 80.00000, 0.0
  334, -15.00000, 85.00000, 0.0
  335, -11.25000, 85.00000, 0.0
  336, -7.50000, 85.00000, 0.0
  337, -3.75000, 85.00000, 0.0
  338, 0.00000, 85.00000, 0.0
  339, 3.75000, 85.00000, 0.0
  340, 7.50000, 85.00000, 0.0
  341, 11.25000, 85.00000, 0.0
  342, 15.00000, 85.00000, 0.0
  343, -15.00000, 90.00000, 0.0
  344, -11.25000, 90.00000, 0.0
  345, -7.50000, 90.00000, 0.0
  346, -3.75000, 90.00000, 0.0
  347, 0.00000, 90.00000, 0.0
  348, 3.75000, 90.00000, 0.0
  349, 7.50000, 90.00000, 0.0
  350, 11.25000, 90.00000, 0.0
  351, 15.00000, 90.00000, 0.0
  352, -15.00000, 95.00000, 0.0
  353, -11.25000, 95.00000, 0.0
  354, -7.50000, 95.00000, 0.0
  355, -3.75000, 95.00000, 0.0
  356, 0.00000, 95.00000, 0.0
  357, 3.75000, 95.00000, 0.0
  358, 7.50000, 95.00000, 0.0
  359, 11.25000, 95.00000, 0.0
  360, 15.00000, 95.00000, 0.0
  361, -15.00000, 100.00000, 0.0
  362, -11.25000, 100.00000, 0.0
  363, -7.50000, 100.00000, 0.0
  364, -3.75000, 100.00000, 0.0
  365, 0.00000, 100.00000, 0.0
  366, 3.75000, 100.00000, 0.0
  367, 7.50000, 100.00000, 0.0
  368, 11.25000, 100.00000, 0.0
  369, 15.00000, 100.00000, 0.0
*Element, type=S4R, ELSET=EALL
  1, 1, 2, 11, 10
  2, 2, 3, 12, 11
  3, 3, 4, 13, 12
  4, 4, 5, 14, 13
  5, 5, 6, 15, 14
  6, 6, 7, 16, 15
  7, 7, 8, 17, 16
  8, 8, 9, 18, 17
  9, 10, 11, 20, 19
  10, 11, 12, 21, 20
  11, 12, 13, 22, 21
  12, 13, 14, 23, 22
  13, 14, 15, 24, 23
  14, 15, 16, 25, 24
  15, 16, 17, 26, 25
  16, 17, 18, 27, 26
  17, 19, 20, 29, 28
  18, 20, 21, 30, 29
  19, 21, 22, 31, 30
  20, 22, 23, 32, 31
  21, 23, 24, 33, 32
  22, 24, 25, 34, 33
  23, 25, 26, 35, 34
  24, 26, 27, 36, 35
  25, 28, 29, 38, 37
  26, 29, 30, 39, 38
  27, 30, 31, 40, 39
  28, 31, 32, 41, 40
  29, 32, 33, 42, 41
  30, 33, 34, 43, 42
  31, 34, 35, 44, 43
  32, 35, 36, 45, 44
  33, 37, 38, 47, 46
  34, 38, 39, 48, 47
  35, 39, 40, 49, 48
  36, 40, 41, 50, 49
  37, 41, 42, 51, 50
  38, 42, 43, 52, 51
  39, 43, 44, 53, 52
  40, 44, 45, 54, 53
  41, 46, 47, 56, 55
  42, 47, 48, 57, 56
  43, 48, 49, 58, 57
  44, 49, 50, 59, 58
  45, 50, 51, 60, 59
  46, 51, 52, 61, 60
  47, 52, 53, 62, 61
  48, 53, 54, 63, 62
  49, 55, 56, 65, 64
  50, 56, 57, 66, 65
  51, 57, 58, 67, 66
  52, 58, 59, 68, 67
  53, 59, 60, 69, 68
  54, 60, 61, 70, 69
  55, 61, 62, 71, 70
  56, 62, 63, 72, 71
  57, 64, 65, 74, 73
  58, 65, 66, 75, 74
  59, 66, 67, 76, 75
  60, 67, 68, 77, 76
  61, 68, 69, 78, 77
  62, 69, 70, 79, 78
  63, 70, 71, 80, 79
  64, 71, 72, 81, 80
  65, 73, 74, 83, 82
  66, 74, 75, 84, 83
  67, 75, 76, 85, 84
  68, 76, 77, 86, 85
  69, 77, 78, 87, 86
  70, 78, 79, 88, 87
  71, 79, 80, 89, 88
  72, 80, 81, 90, 89
  73, 82, 83, 92, 91
  74, 83, 84, 93, 92
  75, 84, 85, 94, 93
  76, 85, 86, 95, 94
  77, 86, 87, 96, 95
  78, 87, 88, 97, 96
  79, 88, 89, 98, 97
  80, 89, 90, 99, 98
  81, 91, 92, 101, 100
  82, 92, 93, 102, 101
  83, 93, 94, 103, 102
  84, 94, 95, 104, 103
  85, 95, 96, 105, 104
  86, 96, 97, 106, 105
  87, 97, 98, 107, 106
  88, 98, 99, 108, 107
  89, 100, 101, 110, 109
  90, 101, 102, 111, 110
  91, 102, 103, 112, 111
  92, 103, 104, 113, 112
  93, 104, 105, 114, 113
  94, 105, 106, 115, 114
  95, 106, 107, 116, 115
  96, 107, 108, 117, 116
  97, 109, 110, 119, 118
  98, 110, 111, 120, 119
  99, 111, 112, 121, 120
  100, 112, 113, 122, 121
  101, 113, 114, 123, 122
  102, 114, 115, 124, 123
  103, 115, 116, 125, 124
  104, 116, 117, 126, 125
  105, 118, 119, 128, 127
  106, 119, 120, 129, 128
  107, 120, 121, 130, 129
  108, 121, 122, 131, 130
  109, 122, 123, 132, 131
  110, 123, 124, 133, 132
  111, 124, 125, 134, 133
  112, 125, 126, 135, 134
  113, 127, 128, 137, 136
  114, 128, 129, 138, 137
  115, 129, 130, 139, 138
  116, 130, 131, 140, 139
  117, 131, 132, 141, 140
  118, 132, 133, 142, 141
  119, 133, 134, 143, 142
  120, 134, 135, 144, 143
  121, 136, 137, 146, 145
  122, 137, 138, 147, 146
  123, 138, 139, 148, 147
  124, 139, 140, 149, 148
  125, 140, 141, 150, 149
  126, 141, 142, 151, 150
  127, 142, 143, 152, 151
  128, 143, 144, 153, 152
  129, 145, 146, 155, 154
  130, 146, 147, 156, 155
  131, 147, 148, 157, 156
  132, 148, 149, 158, 157
  133, 149, 150, 159, 158
  134, 150, 151, 160, 159
  135, 151, 152, 161, 160
  136, 152, 153, 162, 161
  137, 154, 155, 164, 163
  138, 155, 156, 165, 164
  139, 156, 157, 166, 165
  140, 157, 158, 167, 166
  141, 158, 159, 168, 167
  142, 159, 160, 169, 168
  143, 160, 161, 170, 169
  144, 161, 162, 171, 170
  145, 163, 164, 173, 172
  146, 164, 165, 174, 173
  147, 165, 166, 175, 174
  148, 166, 167, 176, 175
  149, 167, 168, 177, 176
  150, 168, 169, 178, 177
  151, 169, 170, 179, 178
  152, 170, 171, 180, 179
  153, 172, 173, 182, 181
  154, 173, 174, 183, 182
  155, 174, 175, 184, 183
  156, 175, 176, 185, 184
  157, 176, 177, 186, 185
  158, 177, 178, 187, 186
  159, 178, 179, 188, 187
  160, 179, 180, 189, 188
  161, 181, 182, 191, 190
  162, 182, 183, 192, 191
  163, 183, 184, 193, 192
  164, 184, 185, 194, 193
  165, 185, 186, 195, 194
  166, 186, 187, 196, 195
  167, 187, 188, 197, 196
  168, 188, 189, 198, 197
  169, 190, 191, 200, 199
  170, 191, 192, 201, 200
  171, 192, 193, 202, 201
  172, 193, 194, 203, 202
  173, 194, 195, 204, 203
  174, 195, 196, 205, 204
  175, 196, 197, 206, 205
  176, 197, 198, 207, 206
  177, 199, 200, 209, 208
  178, 200, 201, 210, 209
  179, 201, 202, 211, 210
  180, 202, 203, 212, 211
  181, 203, 204, 213, 212
  182, 204, 205, 214, 213
  183, 205, 206, 215, 214
  184, 206, 207, 216, 215
  185, 208, 209, 218, 217
  186, 209, 210, 219, 218
  187, 210, 211, 220, 219
  188, 211, 212, 221, 220
  189, 212, 213, 222, 221
  190, 213, 214, 223, 222
  191, 214, 215, 224, 223
  192, 215, 216, 225, 224
  193, 217, 218, 227, 226
  194, 218, 219, 228, 227
  195, 219, 220, 229, 228
  196, 220, 221, 230, 229
  197, 221, 222, 231, 230
  198, 222, 223, 232, 231
  199, 223, 224, 233, 232
  200, 224, 225, 234, 233
  201, 226, 227, 236, 235
  202, 227, 228, 237, 236
  203, 228, 229, 238, 237
  204, 229, 230, 239, 238
  205, 230, 231, 240, 239
  206, 231, 232, 241, 240
  207, 232, 233, 242, 241
  208, 233, 234, 243, 242
  209, 235, 236, 245, 244
  210, 236, 237, 246, 245
  211, 237, 238, 247, 246
  212, 238, 239, 248, 247
  213, 239, 240, 249, 248
  214, 240, 241, 250, 249
  215, 241, 242, 251, 250
  216, 242, 243, 252, 251
  217, 244, 245, 254, 253
  218, 245, 246, 255, 254
  219, 246, 247, 256, 255
  220, 247, 248, 257, 256
  221, 248, 249, 258, 257
  222, 249, 250, 259, 258
  223, 250, 251, 260, 259
  224, 251, 252, 261, 260
  225, 253, 254, 263, 262
  226, 254, 255, 264, 263
  227, 255, 256, 265, 264
  228, 256, 257, 266, 265
  229, 257, 258, 267, 266
  230, 258, 259, 268, 267
  231, 259, 260, 269, 268
  232, 260, 261, 270, 269
  233, 262, 263, 272, 271
  234, 263, 264, 273, 272
  235, 264, 265, 274, 273
  236, 265, 266, 275, 274
  237, 266, 267, 276, 275
  238, 267, 268, 277, 276
  239, 268, 269, 278, 277
  240, 269, 270, 279, 278
  241, 271, 272, 281, 280
  242, 272, 273, 282, 281
  243, 273, 274, 283, 282
  244, 274, 275, 284, 283
  245, 275, 276, 285, 284
  246, 276, 277, 286, 285
  247, 277, 278, 287, 286
  248, 278, 279, 288, 287
  249, 280, 281, 290, 289
  250, 281, 282, 291, 290
  251, 282, 283, 292, 291
  252, 283, 284, 293, 292
  253, 284, 285, 294, 293
  254, 285, 286, 295, 294
  255, 286, 287, 296, 295
  256, 287, 288, 297, 296
  257, 289, 290, 299, 298
  258, 290, 291, 300, 299
  259, 291, 292, 301, 300
  260, 292, 293, 302, 301
  261, 293, 294, 303, 302
  262, 294, 295, 304, 303
  263, 295, 296, 305, 304
  264, 296, 297, 306, 305
  265, 298, 299, 308, 307
  266, 299, 300, 309, 308
  267, 300, 301, 310, 309
  268, 301, 302, 311, 310
  269, 302, 303, 312, 311
  270, 303, 304, 313, 312
  271, 304, 305, 314, 313
  272, 305, 306, 315, 314
  273, 307, 308, 317, 316
  274, 308, 309, 318, 317
  275, 309, 310, 319, 318
  276, 310, 311, 320, 319
  277, 311, 312, 321, 320
  278, 312, 313, 322, 321
  279, 313, 314, 323, 322
  280, 314, 315, 324, 323
  281, 316, 317, 326, 325
  282, 317, 318, 327, 326
  283, 318, 319, 328, 327
  284, 319, 320, 329, 328
  285, 320, 321, 330, 329
  286, 321, 322, 331, 330
  287, 322, 323, 332, 331
  288, 323, 324, 333, 332
  289, 325, 326, 335, 334
  290, 326, 327, 336, 335
  291, 327, 328, 337, 336
  292, 328, 329, 338, 337
  293, 329, 330, 339, 338
  294, 330, 331, 340, 339
  295, 331, 332, 341, 340
  296, 332, 333, 342, 341
  297, 334, 335, 344, 343
  298, 335, 336, 345, 344
  299, 336, 337, 346, 345
  300, 337, 338, 347, 346
  301, 338, 339, 348, 347
  302, 339, 340, 349, 348
  303, 340, 341, 350, 349
  304, 341, 342, 351, 350
  305, 343, 344, 353, 352
  306, 344, 345, 354, 353
  307, 345, 346, 355, 354
  308, 346, 347, 356, 355
  309, 347, 348, 357, 356
  310, 348, 349, 358, 357
  311, 349, 350, 359, 358
  312, 350, 351, 360, 359
  313, 352, 353, 362, 361
  314, 353, 354, 363, 362
  315, 354, 355, 364, 363
  316, 355, 356, 365, 364
  317, 356, 357, 366, 365
  318, 357, 358, 367, 366
  319, 358, 359, 368, 367
  320, 359, 360, 369, 368
*Nset, nset=BLEFT
  1,
  2,
  3,
  4,
  5,
  6,
  7,
  8,
  9,
*Nset, nset=BRIGHT
  361,
  362,
  363,
  364,
  365,
  366,
  367,
  368,
  369,
*Surface, type=ELEMENT, name=BeltSurf

  1, SPOS

  2, SPOS

  3, SPOS

  4, SPOS

  5, SPOS

  6, SPOS

  7, SPOS

  8, SPOS

  9, SPOS

  10, SPOS

  11, SPOS

  12, SPOS

  13, SPOS

  14, SPOS

  15, SPOS

  16, SPOS

  17, SPOS

  18, SPOS

  19, SPOS

  20, SPOS

  21, SPOS

  22, SPOS

  23, SPOS

  24, SPOS

  25, SPOS

  26, SPOS

  27, SPOS

  28, SPOS

  29, SPOS

  30, SPOS

  31, SPOS

  32, SPOS

  33, SPOS

  34, SPOS

  35, SPOS

  36, SPOS

  37, SPOS

  38, SPOS

  39, SPOS

  40, SPOS

  41, SPOS

  42, SPOS

  43, SPOS

  44, SPOS

  45, SPOS

  46, SPOS

  47, SPOS

  48, SPOS

  49, SPOS

  50, SPOS

  51, SPOS

  52, SPOS

  53, SPOS

  54, SPOS

  55, SPOS

  56, SPOS

  57, SPOS

  58, SPOS

  59, SPOS

  60, SPOS

  61, SPOS

  62, SPOS

  63, SPOS

  64, SPOS

  65, SPOS

  66, SPOS

  67, SPOS

  68, SPOS

  69, SPOS

  70, SPOS

  71, SPOS

  72, SPOS

  73, SPOS

  74, SPOS

  75, SPOS

  76, SPOS

  77, SPOS

  78, SPOS

  79, SPOS

  80, SPOS

  81, SPOS

  82, SPOS

  83, SPOS

  84, SPOS

  85, SPOS

  86, SPOS

  87, SPOS

  88, SPOS

  89, SPOS

  90, SPOS

  91, SPOS

  92, SPOS

  93, SPOS

  94, SPOS

  95, SPOS

  96, SPOS

  97, SPOS

  98, SPOS

  99, SPOS

  100, SPOS

  101, SPOS

  102, SPOS

  103, SPOS

  104, SPOS

  105, SPOS

  106, SPOS

  107, SPOS

  108, SPOS

  109, SPOS

  110, SPOS

  111, SPOS

  112, SPOS

  113, SPOS

  114, SPOS

  115, SPOS

  116, SPOS

  117, SPOS

  118, SPOS

  119, SPOS

  120, SPOS

  121, SPOS

  122, SPOS

  123, SPOS

  124, SPOS

  125, SPOS

  126, SPOS

  127, SPOS

  128, SPOS

  129, SPOS

  130, SPOS

  131, SPOS

  132, SPOS

  133, SPOS

  134, SPOS

  135, SPOS

  136, SPOS

  137, SPOS

  138, SPOS

  139, SPOS

  140, SPOS

  141, SPOS

  142, SPOS

  143, SPOS

  144, SPOS

  145, SPOS

  146, SPOS

  147, SPOS

  148, SPOS

  149, SPOS

  150, SPOS

  151, SPOS

  152, SPOS

  153, SPOS

  154, SPOS

  155, SPOS

  156, SPOS

  157, SPOS

  158, SPOS

  159, SPOS

  160, SPOS

  161, SPOS

  162, SPOS

  163, SPOS

  164, SPOS

  165, SPOS

  166, SPOS

  167, SPOS

  168, SPOS

  169, SPOS

  170, SPOS

  171, SPOS

  172, SPOS

  173, SPOS

  174, SPOS

  175, SPOS

  176, SPOS

  177, SPOS

  178, SPOS

  179, SPOS

  180, SPOS

  181, SPOS

  182, SPOS

  183, SPOS

  184, SPOS

  185, SPOS

  186, SPOS

  187, SPOS

  188, SPOS

  189, SPOS

  190, SPOS

  191, SPOS

  192, SPOS

  193, SPOS

  194, SPOS

  195, SPOS

  196, SPOS

  197, SPOS

  198, SPOS

  199, SPOS

  200, SPOS

  201, SPOS

  202, SPOS

  203, SPOS

  204, SPOS

  205, SPOS

  206, SPOS

  207, SPOS

  208, SPOS

  209, SPOS

  210, SPOS

  211, SPOS

  212, SPOS

  213, SPOS

  214, SPOS

  215, SPOS

  216, SPOS

  217, SPOS

  218, SPOS

  219, SPOS

  220, SPOS

  221, SPOS

  222, SPOS

  223, SPOS

  224, SPOS

  225, SPOS

  226, SPOS

  227, SPOS

  228, SPOS

  229, SPOS

  230, SPOS

  231, SPOS

  232, SPOS

  233, SPOS

  234, SPOS

  235, SPOS

  236, SPOS

  237, SPOS

  238, SPOS

  239, SPOS

  240, SPOS

  241, SPOS

  242, SPOS

  243, SPOS

  244, SPOS

  245, SPOS

  246, SPOS

  247, SPOS

  248, SPOS

  249, SPOS

  250, SPOS

  251, SPOS

  252, SPOS

  253, SPOS

  254, SPOS

  255, SPOS

  256, SPOS

  257, SPOS

  258, SPOS

  259, SPOS

  260, SPOS

  261, SPOS

  262, SPOS

  263, SPOS

  264, SPOS

  265, SPOS

  266, SPOS

  267, SPOS

  268, SPOS

  269, SPOS

  270, SPOS

  271, SPOS

  272, SPOS

  273, SPOS

  274, SPOS

  275, SPOS

  276, SPOS

  277, SPOS

  278, SPOS

  279, SPOS

  280, SPOS

  281, SPOS

  282, SPOS

  283, SPOS

  284, SPOS

  285, SPOS

  286, SPOS

  287, SPOS

  288, SPOS

  289, SPOS

  290, SPOS

  291, SPOS

  292, SPOS

  293, SPOS

  294, SPOS

  295, SPOS

  296, SPOS

  297, SPOS

  298, SPOS

  299, SPOS

  300, SPOS

  301, SPOS

  302, SPOS

  303, SPOS

  304, SPOS

  305, SPOS

  306, SPOS

  307, SPOS

  308, SPOS

  309, SPOS

  310, SPOS

  311, SPOS

  312, SPOS

  313, SPOS

  314, SPOS

  315, SPOS

  316, SPOS

  317, SPOS

  318, SPOS

  319, SPOS

  320, SPOS

*Shell Section, elset=EALL, material=BeltMat
  1.0,
*End Part
*Part, name=WP
*Node
  1369, 0.00000, 0.50000, -33.75000
  1370, 0.00000, 2.06250, -33.75000
  1371, 0.00000, 3.62500, -33.75000
  1372, 0.00000, 5.18750, -33.75000
  1373, 0.00000, 6.75000, -33.75000
  1374, 0.00000, 8.31250, -33.75000
  1375, 0.00000, 9.87500, -33.75000
  1376, 0.00000, 11.43750, -33.75000
  1377, 0.00000, 13.00000, -33.75000
  1378, 0.00000, 0.49240, -33.66318
  1379, 0.00000, 2.03117, -33.39185
  1380, 0.00000, 3.56993, -33.12053
  1381, 0.00000, 5.10869, -32.84920
  1382, 0.00000, 6.64745, -32.57787
  1383, 0.00000, 8.18621, -32.30655
  1384, 0.00000, 9.72498, -32.03522
  1385, 0.00000, 11.26374, -31.76390
  1386, 0.00000, 12.80250, -31.49257
  1387, 0.00000, 0.46985, -33.57899
  1388, 0.00000, 1.93812, -33.04458
  1389, 0.00000, 3.40639, -32.51018
  1390, 0.00000, 4.87466, -31.97577
  1391, 0.00000, 6.34293, -31.44136
  1392, 0.00000, 7.81119, -30.90696
  1393, 0.00000, 9.27946, -30.37255
  1394, 0.00000, 10.74773, -29.83814
  1395, 0.00000, 12.21600, -29.30374
  1396, 0.00000, 0.43301, -33.50000
  1397, 0.00000, 1.78618, -32.71875
  1398, 0.00000, 3.13934, -31.93750
  1399, 0.00000, 4.49251, -31.15625
  1400, 0.00000, 5.84567, -30.37500
  1401, 0.00000, 7.19884, -29.59375
  1402, 0.00000, 8.55200, -28.81250
  1403, 0.00000, 9.90517, -28.03125
  1404, 0.00000, 11.25833, -27.25000
  1405, 0.00000, 0.38302, -33.42861
  1406, 0.00000, 1.57997, -32.42425
  1407, 0.00000, 2.77691, -31.41989
  1408, 0.00000, 3.97386, -30.41554
  1409, 0.00000, 5.17080, -29.41118
  1410, 0.00000, 6.36774, -28.40683
  1411, 0.00000, 7.56469, -27.40247
  1412, 0.00000, 8.76163, -26.39812
  1413, 0.00000, 9.95858, -25.39376
  1414, 0.00000, 0.32139, -33.36698
  1415, 0.00000, 1.32575, -32.17003
  1416, 0.00000, 2.33011, -30.97309
  1417, 0.00000, 3.33446, -29.77614
  1418, 0.00000, 4.33882, -28.57920
  1419, 0.00000, 5.34317, -27.38226
  1420, 0.00000, 6.34753, -26.18531
  1421, 0.00000, 7.35188, -24.98837
  1422, 0.00000, 8.35624, -23.79142
  1423, 0.00000, 0.25000, -33.31699
  1424, 0.00000, 1.03125, -31.96382
  1425, 0.00000, 1.81250, -30.61066
  1426, 0.00000, 2.59375, -29.25749
  1427, 0.00000, 3.37500, -27.90433
  1428, 0.00000, 4.15625, -26.55116
  1429, 0.00000, 4.93750, -25.19800
  1430, 0.00000, 5.71875, -23.84483
  1431, 0.00000, 6.50000, -22.49167
  1432, 0.00000, 0.17101, -33.28015
  1433, 0.00000, 0.70542, -31.81188
  1434, 0.00000, 1.23982, -30.34361
  1435, 0.00000, 1.77423, -28.87534
  1436, 0.00000, 2.30864, -27.40707
  1437, 0.00000, 2.84304, -25.93881
  1438, 0.00000, 3.37745, -24.47054
  1439, 0.00000, 3.91186, -23.00227
  1440, 0.00000, 4.44626, -21.53400
  1441, 0.00000, 0.08682, -33.25760
  1442, 0.00000, 0.35815, -31.71883
  1443, 0.00000, 0.62947, -30.18007
  1444, 0.00000, 0.90080, -28.64131
  1445, 0.00000, 1.17213, -27.10255
  1446, 0.00000, 1.44345, -25.56379
  1447, 0.00000, 1.71478, -24.02502
  1448, 0.00000, 1.98610, -22.48626
  1449, 0.00000, 2.25743, -20.94750
  1450, 0.00000, 0.00000, -33.25000
  1451, 0.00000, 0.00000, -31.68750
  1452, 0.00000, 0.00000, -30.12500
  1453, 0.00000, 0.00000, -28.56250
  1454, 0.00000, 0.00000, -27.00000
  1455, 0.00000, 0.00000, -25.43750
  1456, 0.00000, 0.00000, -23.87500
  1457, 0.00000, 0.00000, -22.31250
  1458, 0.00000, 0.00000, -20.75000
  1459, 0.00000, -0.08682, -33.25760
  1460, 0.00000, -0.35815, -31.71883
  1461, 0.00000, -0.62947, -30.18007
  1462, 0.00000, -0.90080, -28.64131
  1463, 0.00000, -1.17213, -27.10255
  1464, 0.00000, -1.44345, -25.56379
  1465, 0.00000, -1.71478, -24.02502
  1466, 0.00000, -1.98610, -22.48626
  1467, 0.00000, -2.25743, -20.94750
  1468, 0.00000, -0.17101, -33.28015
  1469, 0.00000, -0.70542, -31.81188
  1470, 0.00000, -1.23982, -30.34361
  1471, 0.00000, -1.77423, -28.87534
  1472, 0.00000, -2.30864, -27.40707
  1473, 0.00000, -2.84304, -25.93881
  1474, 0.00000, -3.37745, -24.47054
  1475, 0.00000, -3.91186, -23.00227
  1476, 0.00000, -4.44626, -21.53400
  1477, 0.00000, -0.25000, -33.31699
  1478, 0.00000, -1.03125, -31.96382
  1479, 0.00000, -1.81250, -30.61066
  1480, 0.00000, -2.59375, -29.25749
  1481, 0.00000, -3.37500, -27.90433
  1482, 0.00000, -4.15625, -26.55116
  1483, 0.00000, -4.93750, -25.19800
  1484, 0.00000, -5.71875, -23.84483
  1485, 0.00000, -6.50000, -22.49167
  1486, 0.00000, -0.32139, -33.36698
  1487, 0.00000, -1.32575, -32.17003
  1488, 0.00000, -2.33011, -30.97309
  1489, 0.00000, -3.33446, -29.77614
  1490, 0.00000, -4.33882, -28.57920
  1491, 0.00000, -5.34317, -27.38226
  1492, 0.00000, -6.34753, -26.18531
  1493, 0.00000, -7.35188, -24.98837
  1494, 0.00000, -8.35624, -23.79142
  1495, 0.00000, -0.38302, -33.42861
  1496, 0.00000, -1.57997, -32.42425
  1497, 0.00000, -2.77691, -31.41989
  1498, 0.00000, -3.97386, -30.41554
  1499, 0.00000, -5.17080, -29.41118
  1500, 0.00000, -6.36774, -28.40683
  1501, 0.00000, -7.56469, -27.40247
  1502, 0.00000, -8.76163, -26.39812
  1503, 0.00000, -9.95858, -25.39376
  1504, 0.00000, -0.43301, -33.50000
  1505, 0.00000, -1.78618, -32.71875
  1506, 0.00000, -3.13934, -31.93750
  1507, 0.00000, -4.49251, -31.15625
  1508, 0.00000, -5.84567, -30.37500
  1509, 0.00000, -7.19884, -29.59375
  1510, 0.00000, -8.55200, -28.81250
  1511, 0.00000, -9.90517, -28.03125
  1512, 0.00000, -11.25833, -27.25000
  1513, 0.00000, -0.46985, -33.57899
  1514, 0.00000, -1.93812, -33.04458
  1515, 0.00000, -3.40639, -32.51018
  1516, 0.00000, -4.87466, -31.97577
  1517, 0.00000, -6.34293, -31.44136
  1518, 0.00000, -7.81119, -30.90696
  1519, 0.00000, -9.27946, -30.37255
  1520, 0.00000, -10.74773, -29.83814
  1521, 0.00000, -12.21600, -29.30374
  1522, 0.00000, -0.49240, -33.66318
  1523, 0.00000, -2.03117, -33.39185
  1524, 0.00000, -3.56993, -33.12053
  1525, 0.00000, -5.10869, -32.84920
  1526, 0.00000, -6.64745, -32.57787
  1527, 0.00000, -8.18621, -32.30655
  1528, 0.00000, -9.72498, -32.03522
  1529, 0.00000, -11.26374, -31.76390
  1530, 0.00000, -12.80250, -31.49257
  1531, 0.00000, -0.50000, -33.75000
  1532, 0.00000, -2.06250, -33.75000
  1533, 0.00000, -3.62500, -33.75000
  1534, 0.00000, -5.18750, -33.75000
  1535, 0.00000, -6.75000, -33.75000
  1536, 0.00000, -8.31250, -33.75000
  1537, 0.00000, -9.87500, -33.75000
  1538, 0.00000, -11.43750, -33.75000
  1539, 0.00000, -13.00000, -33.75000
  1540, 0.00000, -0.49240, -33.83682
  1541, 0.00000, -2.03117, -34.10815
  1542, 0.00000, -3.56993, -34.37947
  1543, 0.00000, -5.10869, -34.65080
  1544, 0.00000, -6.64745, -34.92213
  1545, 0.00000, -8.18621, -35.19345
  1546, 0.00000, -9.72498, -35.46478
  1547, 0.00000, -11.26374, -35.73610
  1548, 0.00000, -12.80250, -36.00743
  1549, 0.00000, -0.46985, -33.92101
  1550, 0.00000, -1.93812, -34.45542
  1551, 0.00000, -3.40639, -34.98982
  1552, 0.00000, -4.87466, -35.52423
  1553, 0.00000, -6.34293, -36.05864
  1554, 0.00000, -7.81119, -36.59304
  1555, 0.00000, -9.27946, -37.12745
  1556, 0.00000, -10.74773, -37.66186
  1557, 0.00000, -12.21600, -38.19626
  1558, 0.00000, -0.43301, -34.00000
  1559, 0.00000, -1.78618, -34.78125
  1560, 0.00000, -3.13934, -35.56250
  1561, 0.00000, -4.49251, -36.34375
  1562, 0.00000, -5.84567, -37.12500
  1563, 0.00000, -7.19884, -37.90625
  1564, 0.00000, -8.55200, -38.68750
  1565, 0.00000, -9.90517, -39.46875
  1566, 0.00000, -11.25833, -40.25000
  1567, 0.00000, -0.38302, -34.07139
  1568, 0.00000, -1.57997, -35.07575
  1569, 0.00000, -2.77691, -36.08011
  1570, 0.00000, -3.97386, -37.08446
  1571, 0.00000, -5.17080, -38.08882
  1572, 0.00000, -6.36774, -39.09317
  1573, 0.00000, -7.56469, -40.09753
  1574, 0.00000, -8.76163, -41.10188
  1575, 0.00000, -9.95858, -42.10624
  1576, 0.00000, -0.32139, -34.13302
  1577, 0.00000, -1.32575, -35.32997
  1578, 0.00000, -2.33011, -36.52691
  1579, 0.00000, -3.33446, -37.72386
  1580, 0.00000, -4.33882, -38.92080
  1581, 0.00000, -5.34317, -40.11774
  1582, 0.00000, -6.34753, -41.31469
  1583, 0.00000, -7.35188, -42.51163
  1584, 0.00000, -8.35624, -43.70858
  1585, 0.00000, -0.25000, -34.18301
  1586, 0.00000, -1.03125, -35.53618
  1587, 0.00000, -1.81250, -36.88934
  1588, 0.00000, -2.59375, -38.24251
  1589, 0.00000, -3.37500, -39.59567
  1590, 0.00000, -4.15625, -40.94884
  1591, 0.00000, -4.93750, -42.30200
  1592, 0.00000, -5.71875, -43.65517
  1593, 0.00000, -6.50000, -45.00833
  1594, 0.00000, -0.17101, -34.21985
  1595, 0.00000, -0.70542, -35.68812
  1596, 0.00000, -1.23982, -37.15639
  1597, 0.00000, -1.77423, -38.62466
  1598, 0.00000, -2.30864, -40.09293
  1599, 0.00000, -2.84304, -41.56119
  1600, 0.00000, -3.37745, -43.02946
  1601, 0.00000, -3.91186, -44.49773
  1602, 0.00000, -4.44626, -45.96600
  1603, 0.00000, -0.08682, -34.24240
  1604, 0.00000, -0.35815, -35.78117
  1605, 0.00000, -0.62947, -37.31993
  1606, 0.00000, -0.90080, -38.85869
  1607, 0.00000, -1.17213, -40.39745
  1608, 0.00000, -1.44345, -41.93621
  1609, 0.00000, -1.71478, -43.47498
  1610, 0.00000, -1.98610, -45.01374
  1611, 0.00000, -2.25743, -46.55250
  1612, 0.00000, -0.00000, -34.25000
  1613, 0.00000, -0.00000, -35.81250
  1614, 0.00000, -0.00000, -37.37500
  1615, 0.00000, -0.00000, -38.93750
  1616, 0.00000, -0.00000, -40.50000
  1617, 0.00000, -0.00000, -42.06250
  1618, 0.00000, -0.00000, -43.62500
  1619, 0.00000, -0.00000, -45.18750
  1620, 0.00000, -0.00000, -46.75000
  1621, 0.00000, 0.08682, -34.24240
  1622, 0.00000, 0.35815, -35.78117
  1623, 0.00000, 0.62947, -37.31993
  1624, 0.00000, 0.90080, -38.85869
  1625, 0.00000, 1.17213, -40.39745
  1626, 0.00000, 1.44345, -41.93621
  1627, 0.00000, 1.71478, -43.47498
  1628, 0.00000, 1.98610, -45.01374
  1629, 0.00000, 2.25743, -46.55250
  1630, 0.00000, 0.17101, -34.21985
  1631, 0.00000, 0.70542, -35.68812
  1632, 0.00000, 1.23982, -37.15639
  1633, 0.00000, 1.77423, -38.62466
  1634, 0.00000, 2.30864, -40.09293
  1635, 0.00000, 2.84304, -41.56119
  1636, 0.00000, 3.37745, -43.02946
  1637, 0.00000, 3.91186, -44.49773
  1638, 0.00000, 4.44626, -45.96600
  1639, 0.00000, 0.25000, -34.18301
  1640, 0.00000, 1.03125, -35.53618
  1641, 0.00000, 1.81250, -36.88934
  1642, 0.00000, 2.59375, -38.24251
  1643, 0.00000, 3.37500, -39.59567
  1644, 0.00000, 4.15625, -40.94884
  1645, 0.00000, 4.93750, -42.30200
  1646, 0.00000, 5.71875, -43.65517
  1647, 0.00000, 6.50000, -45.00833
  1648, 0.00000, 0.32139, -34.13302
  1649, 0.00000, 1.32575, -35.32997
  1650, 0.00000, 2.33011, -36.52691
  1651, 0.00000, 3.33446, -37.72386
  1652, 0.00000, 4.33882, -38.92080
  1653, 0.00000, 5.34317, -40.11774
  1654, 0.00000, 6.34753, -41.31469
  1655, 0.00000, 7.35188, -42.51163
  1656, 0.00000, 8.35624, -43.70858
  1657, 0.00000, 0.38302, -34.07139
  1658, 0.00000, 1.57997, -35.07575
  1659, 0.00000, 2.77691, -36.08011
  1660, 0.00000, 3.97386, -37.08446
  1661, 0.00000, 5.17080, -38.08882
  1662, 0.00000, 6.36774, -39.09317
  1663, 0.00000, 7.56469, -40.09753
  1664, 0.00000, 8.76163, -41.10188
  1665, 0.00000, 9.95858, -42.10624
  1666, 0.00000, 0.43301, -34.00000
  1667, 0.00000, 1.78618, -34.78125
  1668, 0.00000, 3.13934, -35.56250
  1669, 0.00000, 4.49251, -36.34375
  1670, 0.00000, 5.84567, -37.12500
  1671, 0.00000, 7.19884, -37.90625
  1672, 0.00000, 8.55200, -38.68750
  1673, 0.00000, 9.90517, -39.46875
  1674, 0.00000, 11.25833, -40.25000
  1675, 0.00000, 0.46985, -33.92101
  1676, 0.00000, 1.93812, -34.45542
  1677, 0.00000, 3.40639, -34.98982
  1678, 0.00000, 4.87466, -35.52423
  1679, 0.00000, 6.34293, -36.05864
  1680, 0.00000, 7.81119, -36.59304
  1681, 0.00000, 9.27946, -37.12745
  1682, 0.00000, 10.74773, -37.66186
  1683, 0.00000, 12.21600, -38.19626
  1684, 0.00000, 0.49240, -33.83682
  1685, 0.00000, 2.03117, -34.10815
  1686, 0.00000, 3.56993, -34.37947
  1687, 0.00000, 5.10869, -34.65080
  1688, 0.00000, 6.64745, -34.92213
  1689, 0.00000, 8.18621, -35.19345
  1690, 0.00000, 9.72498, -35.46478
  1691, 0.00000, 11.26374, -35.73610
  1692, 0.00000, 12.80250, -36.00743
  1693, 0.00000, 0.50000, -33.75000
  1694, 0.00000, 2.06250, -33.75000
  1695, 0.00000, 3.62500, -33.75000
  1696, 0.00000, 5.18750, -33.75000
  1697, 0.00000, 6.75000, -33.75000
  1698, 0.00000, 8.31250, -33.75000
  1699, 0.00000, 9.87500, -33.75000
  1700, 0.00000, 11.43750, -33.75000
  1701, 0.00000, 13.00000, -33.75000
  1702, 5.00000, 0.50000, -33.75000
  1703, 5.00000, 2.06250, -33.75000
  1704, 5.00000, 3.62500, -33.75000
  1705, 5.00000, 5.18750, -33.75000
  1706, 5.00000, 6.75000, -33.75000
  1707, 5.00000, 8.31250, -33.75000
  1708, 5.00000, 9.87500, -33.75000
  1709, 5.00000, 11.43750, -33.75000
  1710, 5.00000, 13.00000, -33.75000
  1711, 5.00000, 0.49240, -33.66318
  1712, 5.00000, 2.03117, -33.39185
  1713, 5.00000, 3.56993, -33.12053
  1714, 5.00000, 5.10869, -32.84920
  1715, 5.00000, 6.64745, -32.57787
  1716, 5.00000, 8.18621, -32.30655
  1717, 5.00000, 9.72498, -32.03522
  1718, 5.00000, 11.26374, -31.76390
  1719, 5.00000, 12.80250, -31.49257
  1720, 5.00000, 0.46985, -33.57899
  1721, 5.00000, 1.93812, -33.04458
  1722, 5.00000, 3.40639, -32.51018
  1723, 5.00000, 4.87466, -31.97577
  1724, 5.00000, 6.34293, -31.44136
  1725, 5.00000, 7.81119, -30.90696
  1726, 5.00000, 9.27946, -30.37255
  1727, 5.00000, 10.74773, -29.83814
  1728, 5.00000, 12.21600, -29.30374
  1729, 5.00000, 0.43301, -33.50000
  1730, 5.00000, 1.78618, -32.71875
  1731, 5.00000, 3.13934, -31.93750
  1732, 5.00000, 4.49251, -31.15625
  1733, 5.00000, 5.84567, -30.37500
  1734, 5.00000, 7.19884, -29.59375
  1735, 5.00000, 8.55200, -28.81250
  1736, 5.00000, 9.90517, -28.03125
  1737, 5.00000, 11.25833, -27.25000
  1738, 5.00000, 0.38302, -33.42861
  1739, 5.00000, 1.57997, -32.42425
  1740, 5.00000, 2.77691, -31.41989
  1741, 5.00000, 3.97386, -30.41554
  1742, 5.00000, 5.17080, -29.41118
  1743, 5.00000, 6.36774, -28.40683
  1744, 5.00000, 7.56469, -27.40247
  1745, 5.00000, 8.76163, -26.39812
  1746, 5.00000, 9.95858, -25.39376
  1747, 5.00000, 0.32139, -33.36698
  1748, 5.00000, 1.32575, -32.17003
  1749, 5.00000, 2.33011, -30.97309
  1750, 5.00000, 3.33446, -29.77614
  1751, 5.00000, 4.33882, -28.57920
  1752, 5.00000, 5.34317, -27.38226
  1753, 5.00000, 6.34753, -26.18531
  1754, 5.00000, 7.35188, -24.98837
  1755, 5.00000, 8.35624, -23.79142
  1756, 5.00000, 0.25000, -33.31699
  1757, 5.00000, 1.03125, -31.96382
  1758, 5.00000, 1.81250, -30.61066
  1759, 5.00000, 2.59375, -29.25749
  1760, 5.00000, 3.37500, -27.90433
  1761, 5.00000, 4.15625, -26.55116
  1762, 5.00000, 4.93750, -25.19800
  1763, 5.00000, 5.71875, -23.84483
  1764, 5.00000, 6.50000, -22.49167
  1765, 5.00000, 0.17101, -33.28015
  1766, 5.00000, 0.70542, -31.81188
  1767, 5.00000, 1.23982, -30.34361
  1768, 5.00000, 1.77423, -28.87534
  1769, 5.00000, 2.30864, -27.40707
  1770, 5.00000, 2.84304, -25.93881
  1771, 5.00000, 3.37745, -24.47054
  1772, 5.00000, 3.91186, -23.00227
  1773, 5.00000, 4.44626, -21.53400
  1774, 5.00000, 0.08682, -33.25760
  1775, 5.00000, 0.35815, -31.71883
  1776, 5.00000, 0.62947, -30.18007
  1777, 5.00000, 0.90080, -28.64131
  1778, 5.00000, 1.17213, -27.10255
  1779, 5.00000, 1.44345, -25.56379
  1780, 5.00000, 1.71478, -24.02502
  1781, 5.00000, 1.98610, -22.48626
  1782, 5.00000, 2.25743, -20.94750
  1783, 5.00000, 0.00000, -33.25000
  1784, 5.00000, 0.00000, -31.68750
  1785, 5.00000, 0.00000, -30.12500
  1786, 5.00000, 0.00000, -28.56250
  1787, 5.00000, 0.00000, -27.00000
  1788, 5.00000, 0.00000, -25.43750
  1789, 5.00000, 0.00000, -23.87500
  1790, 5.00000, 0.00000, -22.31250
  1791, 5.00000, 0.00000, -20.75000
  1792, 5.00000, -0.08682, -33.25760
  1793, 5.00000, -0.35815, -31.71883
  1794, 5.00000, -0.62947, -30.18007
  1795, 5.00000, -0.90080, -28.64131
  1796, 5.00000, -1.17213, -27.10255
  1797, 5.00000, -1.44345, -25.56379
  1798, 5.00000, -1.71478, -24.02502
  1799, 5.00000, -1.98610, -22.48626
  1800, 5.00000, -2.25743, -20.94750
  1801, 5.00000, -0.17101, -33.28015
  1802, 5.00000, -0.70542, -31.81188
  1803, 5.00000, -1.23982, -30.34361
  1804, 5.00000, -1.77423, -28.87534
  1805, 5.00000, -2.30864, -27.40707
  1806, 5.00000, -2.84304, -25.93881
  1807, 5.00000, -3.37745, -24.47054
  1808, 5.00000, -3.91186, -23.00227
  1809, 5.00000, -4.44626, -21.53400
  1810, 5.00000, -0.25000, -33.31699
  1811, 5.00000, -1.03125, -31.96382
  1812, 5.00000, -1.81250, -30.61066
  1813, 5.00000, -2.59375, -29.25749
  1814, 5.00000, -3.37500, -27.90433
  1815, 5.00000, -4.15625, -26.55116
  1816, 5.00000, -4.93750, -25.19800
  1817, 5.00000, -5.71875, -23.84483
  1818, 5.00000, -6.50000, -22.49167
  1819, 5.00000, -0.32139, -33.36698
  1820, 5.00000, -1.32575, -32.17003
  1821, 5.00000, -2.33011, -30.97309
  1822, 5.00000, -3.33446, -29.77614
  1823, 5.00000, -4.33882, -28.57920
  1824, 5.00000, -5.34317, -27.38226
  1825, 5.00000, -6.34753, -26.18531
  1826, 5.00000, -7.35188, -24.98837
  1827, 5.00000, -8.35624, -23.79142
  1828, 5.00000, -0.38302, -33.42861
  1829, 5.00000, -1.57997, -32.42425
  1830, 5.00000, -2.77691, -31.41989
  1831, 5.00000, -3.97386, -30.41554
  1832, 5.00000, -5.17080, -29.41118
  1833, 5.00000, -6.36774, -28.40683
  1834, 5.00000, -7.56469, -27.40247
  1835, 5.00000, -8.76163, -26.39812
  1836, 5.00000, -9.95858, -25.39376
  1837, 5.00000, -0.43301, -33.50000
  1838, 5.00000, -1.78618, -32.71875
  1839, 5.00000, -3.13934, -31.93750
  1840, 5.00000, -4.49251, -31.15625
  1841, 5.00000, -5.84567, -30.37500
  1842, 5.00000, -7.19884, -29.59375
  1843, 5.00000, -8.55200, -28.81250
  1844, 5.00000, -9.90517, -28.03125
  1845, 5.00000, -11.25833, -27.25000
  1846, 5.00000, -0.46985, -33.57899
  1847, 5.00000, -1.93812, -33.04458
  1848, 5.00000, -3.40639, -32.51018
  1849, 5.00000, -4.87466, -31.97577
  1850, 5.00000, -6.34293, -31.44136
  1851, 5.00000, -7.81119, -30.90696
  1852, 5.00000, -9.27946, -30.37255
  1853, 5.00000, -10.74773, -29.83814
  1854, 5.00000, -12.21600, -29.30374
  1855, 5.00000, -0.49240, -33.66318
  1856, 5.00000, -2.03117, -33.39185
  1857, 5.00000, -3.56993, -33.12053
  1858, 5.00000, -5.10869, -32.84920
  1859, 5.00000, -6.64745, -32.57787
  1860, 5.00000, -8.18621, -32.30655
  1861, 5.00000, -9.72498, -32.03522
  1862, 5.00000, -11.26374, -31.76390
  1863, 5.00000, -12.80250, -31.49257
  1864, 5.00000, -0.50000, -33.75000
  1865, 5.00000, -2.06250, -33.75000
  1866, 5.00000, -3.62500, -33.75000
  1867, 5.00000, -5.18750, -33.75000
  1868, 5.00000, -6.75000, -33.75000
  1869, 5.00000, -8.31250, -33.75000
  1870, 5.00000, -9.87500, -33.75000
  1871, 5.00000, -11.43750, -33.75000
  1872, 5.00000, -13.00000, -33.75000
  1873, 5.00000, -0.49240, -33.83682
  1874, 5.00000, -2.03117, -34.10815
  1875, 5.00000, -3.56993, -34.37947
  1876, 5.00000, -5.10869, -34.65080
  1877, 5.00000, -6.64745, -34.92213
  1878, 5.00000, -8.18621, -35.19345
  1879, 5.00000, -9.72498, -35.46478
  1880, 5.00000, -11.26374, -35.73610
  1881, 5.00000, -12.80250, -36.00743
  1882, 5.00000, -0.46985, -33.92101
  1883, 5.00000, -1.93812, -34.45542
  1884, 5.00000, -3.40639, -34.98982
  1885, 5.00000, -4.87466, -35.52423
  1886, 5.00000, -6.34293, -36.05864
  1887, 5.00000, -7.81119, -36.59304
  1888, 5.00000, -9.27946, -37.12745
  1889, 5.00000, -10.74773, -37.66186
  1890, 5.00000, -12.21600, -38.19626
  1891, 5.00000, -0.43301, -34.00000
  1892, 5.00000, -1.78618, -34.78125
  1893, 5.00000, -3.13934, -35.56250
  1894, 5.00000, -4.49251, -36.34375
  1895, 5.00000, -5.84567, -37.12500
  1896, 5.00000, -7.19884, -37.90625
  1897, 5.00000, -8.55200, -38.68750
  1898, 5.00000, -9.90517, -39.46875
  1899, 5.00000, -11.25833, -40.25000
  1900, 5.00000, -0.38302, -34.07139
  1901, 5.00000, -1.57997, -35.07575
  1902, 5.00000, -2.77691, -36.08011
  1903, 5.00000, -3.97386, -37.08446
  1904, 5.00000, -5.17080, -38.08882
  1905, 5.00000, -6.36774, -39.09317
  1906, 5.00000, -7.56469, -40.09753
  1907, 5.00000, -8.76163, -41.10188
  1908, 5.00000, -9.95858, -42.10624
  1909, 5.00000, -0.32139, -34.13302
  1910, 5.00000, -1.32575, -35.32997
  1911, 5.00000, -2.33011, -36.52691
  1912, 5.00000, -3.33446, -37.72386
  1913, 5.00000, -4.33882, -38.92080
  1914, 5.00000, -5.34317, -40.11774
  1915, 5.00000, -6.34753, -41.31469
  1916, 5.00000, -7.35188, -42.51163
  1917, 5.00000, -8.35624, -43.70858
  1918, 5.00000, -0.25000, -34.18301
  1919, 5.00000, -1.03125, -35.53618
  1920, 5.00000, -1.81250, -36.88934
  1921, 5.00000, -2.59375, -38.24251
  1922, 5.00000, -3.37500, -39.59567
  1923, 5.00000, -4.15625, -40.94884
  1924, 5.00000, -4.93750, -42.30200
  1925, 5.00000, -5.71875, -43.65517
  1926, 5.00000, -6.50000, -45.00833
  1927, 5.00000, -0.17101, -34.21985
  1928, 5.00000, -0.70542, -35.68812
  1929, 5.00000, -1.23982, -37.15639
  1930, 5.00000, -1.77423, -38.62466
  1931, 5.00000, -2.30864, -40.09293
  1932, 5.00000, -2.84304, -41.56119
  1933, 5.00000, -3.37745, -43.02946
  1934, 5.00000, -3.91186, -44.49773
  1935, 5.00000, -4.44626, -45.96600
  1936, 5.00000, -0.08682, -34.24240
  1937, 5.00000, -0.35815, -35.78117
  1938, 5.00000, -0.62947, -37.31993
  1939, 5.00000, -0.90080, -38.85869
  1940, 5.00000, -1.17213, -40.39745
  1941, 5.00000, -1.44345, -41.93621
  1942, 5.00000, -1.71478, -43.47498
  1943, 5.00000, -1.98610, -45.01374
  1944, 5.00000, -2.25743, -46.55250
  1945, 5.00000, -0.00000, -34.25000
  1946, 5.00000, -0.00000, -35.81250
  1947, 5.00000, -0.00000, -37.37500
  1948, 5.00000, -0.00000, -38.93750
  1949, 5.00000, -0.00000, -40.50000
  1950, 5.00000, -0.00000, -42.06250
  1951, 5.00000, -0.00000, -43.62500
  1952, 5.00000, -0.00000, -45.18750
  1953, 5.00000, -0.00000, -46.75000
  1954, 5.00000, 0.08682, -34.24240
  1955, 5.00000, 0.35815, -35.78117
  1956, 5.00000, 0.62947, -37.31993
  1957, 5.00000, 0.90080, -38.85869
  1958, 5.00000, 1.17213, -40.39745
  1959, 5.00000, 1.44345, -41.93621
  1960, 5.00000, 1.71478, -43.47498
  1961, 5.00000, 1.98610, -45.01374
  1962, 5.00000, 2.25743, -46.55250
  1963, 5.00000, 0.17101, -34.21985
  1964, 5.00000, 0.70542, -35.68812
  1965, 5.00000, 1.23982, -37.15639
  1966, 5.00000, 1.77423, -38.62466
  1967, 5.00000, 2.30864, -40.09293
  1968, 5.00000, 2.84304, -41.56119
  1969, 5.00000, 3.37745, -43.02946
  1970, 5.00000, 3.91186, -44.49773
  1971, 5.00000, 4.44626, -45.96600
  1972, 5.00000, 0.25000, -34.18301
  1973, 5.00000, 1.03125, -35.53618
  1974, 5.00000, 1.81250, -36.88934
  1975, 5.00000, 2.59375, -38.24251
  1976, 5.00000, 3.37500, -39.59567
  1977, 5.00000, 4.15625, -40.94884
  1978, 5.00000, 4.93750, -42.30200
  1979, 5.00000, 5.71875, -43.65517
  1980, 5.00000, 6.50000, -45.00833
  1981, 5.00000, 0.32139, -34.13302
  1982, 5.00000, 1.32575, -35.32997
  1983, 5.00000, 2.33011, -36.52691
  1984, 5.00000, 3.33446, -37.72386
  1985, 5.00000, 4.33882, -38.92080
  1986, 5.00000, 5.34317, -40.11774
  1987, 5.00000, 6.34753, -41.31469
  1988, 5.00000, 7.35188, -42.51163
  1989, 5.00000, 8.35624, -43.70858
  1990, 5.00000, 0.38302, -34.07139
  1991, 5.00000, 1.57997, -35.07575
  1992, 5.00000, 2.77691, -36.08011
  1993, 5.00000, 3.97386, -37.08446
  1994, 5.00000, 5.17080, -38.08882
  1995, 5.00000, 6.36774, -39.09317
  1996, 5.00000, 7.56469, -40.09753
  1997, 5.00000, 8.76163, -41.10188
  1998, 5.00000, 9.95858, -42.10624
  1999, 5.00000, 0.43301, -34.00000
  2000, 5.00000, 1.78618, -34.78125
  2001, 5.00000, 3.13934, -35.56250
  2002, 5.00000, 4.49251, -36.34375
  2003, 5.00000, 5.84567, -37.12500
  2004, 5.00000, 7.19884, -37.90625
  2005, 5.00000, 8.55200, -38.68750
  2006, 5.00000, 9.90517, -39.46875
  2007, 5.00000, 11.25833, -40.25000
  2008, 5.00000, 0.46985, -33.92101
  2009, 5.00000, 1.93812, -34.45542
  2010, 5.00000, 3.40639, -34.98982
  2011, 5.00000, 4.87466, -35.52423
  2012, 5.00000, 6.34293, -36.05864
  2013, 5.00000, 7.81119, -36.59304
  2014, 5.00000, 9.27946, -37.12745
  2015, 5.00000, 10.74773, -37.66186
  2016, 5.00000, 12.21600, -38.19626
  2017, 5.00000, 0.49240, -33.83682
  2018, 5.00000, 2.03117, -34.10815
  2019, 5.00000, 3.56993, -34.37947
  2020, 5.00000, 5.10869, -34.65080
  2021, 5.00000, 6.64745, -34.92213
  2022, 5.00000, 8.18621, -35.19345
  2023, 5.00000, 9.72498, -35.46478
  2024, 5.00000, 11.26374, -35.73610
  2025, 5.00000, 12.80250, -36.00743
  2026, 5.00000, 0.50000, -33.75000
  2027, 5.00000, 2.06250, -33.75000
  2028, 5.00000, 3.62500, -33.75000
  2029, 5.00000, 5.18750, -33.75000
  2030, 5.00000, 6.75000, -33.75000
  2031, 5.00000, 8.31250, -33.75000
  2032, 5.00000, 9.87500, -33.75000
  2033, 5.00000, 11.43750, -33.75000
  2034, 5.00000, 13.00000, -33.75000
  2035, 10.00000, 0.50000, -33.75000
  2036, 10.00000, 2.06250, -33.75000
  2037, 10.00000, 3.62500, -33.75000
  2038, 10.00000, 5.18750, -33.75000
  2039, 10.00000, 6.75000, -33.75000
  2040, 10.00000, 8.31250, -33.75000
  2041, 10.00000, 9.87500, -33.75000
  2042, 10.00000, 11.43750, -33.75000
  2043, 10.00000, 13.00000, -33.75000
  2044, 10.00000, 0.49240, -33.66318
  2045, 10.00000, 2.03117, -33.39185
  2046, 10.00000, 3.56993, -33.12053
  2047, 10.00000, 5.10869, -32.84920
  2048, 10.00000, 6.64745, -32.57787
  2049, 10.00000, 8.18621, -32.30655
  2050, 10.00000, 9.72498, -32.03522
  2051, 10.00000, 11.26374, -31.76390
  2052, 10.00000, 12.80250, -31.49257
  2053, 10.00000, 0.46985, -33.57899
  2054, 10.00000, 1.93812, -33.04458
  2055, 10.00000, 3.40639, -32.51018
  2056, 10.00000, 4.87466, -31.97577
  2057, 10.00000, 6.34293, -31.44136
  2058, 10.00000, 7.81119, -30.90696
  2059, 10.00000, 9.27946, -30.37255
  2060, 10.00000, 10.74773, -29.83814
  2061, 10.00000, 12.21600, -29.30374
  2062, 10.00000, 0.43301, -33.50000
  2063, 10.00000, 1.78618, -32.71875
  2064, 10.00000, 3.13934, -31.93750
  2065, 10.00000, 4.49251, -31.15625
  2066, 10.00000, 5.84567, -30.37500
  2067, 10.00000, 7.19884, -29.59375
  2068, 10.00000, 8.55200, -28.81250
  2069, 10.00000, 9.90517, -28.03125
  2070, 10.00000, 11.25833, -27.25000
  2071, 10.00000, 0.38302, -33.42861
  2072, 10.00000, 1.57997, -32.42425
  2073, 10.00000, 2.77691, -31.41989
  2074, 10.00000, 3.97386, -30.41554
  2075, 10.00000, 5.17080, -29.41118
  2076, 10.00000, 6.36774, -28.40683
  2077, 10.00000, 7.56469, -27.40247
  2078, 10.00000, 8.76163, -26.39812
  2079, 10.00000, 9.95858, -25.39376
  2080, 10.00000, 0.32139, -33.36698
  2081, 10.00000, 1.32575, -32.17003
  2082, 10.00000, 2.33011, -30.97309
  2083, 10.00000, 3.33446, -29.77614
  2084, 10.00000, 4.33882, -28.57920
  2085, 10.00000, 5.34317, -27.38226
  2086, 10.00000, 6.34753, -26.18531
  2087, 10.00000, 7.35188, -24.98837
  2088, 10.00000, 8.35624, -23.79142
  2089, 10.00000, 0.25000, -33.31699
  2090, 10.00000, 1.03125, -31.96382
  2091, 10.00000, 1.81250, -30.61066
  2092, 10.00000, 2.59375, -29.25749
  2093, 10.00000, 3.37500, -27.90433
  2094, 10.00000, 4.15625, -26.55116
  2095, 10.00000, 4.93750, -25.19800
  2096, 10.00000, 5.71875, -23.84483
  2097, 10.00000, 6.50000, -22.49167
  2098, 10.00000, 0.17101, -33.28015
  2099, 10.00000, 0.70542, -31.81188
  2100, 10.00000, 1.23982, -30.34361
  2101, 10.00000, 1.77423, -28.87534
  2102, 10.00000, 2.30864, -27.40707
  2103, 10.00000, 2.84304, -25.93881
  2104, 10.00000, 3.37745, -24.47054
  2105, 10.00000, 3.91186, -23.00227
  2106, 10.00000, 4.44626, -21.53400
  2107, 10.00000, 0.08682, -33.25760
  2108, 10.00000, 0.35815, -31.71883
  2109, 10.00000, 0.62947, -30.18007
  2110, 10.00000, 0.90080, -28.64131
  2111, 10.00000, 1.17213, -27.10255
  2112, 10.00000, 1.44345, -25.56379
  2113, 10.00000, 1.71478, -24.02502
  2114, 10.00000, 1.98610, -22.48626
  2115, 10.00000, 2.25743, -20.94750
  2116, 10.00000, 0.00000, -33.25000
  2117, 10.00000, 0.00000, -31.68750
  2118, 10.00000, 0.00000, -30.12500
  2119, 10.00000, 0.00000, -28.56250
  2120, 10.00000, 0.00000, -27.00000
  2121, 10.00000, 0.00000, -25.43750
  2122, 10.00000, 0.00000, -23.87500
  2123, 10.00000, 0.00000, -22.31250
  2124, 10.00000, 0.00000, -20.75000
  2125, 10.00000, -0.08682, -33.25760
  2126, 10.00000, -0.35815, -31.71883
  2127, 10.00000, -0.62947, -30.18007
  2128, 10.00000, -0.90080, -28.64131
  2129, 10.00000, -1.17213, -27.10255
  2130, 10.00000, -1.44345, -25.56379
  2131, 10.00000, -1.71478, -24.02502
  2132, 10.00000, -1.98610, -22.48626
  2133, 10.00000, -2.25743, -20.94750
  2134, 10.00000, -0.17101, -33.28015
  2135, 10.00000, -0.70542, -31.81188
  2136, 10.00000, -1.23982, -30.34361
  2137, 10.00000, -1.77423, -28.87534
  2138, 10.00000, -2.30864, -27.40707
  2139, 10.00000, -2.84304, -25.93881
  2140, 10.00000, -3.37745, -24.47054
  2141, 10.00000, -3.91186, -23.00227
  2142, 10.00000, -4.44626, -21.53400
  2143, 10.00000, -0.25000, -33.31699
  2144, 10.00000, -1.03125, -31.96382
  2145, 10.00000, -1.81250, -30.61066
  2146, 10.00000, -2.59375, -29.25749
  2147, 10.00000, -3.37500, -27.90433
  2148, 10.00000, -4.15625, -26.55116
  2149, 10.00000, -4.93750, -25.19800
  2150, 10.00000, -5.71875, -23.84483
  2151, 10.00000, -6.50000, -22.49167
  2152, 10.00000, -0.32139, -33.36698
  2153, 10.00000, -1.32575, -32.17003
  2154, 10.00000, -2.33011, -30.97309
  2155, 10.00000, -3.33446, -29.77614
  2156, 10.00000, -4.33882, -28.57920
  2157, 10.00000, -5.34317, -27.38226
  2158, 10.00000, -6.34753, -26.18531
  2159, 10.00000, -7.35188, -24.98837
  2160, 10.00000, -8.35624, -23.79142
  2161, 10.00000, -0.38302, -33.42861
  2162, 10.00000, -1.57997, -32.42425
  2163, 10.00000, -2.77691, -31.41989
  2164, 10.00000, -3.97386, -30.41554
  2165, 10.00000, -5.17080, -29.41118
  2166, 10.00000, -6.36774, -28.40683
  2167, 10.00000, -7.56469, -27.40247
  2168, 10.00000, -8.76163, -26.39812
  2169, 10.00000, -9.95858, -25.39376
  2170, 10.00000, -0.43301, -33.50000
  2171, 10.00000, -1.78618, -32.71875
  2172, 10.00000, -3.13934, -31.93750
  2173, 10.00000, -4.49251, -31.15625
  2174, 10.00000, -5.84567, -30.37500
  2175, 10.00000, -7.19884, -29.59375
  2176, 10.00000, -8.55200, -28.81250
  2177, 10.00000, -9.90517, -28.03125
  2178, 10.00000, -11.25833, -27.25000
  2179, 10.00000, -0.46985, -33.57899
  2180, 10.00000, -1.93812, -33.04458
  2181, 10.00000, -3.40639, -32.51018
  2182, 10.00000, -4.87466, -31.97577
  2183, 10.00000, -6.34293, -31.44136
  2184, 10.00000, -7.81119, -30.90696
  2185, 10.00000, -9.27946, -30.37255
  2186, 10.00000, -10.74773, -29.83814
  2187, 10.00000, -12.21600, -29.30374
  2188, 10.00000, -0.49240, -33.66318
  2189, 10.00000, -2.03117, -33.39185
  2190, 10.00000, -3.56993, -33.12053
  2191, 10.00000, -5.10869, -32.84920
  2192, 10.00000, -6.64745, -32.57787
  2193, 10.00000, -8.18621, -32.30655
  2194, 10.00000, -9.72498, -32.03522
  2195, 10.00000, -11.26374, -31.76390
  2196, 10.00000, -12.80250, -31.49257
  2197, 10.00000, -0.50000, -33.75000
  2198, 10.00000, -2.06250, -33.75000
  2199, 10.00000, -3.62500, -33.75000
  2200, 10.00000, -5.18750, -33.75000
  2201, 10.00000, -6.75000, -33.75000
  2202, 10.00000, -8.31250, -33.75000
  2203, 10.00000, -9.87500, -33.75000
  2204, 10.00000, -11.43750, -33.75000
  2205, 10.00000, -13.00000, -33.75000
  2206, 10.00000, -0.49240, -33.83682
  2207, 10.00000, -2.03117, -34.10815
  2208, 10.00000, -3.56993, -34.37947
  2209, 10.00000, -5.10869, -34.65080
  2210, 10.00000, -6.64745, -34.92213
  2211, 10.00000, -8.18621, -35.19345
  2212, 10.00000, -9.72498, -35.46478
  2213, 10.00000, -11.26374, -35.73610
  2214, 10.00000, -12.80250, -36.00743
  2215, 10.00000, -0.46985, -33.92101
  2216, 10.00000, -1.93812, -34.45542
  2217, 10.00000, -3.40639, -34.98982
  2218, 10.00000, -4.87466, -35.52423
  2219, 10.00000, -6.34293, -36.05864
  2220, 10.00000, -7.81119, -36.59304
  2221, 10.00000, -9.27946, -37.12745
  2222, 10.00000, -10.74773, -37.66186
  2223, 10.00000, -12.21600, -38.19626
  2224, 10.00000, -0.43301, -34.00000
  2225, 10.00000, -1.78618, -34.78125
  2226, 10.00000, -3.13934, -35.56250
  2227, 10.00000, -4.49251, -36.34375
  2228, 10.00000, -5.84567, -37.12500
  2229, 10.00000, -7.19884, -37.90625
  2230, 10.00000, -8.55200, -38.68750
  2231, 10.00000, -9.90517, -39.46875
  2232, 10.00000, -11.25833, -40.25000
  2233, 10.00000, -0.38302, -34.07139
  2234, 10.00000, -1.57997, -35.07575
  2235, 10.00000, -2.77691, -36.08011
  2236, 10.00000, -3.97386, -37.08446
  2237, 10.00000, -5.17080, -38.08882
  2238, 10.00000, -6.36774, -39.09317
  2239, 10.00000, -7.56469, -40.09753
  2240, 10.00000, -8.76163, -41.10188
  2241, 10.00000, -9.95858, -42.10624
  2242, 10.00000, -0.32139, -34.13302
  2243, 10.00000, -1.32575, -35.32997
  2244, 10.00000, -2.33011, -36.52691
  2245, 10.00000, -3.33446, -37.72386
  2246, 10.00000, -4.33882, -38.92080
  2247, 10.00000, -5.34317, -40.11774
  2248, 10.00000, -6.34753, -41.31469
  2249, 10.00000, -7.35188, -42.51163
  2250, 10.00000, -8.35624, -43.70858
  2251, 10.00000, -0.25000, -34.18301
  2252, 10.00000, -1.03125, -35.53618
  2253, 10.00000, -1.81250, -36.88934
  2254, 10.00000, -2.59375, -38.24251
  2255, 10.00000, -3.37500, -39.59567
  2256, 10.00000, -4.15625, -40.94884
  2257, 10.00000, -4.93750, -42.30200
  2258, 10.00000, -5.71875, -43.65517
  2259, 10.00000, -6.50000, -45.00833
  2260, 10.00000, -0.17101, -34.21985
  2261, 10.00000, -0.70542, -35.68812
  2262, 10.00000, -1.23982, -37.15639
  2263, 10.00000, -1.77423, -38.62466
  2264, 10.00000, -2.30864, -40.09293
  2265, 10.00000, -2.84304, -41.56119
  2266, 10.00000, -3.37745, -43.02946
  2267, 10.00000, -3.91186, -44.49773
  2268, 10.00000, -4.44626, -45.96600
  2269, 10.00000, -0.08682, -34.24240
  2270, 10.00000, -0.35815, -35.78117
  2271, 10.00000, -0.62947, -37.31993
  2272, 10.00000, -0.90080, -38.85869
  2273, 10.00000, -1.17213, -40.39745
  2274, 10.00000, -1.44345, -41.93621
  2275, 10.00000, -1.71478, -43.47498
  2276, 10.00000, -1.98610, -45.01374
  2277, 10.00000, -2.25743, -46.55250
  2278, 10.00000, -0.00000, -34.25000
  2279, 10.00000, -0.00000, -35.81250
  2280, 10.00000, -0.00000, -37.37500
  2281, 10.00000, -0.00000, -38.93750
  2282, 10.00000, -0.00000, -40.50000
  2283, 10.00000, -0.00000, -42.06250
  2284, 10.00000, -0.00000, -43.62500
  2285, 10.00000, -0.00000, -45.18750
  2286, 10.00000, -0.00000, -46.75000
  2287, 10.00000, 0.08682, -34.24240
  2288, 10.00000, 0.35815, -35.78117
  2289, 10.00000, 0.62947, -37.31993
  2290, 10.00000, 0.90080, -38.85869
  2291, 10.00000, 1.17213, -40.39745
  2292, 10.00000, 1.44345, -41.93621
  2293, 10.00000, 1.71478, -43.47498
  2294, 10.00000, 1.98610, -45.01374
  2295, 10.00000, 2.25743, -46.55250
  2296, 10.00000, 0.17101, -34.21985
  2297, 10.00000, 0.70542, -35.68812
  2298, 10.00000, 1.23982, -37.15639
  2299, 10.00000, 1.77423, -38.62466
  2300, 10.00000, 2.30864, -40.09293
  2301, 10.00000, 2.84304, -41.56119
  2302, 10.00000, 3.37745, -43.02946
  2303, 10.00000, 3.91186, -44.49773
  2304, 10.00000, 4.44626, -45.96600
  2305, 10.00000, 0.25000, -34.18301
  2306, 10.00000, 1.03125, -35.53618
  2307, 10.00000, 1.81250, -36.88934
  2308, 10.00000, 2.59375, -38.24251
  2309, 10.00000, 3.37500, -39.59567
  2310, 10.00000, 4.15625, -40.94884
  2311, 10.00000, 4.93750, -42.30200
  2312, 10.00000, 5.71875, -43.65517
  2313, 10.00000, 6.50000, -45.00833
  2314, 10.00000, 0.32139, -34.13302
  2315, 10.00000, 1.32575, -35.32997
  2316, 10.00000, 2.33011, -36.52691
  2317, 10.00000, 3.33446, -37.72386
  2318, 10.00000, 4.33882, -38.92080
  2319, 10.00000, 5.34317, -40.11774
  2320, 10.00000, 6.34753, -41.31469
  2321, 10.00000, 7.35188, -42.51163
  2322, 10.00000, 8.35624, -43.70858
  2323, 10.00000, 0.38302, -34.07139
  2324, 10.00000, 1.57997, -35.07575
  2325, 10.00000, 2.77691, -36.08011
  2326, 10.00000, 3.97386, -37.08446
  2327, 10.00000, 5.17080, -38.08882
  2328, 10.00000, 6.36774, -39.09317
  2329, 10.00000, 7.56469, -40.09753
  2330, 10.00000, 8.76163, -41.10188
  2331, 10.00000, 9.95858, -42.10624
  2332, 10.00000, 0.43301, -34.00000
  2333, 10.00000, 1.78618, -34.78125
  2334, 10.00000, 3.13934, -35.56250
  2335, 10.00000, 4.49251, -36.34375
  2336, 10.00000, 5.84567, -37.12500
  2337, 10.00000, 7.19884, -37.90625
  2338, 10.00000, 8.55200, -38.68750
  2339, 10.00000, 9.90517, -39.46875
  2340, 10.00000, 11.25833, -40.25000
  2341, 10.00000, 0.46985, -33.92101
  2342, 10.00000, 1.93812, -34.45542
  2343, 10.00000, 3.40639, -34.98982
  2344, 10.00000, 4.87466, -35.52423
  2345, 10.00000, 6.34293, -36.05864
  2346, 10.00000, 7.81119, -36.59304
  2347, 10.00000, 9.27946, -37.12745
  2348, 10.00000, 10.74773, -37.66186
  2349, 10.00000, 12.21600, -38.19626
  2350, 10.00000, 0.49240, -33.83682
  2351, 10.00000, 2.03117, -34.10815
  2352, 10.00000, 3.56993, -34.37947
  2353, 10.00000, 5.10869, -34.65080
  2354, 10.00000, 6.64745, -34.92213
  2355, 10.00000, 8.18621, -35.19345
  2356, 10.00000, 9.72498, -35.46478
  2357, 10.00000, 11.26374, -35.73610
  2358, 10.00000, 12.80250, -36.00743
  2359, 10.00000, 0.50000, -33.75000
  2360, 10.00000, 2.06250, -33.75000
  2361, 10.00000, 3.62500, -33.75000
  2362, 10.00000, 5.18750, -33.75000
  2363, 10.00000, 6.75000, -33.75000
  2364, 10.00000, 8.31250, -33.75000
  2365, 10.00000, 9.87500, -33.75000
  2366, 10.00000, 11.43750, -33.75000
  2367, 10.00000, 13.00000, -33.75000
  2368, 15.00000, 0.50000, -33.75000
  2369, 15.00000, 2.06250, -33.75000
  2370, 15.00000, 3.62500, -33.75000
  2371, 15.00000, 5.18750, -33.75000
  2372, 15.00000, 6.75000, -33.75000
  2373, 15.00000, 8.31250, -33.75000
  2374, 15.00000, 9.87500, -33.75000
  2375, 15.00000, 11.43750, -33.75000
  2376, 15.00000, 13.00000, -33.75000
  2377, 15.00000, 0.49240, -33.66318
  2378, 15.00000, 2.03117, -33.39185
  2379, 15.00000, 3.56993, -33.12053
  2380, 15.00000, 5.10869, -32.84920
  2381, 15.00000, 6.64745, -32.57787
  2382, 15.00000, 8.18621, -32.30655
  2383, 15.00000, 9.72498, -32.03522
  2384, 15.00000, 11.26374, -31.76390
  2385, 15.00000, 12.80250, -31.49257
  2386, 15.00000, 0.46985, -33.57899
  2387, 15.00000, 1.93812, -33.04458
  2388, 15.00000, 3.40639, -32.51018
  2389, 15.00000, 4.87466, -31.97577
  2390, 15.00000, 6.34293, -31.44136
  2391, 15.00000, 7.81119, -30.90696
  2392, 15.00000, 9.27946, -30.37255
  2393, 15.00000, 10.74773, -29.83814
  2394, 15.00000, 12.21600, -29.30374
  2395, 15.00000, 0.43301, -33.50000
  2396, 15.00000, 1.78618, -32.71875
  2397, 15.00000, 3.13934, -31.93750
  2398, 15.00000, 4.49251, -31.15625
  2399, 15.00000, 5.84567, -30.37500
  2400, 15.00000, 7.19884, -29.59375
  2401, 15.00000, 8.55200, -28.81250
  2402, 15.00000, 9.90517, -28.03125
  2403, 15.00000, 11.25833, -27.25000
  2404, 15.00000, 0.38302, -33.42861
  2405, 15.00000, 1.57997, -32.42425
  2406, 15.00000, 2.77691, -31.41989
  2407, 15.00000, 3.97386, -30.41554
  2408, 15.00000, 5.17080, -29.41118
  2409, 15.00000, 6.36774, -28.40683
  2410, 15.00000, 7.56469, -27.40247
  2411, 15.00000, 8.76163, -26.39812
  2412, 15.00000, 9.95858, -25.39376
  2413, 15.00000, 0.32139, -33.36698
  2414, 15.00000, 1.32575, -32.17003
  2415, 15.00000, 2.33011, -30.97309
  2416, 15.00000, 3.33446, -29.77614
  2417, 15.00000, 4.33882, -28.57920
  2418, 15.00000, 5.34317, -27.38226
  2419, 15.00000, 6.34753, -26.18531
  2420, 15.00000, 7.35188, -24.98837
  2421, 15.00000, 8.35624, -23.79142
  2422, 15.00000, 0.25000, -33.31699
  2423, 15.00000, 1.03125, -31.96382
  2424, 15.00000, 1.81250, -30.61066
  2425, 15.00000, 2.59375, -29.25749
  2426, 15.00000, 3.37500, -27.90433
  2427, 15.00000, 4.15625, -26.55116
  2428, 15.00000, 4.93750, -25.19800
  2429, 15.00000, 5.71875, -23.84483
  2430, 15.00000, 6.50000, -22.49167
  2431, 15.00000, 0.17101, -33.28015
  2432, 15.00000, 0.70542, -31.81188
  2433, 15.00000, 1.23982, -30.34361
  2434, 15.00000, 1.77423, -28.87534
  2435, 15.00000, 2.30864, -27.40707
  2436, 15.00000, 2.84304, -25.93881
  2437, 15.00000, 3.37745, -24.47054
  2438, 15.00000, 3.91186, -23.00227
  2439, 15.00000, 4.44626, -21.53400
  2440, 15.00000, 0.08682, -33.25760
  2441, 15.00000, 0.35815, -31.71883
  2442, 15.00000, 0.62947, -30.18007
  2443, 15.00000, 0.90080, -28.64131
  2444, 15.00000, 1.17213, -27.10255
  2445, 15.00000, 1.44345, -25.56379
  2446, 15.00000, 1.71478, -24.02502
  2447, 15.00000, 1.98610, -22.48626
  2448, 15.00000, 2.25743, -20.94750
  2449, 15.00000, 0.00000, -33.25000
  2450, 15.00000, 0.00000, -31.68750
  2451, 15.00000, 0.00000, -30.12500
  2452, 15.00000, 0.00000, -28.56250
  2453, 15.00000, 0.00000, -27.00000
  2454, 15.00000, 0.00000, -25.43750
  2455, 15.00000, 0.00000, -23.87500
  2456, 15.00000, 0.00000, -22.31250
  2457, 15.00000, 0.00000, -20.75000
  2458, 15.00000, -0.08682, -33.25760
  2459, 15.00000, -0.35815, -31.71883
  2460, 15.00000, -0.62947, -30.18007
  2461, 15.00000, -0.90080, -28.64131
  2462, 15.00000, -1.17213, -27.10255
  2463, 15.00000, -1.44345, -25.56379
  2464, 15.00000, -1.71478, -24.02502
  2465, 15.00000, -1.98610, -22.48626
  2466, 15.00000, -2.25743, -20.94750
  2467, 15.00000, -0.17101, -33.28015
  2468, 15.00000, -0.70542, -31.81188
  2469, 15.00000, -1.23982, -30.34361
  2470, 15.00000, -1.77423, -28.87534
  2471, 15.00000, -2.30864, -27.40707
  2472, 15.00000, -2.84304, -25.93881
  2473, 15.00000, -3.37745, -24.47054
  2474, 15.00000, -3.91186, -23.00227
  2475, 15.00000, -4.44626, -21.53400
  2476, 15.00000, -0.25000, -33.31699
  2477, 15.00000, -1.03125, -31.96382
  2478, 15.00000, -1.81250, -30.61066
  2479, 15.00000, -2.59375, -29.25749
  2480, 15.00000, -3.37500, -27.90433
  2481, 15.00000, -4.15625, -26.55116
  2482, 15.00000, -4.93750, -25.19800
  2483, 15.00000, -5.71875, -23.84483
  2484, 15.00000, -6.50000, -22.49167
  2485, 15.00000, -0.32139, -33.36698
  2486, 15.00000, -1.32575, -32.17003
  2487, 15.00000, -2.33011, -30.97309
  2488, 15.00000, -3.33446, -29.77614
  2489, 15.00000, -4.33882, -28.57920
  2490, 15.00000, -5.34317, -27.38226
  2491, 15.00000, -6.34753, -26.18531
  2492, 15.00000, -7.35188, -24.98837
  2493, 15.00000, -8.35624, -23.79142
  2494, 15.00000, -0.38302, -33.42861
  2495, 15.00000, -1.57997, -32.42425
  2496, 15.00000, -2.77691, -31.41989
  2497, 15.00000, -3.97386, -30.41554
  2498, 15.00000, -5.17080, -29.41118
  2499, 15.00000, -6.36774, -28.40683
  2500, 15.00000, -7.56469, -27.40247
  2501, 15.00000, -8.76163, -26.39812
  2502, 15.00000, -9.95858, -25.39376
  2503, 15.00000, -0.43301, -33.50000
  2504, 15.00000, -1.78618, -32.71875
  2505, 15.00000, -3.13934, -31.93750
  2506, 15.00000, -4.49251, -31.15625
  2507, 15.00000, -5.84567, -30.37500
  2508, 15.00000, -7.19884, -29.59375
  2509, 15.00000, -8.55200, -28.81250
  2510, 15.00000, -9.90517, -28.03125
  2511, 15.00000, -11.25833, -27.25000
  2512, 15.00000, -0.46985, -33.57899
  2513, 15.00000, -1.93812, -33.04458
  2514, 15.00000, -3.40639, -32.51018
  2515, 15.00000, -4.87466, -31.97577
  2516, 15.00000, -6.34293, -31.44136
  2517, 15.00000, -7.81119, -30.90696
  2518, 15.00000, -9.27946, -30.37255
  2519, 15.00000, -10.74773, -29.83814
  2520, 15.00000, -12.21600, -29.30374
  2521, 15.00000, -0.49240, -33.66318
  2522, 15.00000, -2.03117, -33.39185
  2523, 15.00000, -3.56993, -33.12053
  2524, 15.00000, -5.10869, -32.84920
  2525, 15.00000, -6.64745, -32.57787
  2526, 15.00000, -8.18621, -32.30655
  2527, 15.00000, -9.72498, -32.03522
  2528, 15.00000, -11.26374, -31.76390
  2529, 15.00000, -12.80250, -31.49257
  2530, 15.00000, -0.50000, -33.75000
  2531, 15.00000, -2.06250, -33.75000
  2532, 15.00000, -3.62500, -33.75000
  2533, 15.00000, -5.18750, -33.75000
  2534, 15.00000, -6.75000, -33.75000
  2535, 15.00000, -8.31250, -33.75000
  2536, 15.00000, -9.87500, -33.75000
  2537, 15.00000, -11.43750, -33.75000
  2538, 15.00000, -13.00000, -33.75000
  2539, 15.00000, -0.49240, -33.83682
  2540, 15.00000, -2.03117, -34.10815
  2541, 15.00000, -3.56993, -34.37947
  2542, 15.00000, -5.10869, -34.65080
  2543, 15.00000, -6.64745, -34.92213
  2544, 15.00000, -8.18621, -35.19345
  2545, 15.00000, -9.72498, -35.46478
  2546, 15.00000, -11.26374, -35.73610
  2547, 15.00000, -12.80250, -36.00743
  2548, 15.00000, -0.46985, -33.92101
  2549, 15.00000, -1.93812, -34.45542
  2550, 15.00000, -3.40639, -34.98982
  2551, 15.00000, -4.87466, -35.52423
  2552, 15.00000, -6.34293, -36.05864
  2553, 15.00000, -7.81119, -36.59304
  2554, 15.00000, -9.27946, -37.12745
  2555, 15.00000, -10.74773, -37.66186
  2556, 15.00000, -12.21600, -38.19626
  2557, 15.00000, -0.43301, -34.00000
  2558, 15.00000, -1.78618, -34.78125
  2559, 15.00000, -3.13934, -35.56250
  2560, 15.00000, -4.49251, -36.34375
  2561, 15.00000, -5.84567, -37.12500
  2562, 15.00000, -7.19884, -37.90625
  2563, 15.00000, -8.55200, -38.68750
  2564, 15.00000, -9.90517, -39.46875
  2565, 15.00000, -11.25833, -40.25000
  2566, 15.00000, -0.38302, -34.07139
  2567, 15.00000, -1.57997, -35.07575
  2568, 15.00000, -2.77691, -36.08011
  2569, 15.00000, -3.97386, -37.08446
  2570, 15.00000, -5.17080, -38.08882
  2571, 15.00000, -6.36774, -39.09317
  2572, 15.00000, -7.56469, -40.09753
  2573, 15.00000, -8.76163, -41.10188
  2574, 15.00000, -9.95858, -42.10624
  2575, 15.00000, -0.32139, -34.13302
  2576, 15.00000, -1.32575, -35.32997
  2577, 15.00000, -2.33011, -36.52691
  2578, 15.00000, -3.33446, -37.72386
  2579, 15.00000, -4.33882, -38.92080
  2580, 15.00000, -5.34317, -40.11774
  2581, 15.00000, -6.34753, -41.31469
  2582, 15.00000, -7.35188, -42.51163
  2583, 15.00000, -8.35624, -43.70858
  2584, 15.00000, -0.25000, -34.18301
  2585, 15.00000, -1.03125, -35.53618
  2586, 15.00000, -1.81250, -36.88934
  2587, 15.00000, -2.59375, -38.24251
  2588, 15.00000, -3.37500, -39.59567
  2589, 15.00000, -4.15625, -40.94884
  2590, 15.00000, -4.93750, -42.30200
  2591, 15.00000, -5.71875, -43.65517
  2592, 15.00000, -6.50000, -45.00833
  2593, 15.00000, -0.17101, -34.21985
  2594, 15.00000, -0.70542, -35.68812
  2595, 15.00000, -1.23982, -37.15639
  2596, 15.00000, -1.77423, -38.62466
  2597, 15.00000, -2.30864, -40.09293
  2598, 15.00000, -2.84304, -41.56119
  2599, 15.00000, -3.37745, -43.02946
  2600, 15.00000, -3.91186, -44.49773
  2601, 15.00000, -4.44626, -45.96600
  2602, 15.00000, -0.08682, -34.24240
  2603, 15.00000, -0.35815, -35.78117
  2604, 15.00000, -0.62947, -37.31993
  2605, 15.00000, -0.90080, -38.85869
  2606, 15.00000, -1.17213, -40.39745
  2607, 15.00000, -1.44345, -41.93621
  2608, 15.00000, -1.71478, -43.47498
  2609, 15.00000, -1.98610, -45.01374
  2610, 15.00000, -2.25743, -46.55250
  2611, 15.00000, -0.00000, -34.25000
  2612, 15.00000, -0.00000, -35.81250
  2613, 15.00000, -0.00000, -37.37500
  2614, 15.00000, -0.00000, -38.93750
  2615, 15.00000, -0.00000, -40.50000
  2616, 15.00000, -0.00000, -42.06250
  2617, 15.00000, -0.00000, -43.62500
  2618, 15.00000, -0.00000, -45.18750
  2619, 15.00000, -0.00000, -46.75000
  2620, 15.00000, 0.08682, -34.24240
  2621, 15.00000, 0.35815, -35.78117
  2622, 15.00000, 0.62947, -37.31993
  2623, 15.00000, 0.90080, -38.85869
  2624, 15.00000, 1.17213, -40.39745
  2625, 15.00000, 1.44345, -41.93621
  2626, 15.00000, 1.71478, -43.47498
  2627, 15.00000, 1.98610, -45.01374
  2628, 15.00000, 2.25743, -46.55250
  2629, 15.00000, 0.17101, -34.21985
  2630, 15.00000, 0.70542, -35.68812
  2631, 15.00000, 1.23982, -37.15639
  2632, 15.00000, 1.77423, -38.62466
  2633, 15.00000, 2.30864, -40.09293
  2634, 15.00000, 2.84304, -41.56119
  2635, 15.00000, 3.37745, -43.02946
  2636, 15.00000, 3.91186, -44.49773
  2637, 15.00000, 4.44626, -45.96600
  2638, 15.00000, 0.25000, -34.18301
  2639, 15.00000, 1.03125, -35.53618
  2640, 15.00000, 1.81250, -36.88934
  2641, 15.00000, 2.59375, -38.24251
  2642, 15.00000, 3.37500, -39.59567
  2643, 15.00000, 4.15625, -40.94884
  2644, 15.00000, 4.93750, -42.30200
  2645, 15.00000, 5.71875, -43.65517
  2646, 15.00000, 6.50000, -45.00833
  2647, 15.00000, 0.32139, -34.13302
  2648, 15.00000, 1.32575, -35.32997
  2649, 15.00000, 2.33011, -36.52691
  2650, 15.00000, 3.33446, -37.72386
  2651, 15.00000, 4.33882, -38.92080
  2652, 15.00000, 5.34317, -40.11774
  2653, 15.00000, 6.34753, -41.31469
  2654, 15.00000, 7.35188, -42.51163
  2655, 15.00000, 8.35624, -43.70858
  2656, 15.00000, 0.38302, -34.07139
  2657, 15.00000, 1.57997, -35.07575
  2658, 15.00000, 2.77691, -36.08011
  2659, 15.00000, 3.97386, -37.08446
  2660, 15.00000, 5.17080, -38.08882
  2661, 15.00000, 6.36774, -39.09317
  2662, 15.00000, 7.56469, -40.09753
  2663, 15.00000, 8.76163, -41.10188
  2664, 15.00000, 9.95858, -42.10624
  2665, 15.00000, 0.43301, -34.00000
  2666, 15.00000, 1.78618, -34.78125
  2667, 15.00000, 3.13934, -35.56250
  2668, 15.00000, 4.49251, -36.34375
  2669, 15.00000, 5.84567, -37.12500
  2670, 15.00000, 7.19884, -37.90625
  2671, 15.00000, 8.55200, -38.68750
  2672, 15.00000, 9.90517, -39.46875
  2673, 15.00000, 11.25833, -40.25000
  2674, 15.00000, 0.46985, -33.92101
  2675, 15.00000, 1.93812, -34.45542
  2676, 15.00000, 3.40639, -34.98982
  2677, 15.00000, 4.87466, -35.52423
  2678, 15.00000, 6.34293, -36.05864
  2679, 15.00000, 7.81119, -36.59304
  2680, 15.00000, 9.27946, -37.12745
  2681, 15.00000, 10.74773, -37.66186
  2682, 15.00000, 12.21600, -38.19626
  2683, 15.00000, 0.49240, -33.83682
  2684, 15.00000, 2.03117, -34.10815
  2685, 15.00000, 3.56993, -34.37947
  2686, 15.00000, 5.10869, -34.65080
  2687, 15.00000, 6.64745, -34.92213
  2688, 15.00000, 8.18621, -35.19345
  2689, 15.00000, 9.72498, -35.46478
  2690, 15.00000, 11.26374, -35.73610
  2691, 15.00000, 12.80250, -36.00743
  2692, 15.00000, 0.50000, -33.75000
  2693, 15.00000, 2.06250, -33.75000
  2694, 15.00000, 3.62500, -33.75000
  2695, 15.00000, 5.18750, -33.75000
  2696, 15.00000, 6.75000, -33.75000
  2697, 15.00000, 8.31250, -33.75000
  2698, 15.00000, 9.87500, -33.75000
  2699, 15.00000, 11.43750, -33.75000
  2700, 15.00000, 13.00000, -33.75000
  2701, 20.00000, 0.50000, -33.75000
  2702, 20.00000, 2.06250, -33.75000
  2703, 20.00000, 3.62500, -33.75000
  2704, 20.00000, 5.18750, -33.75000
  2705, 20.00000, 6.75000, -33.75000
  2706, 20.00000, 8.31250, -33.75000
  2707, 20.00000, 9.87500, -33.75000
  2708, 20.00000, 11.43750, -33.75000
  2709, 20.00000, 13.00000, -33.75000
  2710, 20.00000, 0.49240, -33.66318
  2711, 20.00000, 2.03117, -33.39185
  2712, 20.00000, 3.56993, -33.12053
  2713, 20.00000, 5.10869, -32.84920
  2714, 20.00000, 6.64745, -32.57787
  2715, 20.00000, 8.18621, -32.30655
  2716, 20.00000, 9.72498, -32.03522
  2717, 20.00000, 11.26374, -31.76390
  2718, 20.00000, 12.80250, -31.49257
  2719, 20.00000, 0.46985, -33.57899
  2720, 20.00000, 1.93812, -33.04458
  2721, 20.00000, 3.40639, -32.51018
  2722, 20.00000, 4.87466, -31.97577
  2723, 20.00000, 6.34293, -31.44136
  2724, 20.00000, 7.81119, -30.90696
  2725, 20.00000, 9.27946, -30.37255
  2726, 20.00000, 10.74773, -29.83814
  2727, 20.00000, 12.21600, -29.30374
  2728, 20.00000, 0.43301, -33.50000
  2729, 20.00000, 1.78618, -32.71875
  2730, 20.00000, 3.13934, -31.93750
  2731, 20.00000, 4.49251, -31.15625
  2732, 20.00000, 5.84567, -30.37500
  2733, 20.00000, 7.19884, -29.59375
  2734, 20.00000, 8.55200, -28.81250
  2735, 20.00000, 9.90517, -28.03125
  2736, 20.00000, 11.25833, -27.25000
  2737, 20.00000, 0.38302, -33.42861
  2738, 20.00000, 1.57997, -32.42425
  2739, 20.00000, 2.77691, -31.41989
  2740, 20.00000, 3.97386, -30.41554
  2741, 20.00000, 5.17080, -29.41118
  2742, 20.00000, 6.36774, -28.40683
  2743, 20.00000, 7.56469, -27.40247
  2744, 20.00000, 8.76163, -26.39812
  2745, 20.00000, 9.95858, -25.39376
  2746, 20.00000, 0.32139, -33.36698
  2747, 20.00000, 1.32575, -32.17003
  2748, 20.00000, 2.33011, -30.97309
  2749, 20.00000, 3.33446, -29.77614
  2750, 20.00000, 4.33882, -28.57920
  2751, 20.00000, 5.34317, -27.38226
  2752, 20.00000, 6.34753, -26.18531
  2753, 20.00000, 7.35188, -24.98837
  2754, 20.00000, 8.35624, -23.79142
  2755, 20.00000, 0.25000, -33.31699
  2756, 20.00000, 1.03125, -31.96382
  2757, 20.00000, 1.81250, -30.61066
  2758, 20.00000, 2.59375, -29.25749
  2759, 20.00000, 3.37500, -27.90433
  2760, 20.00000, 4.15625, -26.55116
  2761, 20.00000, 4.93750, -25.19800
  2762, 20.00000, 5.71875, -23.84483
  2763, 20.00000, 6.50000, -22.49167
  2764, 20.00000, 0.17101, -33.28015
  2765, 20.00000, 0.70542, -31.81188
  2766, 20.00000, 1.23982, -30.34361
  2767, 20.00000, 1.77423, -28.87534
  2768, 20.00000, 2.30864, -27.40707
  2769, 20.00000, 2.84304, -25.93881
  2770, 20.00000, 3.37745, -24.47054
  2771, 20.00000, 3.91186, -23.00227
  2772, 20.00000, 4.44626, -21.53400
  2773, 20.00000, 0.08682, -33.25760
  2774, 20.00000, 0.35815, -31.71883
  2775, 20.00000, 0.62947, -30.18007
  2776, 20.00000, 0.90080, -28.64131
  2777, 20.00000, 1.17213, -27.10255
  2778, 20.00000, 1.44345, -25.56379
  2779, 20.00000, 1.71478, -24.02502
  2780, 20.00000, 1.98610, -22.48626
  2781, 20.00000, 2.25743, -20.94750
  2782, 20.00000, 0.00000, -33.25000
  2783, 20.00000, 0.00000, -31.68750
  2784, 20.00000, 0.00000, -30.12500
  2785, 20.00000, 0.00000, -28.56250
  2786, 20.00000, 0.00000, -27.00000
  2787, 20.00000, 0.00000, -25.43750
  2788, 20.00000, 0.00000, -23.87500
  2789, 20.00000, 0.00000, -22.31250
  2790, 20.00000, 0.00000, -20.75000
  2791, 20.00000, -0.08682, -33.25760
  2792, 20.00000, -0.35815, -31.71883
  2793, 20.00000, -0.62947, -30.18007
  2794, 20.00000, -0.90080, -28.64131
  2795, 20.00000, -1.17213, -27.10255
  2796, 20.00000, -1.44345, -25.56379
  2797, 20.00000, -1.71478, -24.02502
  2798, 20.00000, -1.98610, -22.48626
  2799, 20.00000, -2.25743, -20.94750
  2800, 20.00000, -0.17101, -33.28015
  2801, 20.00000, -0.70542, -31.81188
  2802, 20.00000, -1.23982, -30.34361
  2803, 20.00000, -1.77423, -28.87534
  2804, 20.00000, -2.30864, -27.40707
  2805, 20.00000, -2.84304, -25.93881
  2806, 20.00000, -3.37745, -24.47054
  2807, 20.00000, -3.91186, -23.00227
  2808, 20.00000, -4.44626, -21.53400
  2809, 20.00000, -0.25000, -33.31699
  2810, 20.00000, -1.03125, -31.96382
  2811, 20.00000, -1.81250, -30.61066
  2812, 20.00000, -2.59375, -29.25749
  2813, 20.00000, -3.37500, -27.90433
  2814, 20.00000, -4.15625, -26.55116
  2815, 20.00000, -4.93750, -25.19800
  2816, 20.00000, -5.71875, -23.84483
  2817, 20.00000, -6.50000, -22.49167
  2818, 20.00000, -0.32139, -33.36698
  2819, 20.00000, -1.32575, -32.17003
  2820, 20.00000, -2.33011, -30.97309
  2821, 20.00000, -3.33446, -29.77614
  2822, 20.00000, -4.33882, -28.57920
  2823, 20.00000, -5.34317, -27.38226
  2824, 20.00000, -6.34753, -26.18531
  2825, 20.00000, -7.35188, -24.98837
  2826, 20.00000, -8.35624, -23.79142
  2827, 20.00000, -0.38302, -33.42861
  2828, 20.00000, -1.57997, -32.42425
  2829, 20.00000, -2.77691, -31.41989
  2830, 20.00000, -3.97386, -30.41554
  2831, 20.00000, -5.17080, -29.41118
  2832, 20.00000, -6.36774, -28.40683
  2833, 20.00000, -7.56469, -27.40247
  2834, 20.00000, -8.76163, -26.39812
  2835, 20.00000, -9.95858, -25.39376
  2836, 20.00000, -0.43301, -33.50000
  2837, 20.00000, -1.78618, -32.71875
  2838, 20.00000, -3.13934, -31.93750
  2839, 20.00000, -4.49251, -31.15625
  2840, 20.00000, -5.84567, -30.37500
  2841, 20.00000, -7.19884, -29.59375
  2842, 20.00000, -8.55200, -28.81250
  2843, 20.00000, -9.90517, -28.03125
  2844, 20.00000, -11.25833, -27.25000
  2845, 20.00000, -0.46985, -33.57899
  2846, 20.00000, -1.93812, -33.04458
  2847, 20.00000, -3.40639, -32.51018
  2848, 20.00000, -4.87466, -31.97577
  2849, 20.00000, -6.34293, -31.44136
  2850, 20.00000, -7.81119, -30.90696
  2851, 20.00000, -9.27946, -30.37255
  2852, 20.00000, -10.74773, -29.83814
  2853, 20.00000, -12.21600, -29.30374
  2854, 20.00000, -0.49240, -33.66318
  2855, 20.00000, -2.03117, -33.39185
  2856, 20.00000, -3.56993, -33.12053
  2857, 20.00000, -5.10869, -32.84920
  2858, 20.00000, -6.64745, -32.57787
  2859, 20.00000, -8.18621, -32.30655
  2860, 20.00000, -9.72498, -32.03522
  2861, 20.00000, -11.26374, -31.76390
  2862, 20.00000, -12.80250, -31.49257
  2863, 20.00000, -0.50000, -33.75000
  2864, 20.00000, -2.06250, -33.75000
  2865, 20.00000, -3.62500, -33.75000
  2866, 20.00000, -5.18750, -33.75000
  2867, 20.00000, -6.75000, -33.75000
  2868, 20.00000, -8.31250, -33.75000
  2869, 20.00000, -9.87500, -33.75000
  2870, 20.00000, -11.43750, -33.75000
  2871, 20.00000, -13.00000, -33.75000
  2872, 20.00000, -0.49240, -33.83682
  2873, 20.00000, -2.03117, -34.10815
  2874, 20.00000, -3.56993, -34.37947
  2875, 20.00000, -5.10869, -34.65080
  2876, 20.00000, -6.64745, -34.92213
  2877, 20.00000, -8.18621, -35.19345
  2878, 20.00000, -9.72498, -35.46478
  2879, 20.00000, -11.26374, -35.73610
  2880, 20.00000, -12.80250, -36.00743
  2881, 20.00000, -0.46985, -33.92101
  2882, 20.00000, -1.93812, -34.45542
  2883, 20.00000, -3.40639, -34.98982
  2884, 20.00000, -4.87466, -35.52423
  2885, 20.00000, -6.34293, -36.05864
  2886, 20.00000, -7.81119, -36.59304
  2887, 20.00000, -9.27946, -37.12745
  2888, 20.00000, -10.74773, -37.66186
  2889, 20.00000, -12.21600, -38.19626
  2890, 20.00000, -0.43301, -34.00000
  2891, 20.00000, -1.78618, -34.78125
  2892, 20.00000, -3.13934, -35.56250
  2893, 20.00000, -4.49251, -36.34375
  2894, 20.00000, -5.84567, -37.12500
  2895, 20.00000, -7.19884, -37.90625
  2896, 20.00000, -8.55200, -38.68750
  2897, 20.00000, -9.90517, -39.46875
  2898, 20.00000, -11.25833, -40.25000
  2899, 20.00000, -0.38302, -34.07139
  2900, 20.00000, -1.57997, -35.07575
  2901, 20.00000, -2.77691, -36.08011
  2902, 20.00000, -3.97386, -37.08446
  2903, 20.00000, -5.17080, -38.08882
  2904, 20.00000, -6.36774, -39.09317
  2905, 20.00000, -7.56469, -40.09753
  2906, 20.00000, -8.76163, -41.10188
  2907, 20.00000, -9.95858, -42.10624
  2908, 20.00000, -0.32139, -34.13302
  2909, 20.00000, -1.32575, -35.32997
  2910, 20.00000, -2.33011, -36.52691
  2911, 20.00000, -3.33446, -37.72386
  2912, 20.00000, -4.33882, -38.92080
  2913, 20.00000, -5.34317, -40.11774
  2914, 20.00000, -6.34753, -41.31469
  2915, 20.00000, -7.35188, -42.51163
  2916, 20.00000, -8.35624, -43.70858
  2917, 20.00000, -0.25000, -34.18301
  2918, 20.00000, -1.03125, -35.53618
  2919, 20.00000, -1.81250, -36.88934
  2920, 20.00000, -2.59375, -38.24251
  2921, 20.00000, -3.37500, -39.59567
  2922, 20.00000, -4.15625, -40.94884
  2923, 20.00000, -4.93750, -42.30200
  2924, 20.00000, -5.71875, -43.65517
  2925, 20.00000, -6.50000, -45.00833
  2926, 20.00000, -0.17101, -34.21985
  2927, 20.00000, -0.70542, -35.68812
  2928, 20.00000, -1.23982, -37.15639
  2929, 20.00000, -1.77423, -38.62466
  2930, 20.00000, -2.30864, -40.09293
  2931, 20.00000, -2.84304, -41.56119
  2932, 20.00000, -3.37745, -43.02946
  2933, 20.00000, -3.91186, -44.49773
  2934, 20.00000, -4.44626, -45.96600
  2935, 20.00000, -0.08682, -34.24240
  2936, 20.00000, -0.35815, -35.78117
  2937, 20.00000, -0.62947, -37.31993
  2938, 20.00000, -0.90080, -38.85869
  2939, 20.00000, -1.17213, -40.39745
  2940, 20.00000, -1.44345, -41.93621
  2941, 20.00000, -1.71478, -43.47498
  2942, 20.00000, -1.98610, -45.01374
  2943, 20.00000, -2.25743, -46.55250
  2944, 20.00000, -0.00000, -34.25000
  2945, 20.00000, -0.00000, -35.81250
  2946, 20.00000, -0.00000, -37.37500
  2947, 20.00000, -0.00000, -38.93750
  2948, 20.00000, -0.00000, -40.50000
  2949, 20.00000, -0.00000, -42.06250
  2950, 20.00000, -0.00000, -43.62500
  2951, 20.00000, -0.00000, -45.18750
  2952, 20.00000, -0.00000, -46.75000
  2953, 20.00000, 0.08682, -34.24240
  2954, 20.00000, 0.35815, -35.78117
  2955, 20.00000, 0.62947, -37.31993
  2956, 20.00000, 0.90080, -38.85869
  2957, 20.00000, 1.17213, -40.39745
  2958, 20.00000, 1.44345, -41.93621
  2959, 20.00000, 1.71478, -43.47498
  2960, 20.00000, 1.98610, -45.01374
  2961, 20.00000, 2.25743, -46.55250
  2962, 20.00000, 0.17101, -34.21985
  2963, 20.00000, 0.70542, -35.68812
  2964, 20.00000, 1.23982, -37.15639
  2965, 20.00000, 1.77423, -38.62466
  2966, 20.00000, 2.30864, -40.09293
  2967, 20.00000, 2.84304, -41.56119
  2968, 20.00000, 3.37745, -43.02946
  2969, 20.00000, 3.91186, -44.49773
  2970, 20.00000, 4.44626, -45.96600
  2971, 20.00000, 0.25000, -34.18301
  2972, 20.00000, 1.03125, -35.53618
  2973, 20.00000, 1.81250, -36.88934
  2974, 20.00000, 2.59375, -38.24251
  2975, 20.00000, 3.37500, -39.59567
  2976, 20.00000, 4.15625, -40.94884
  2977, 20.00000, 4.93750, -42.30200
  2978, 20.00000, 5.71875, -43.65517
  2979, 20.00000, 6.50000, -45.00833
  2980, 20.00000, 0.32139, -34.13302
  2981, 20.00000, 1.32575, -35.32997
  2982, 20.00000, 2.33011, -36.52691
  2983, 20.00000, 3.33446, -37.72386
  2984, 20.00000, 4.33882, -38.92080
  2985, 20.00000, 5.34317, -40.11774
  2986, 20.00000, 6.34753, -41.31469
  2987, 20.00000, 7.35188, -42.51163
  2988, 20.00000, 8.35624, -43.70858
  2989, 20.00000, 0.38302, -34.07139
  2990, 20.00000, 1.57997, -35.07575
  2991, 20.00000, 2.77691, -36.08011
  2992, 20.00000, 3.97386, -37.08446
  2993, 20.00000, 5.17080, -38.08882
  2994, 20.00000, 6.36774, -39.09317
  2995, 20.00000, 7.56469, -40.09753
  2996, 20.00000, 8.76163, -41.10188
  2997, 20.00000, 9.95858, -42.10624
  2998, 20.00000, 0.43301, -34.00000
  2999, 20.00000, 1.78618, -34.78125
  3000, 20.00000, 3.13934, -35.56250
  3001, 20.00000, 4.49251, -36.34375
  3002, 20.00000, 5.84567, -37.12500
  3003, 20.00000, 7.19884, -37.90625
  3004, 20.00000, 8.55200, -38.68750
  3005, 20.00000, 9.90517, -39.46875
  3006, 20.00000, 11.25833, -40.25000
  3007, 20.00000, 0.46985, -33.92101
  3008, 20.00000, 1.93812, -34.45542
  3009, 20.00000, 3.40639, -34.98982
  3010, 20.00000, 4.87466, -35.52423
  3011, 20.00000, 6.34293, -36.05864
  3012, 20.00000, 7.81119, -36.59304
  3013, 20.00000, 9.27946, -37.12745
  3014, 20.00000, 10.74773, -37.66186
  3015, 20.00000, 12.21600, -38.19626
  3016, 20.00000, 0.49240, -33.83682
  3017, 20.00000, 2.03117, -34.10815
  3018, 20.00000, 3.56993, -34.37947
  3019, 20.00000, 5.10869, -34.65080
  3020, 20.00000, 6.64745, -34.92213
  3021, 20.00000, 8.18621, -35.19345
  3022, 20.00000, 9.72498, -35.46478
  3023, 20.00000, 11.26374, -35.73610
  3024, 20.00000, 12.80250, -36.00743
  3025, 20.00000, 0.50000, -33.75000
  3026, 20.00000, 2.06250, -33.75000
  3027, 20.00000, 3.62500, -33.75000
  3028, 20.00000, 5.18750, -33.75000
  3029, 20.00000, 6.75000, -33.75000
  3030, 20.00000, 8.31250, -33.75000
  3031, 20.00000, 9.87500, -33.75000
  3032, 20.00000, 11.43750, -33.75000
  3033, 20.00000, 13.00000, -33.75000
  3034, 25.00000, 0.50000, -33.75000
  3035, 25.00000, 2.06250, -33.75000
  3036, 25.00000, 3.62500, -33.75000
  3037, 25.00000, 5.18750, -33.75000
  3038, 25.00000, 6.75000, -33.75000
  3039, 25.00000, 8.31250, -33.75000
  3040, 25.00000, 9.87500, -33.75000
  3041, 25.00000, 11.43750, -33.75000
  3042, 25.00000, 13.00000, -33.75000
  3043, 25.00000, 0.49240, -33.66318
  3044, 25.00000, 2.03117, -33.39185
  3045, 25.00000, 3.56993, -33.12053
  3046, 25.00000, 5.10869, -32.84920
  3047, 25.00000, 6.64745, -32.57787
  3048, 25.00000, 8.18621, -32.30655
  3049, 25.00000, 9.72498, -32.03522
  3050, 25.00000, 11.26374, -31.76390
  3051, 25.00000, 12.80250, -31.49257
  3052, 25.00000, 0.46985, -33.57899
  3053, 25.00000, 1.93812, -33.04458
  3054, 25.00000, 3.40639, -32.51018
  3055, 25.00000, 4.87466, -31.97577
  3056, 25.00000, 6.34293, -31.44136
  3057, 25.00000, 7.81119, -30.90696
  3058, 25.00000, 9.27946, -30.37255
  3059, 25.00000, 10.74773, -29.83814
  3060, 25.00000, 12.21600, -29.30374
  3061, 25.00000, 0.43301, -33.50000
  3062, 25.00000, 1.78618, -32.71875
  3063, 25.00000, 3.13934, -31.93750
  3064, 25.00000, 4.49251, -31.15625
  3065, 25.00000, 5.84567, -30.37500
  3066, 25.00000, 7.19884, -29.59375
  3067, 25.00000, 8.55200, -28.81250
  3068, 25.00000, 9.90517, -28.03125
  3069, 25.00000, 11.25833, -27.25000
  3070, 25.00000, 0.38302, -33.42861
  3071, 25.00000, 1.57997, -32.42425
  3072, 25.00000, 2.77691, -31.41989
  3073, 25.00000, 3.97386, -30.41554
  3074, 25.00000, 5.17080, -29.41118
  3075, 25.00000, 6.36774, -28.40683
  3076, 25.00000, 7.56469, -27.40247
  3077, 25.00000, 8.76163, -26.39812
  3078, 25.00000, 9.95858, -25.39376
  3079, 25.00000, 0.32139, -33.36698
  3080, 25.00000, 1.32575, -32.17003
  3081, 25.00000, 2.33011, -30.97309
  3082, 25.00000, 3.33446, -29.77614
  3083, 25.00000, 4.33882, -28.57920
  3084, 25.00000, 5.34317, -27.38226
  3085, 25.00000, 6.34753, -26.18531
  3086, 25.00000, 7.35188, -24.98837
  3087, 25.00000, 8.35624, -23.79142
  3088, 25.00000, 0.25000, -33.31699
  3089, 25.00000, 1.03125, -31.96382
  3090, 25.00000, 1.81250, -30.61066
  3091, 25.00000, 2.59375, -29.25749
  3092, 25.00000, 3.37500, -27.90433
  3093, 25.00000, 4.15625, -26.55116
  3094, 25.00000, 4.93750, -25.19800
  3095, 25.00000, 5.71875, -23.84483
  3096, 25.00000, 6.50000, -22.49167
  3097, 25.00000, 0.17101, -33.28015
  3098, 25.00000, 0.70542, -31.81188
  3099, 25.00000, 1.23982, -30.34361
  3100, 25.00000, 1.77423, -28.87534
  3101, 25.00000, 2.30864, -27.40707
  3102, 25.00000, 2.84304, -25.93881
  3103, 25.00000, 3.37745, -24.47054
  3104, 25.00000, 3.91186, -23.00227
  3105, 25.00000, 4.44626, -21.53400
  3106, 25.00000, 0.08682, -33.25760
  3107, 25.00000, 0.35815, -31.71883
  3108, 25.00000, 0.62947, -30.18007
  3109, 25.00000, 0.90080, -28.64131
  3110, 25.00000, 1.17213, -27.10255
  3111, 25.00000, 1.44345, -25.56379
  3112, 25.00000, 1.71478, -24.02502
  3113, 25.00000, 1.98610, -22.48626
  3114, 25.00000, 2.25743, -20.94750
  3115, 25.00000, 0.00000, -33.25000
  3116, 25.00000, 0.00000, -31.68750
  3117, 25.00000, 0.00000, -30.12500
  3118, 25.00000, 0.00000, -28.56250
  3119, 25.00000, 0.00000, -27.00000
  3120, 25.00000, 0.00000, -25.43750
  3121, 25.00000, 0.00000, -23.87500
  3122, 25.00000, 0.00000, -22.31250
  3123, 25.00000, 0.00000, -20.75000
  3124, 25.00000, -0.08682, -33.25760
  3125, 25.00000, -0.35815, -31.71883
  3126, 25.00000, -0.62947, -30.18007
  3127, 25.00000, -0.90080, -28.64131
  3128, 25.00000, -1.17213, -27.10255
  3129, 25.00000, -1.44345, -25.56379
  3130, 25.00000, -1.71478, -24.02502
  3131, 25.00000, -1.98610, -22.48626
  3132, 25.00000, -2.25743, -20.94750
  3133, 25.00000, -0.17101, -33.28015
  3134, 25.00000, -0.70542, -31.81188
  3135, 25.00000, -1.23982, -30.34361
  3136, 25.00000, -1.77423, -28.87534
  3137, 25.00000, -2.30864, -27.40707
  3138, 25.00000, -2.84304, -25.93881
  3139, 25.00000, -3.37745, -24.47054
  3140, 25.00000, -3.91186, -23.00227
  3141, 25.00000, -4.44626, -21.53400
  3142, 25.00000, -0.25000, -33.31699
  3143, 25.00000, -1.03125, -31.96382
  3144, 25.00000, -1.81250, -30.61066
  3145, 25.00000, -2.59375, -29.25749
  3146, 25.00000, -3.37500, -27.90433
  3147, 25.00000, -4.15625, -26.55116
  3148, 25.00000, -4.93750, -25.19800
  3149, 25.00000, -5.71875, -23.84483
  3150, 25.00000, -6.50000, -22.49167
  3151, 25.00000, -0.32139, -33.36698
  3152, 25.00000, -1.32575, -32.17003
  3153, 25.00000, -2.33011, -30.97309
  3154, 25.00000, -3.33446, -29.77614
  3155, 25.00000, -4.33882, -28.57920
  3156, 25.00000, -5.34317, -27.38226
  3157, 25.00000, -6.34753, -26.18531
  3158, 25.00000, -7.35188, -24.98837
  3159, 25.00000, -8.35624, -23.79142
  3160, 25.00000, -0.38302, -33.42861
  3161, 25.00000, -1.57997, -32.42425
  3162, 25.00000, -2.77691, -31.41989
  3163, 25.00000, -3.97386, -30.41554
  3164, 25.00000, -5.17080, -29.41118
  3165, 25.00000, -6.36774, -28.40683
  3166, 25.00000, -7.56469, -27.40247
  3167, 25.00000, -8.76163, -26.39812
  3168, 25.00000, -9.95858, -25.39376
  3169, 25.00000, -0.43301, -33.50000
  3170, 25.00000, -1.78618, -32.71875
  3171, 25.00000, -3.13934, -31.93750
  3172, 25.00000, -4.49251, -31.15625
  3173, 25.00000, -5.84567, -30.37500
  3174, 25.00000, -7.19884, -29.59375
  3175, 25.00000, -8.55200, -28.81250
  3176, 25.00000, -9.90517, -28.03125
  3177, 25.00000, -11.25833, -27.25000
  3178, 25.00000, -0.46985, -33.57899
  3179, 25.00000, -1.93812, -33.04458
  3180, 25.00000, -3.40639, -32.51018
  3181, 25.00000, -4.87466, -31.97577
  3182, 25.00000, -6.34293, -31.44136
  3183, 25.00000, -7.81119, -30.90696
  3184, 25.00000, -9.27946, -30.37255
  3185, 25.00000, -10.74773, -29.83814
  3186, 25.00000, -12.21600, -29.30374
  3187, 25.00000, -0.49240, -33.66318
  3188, 25.00000, -2.03117, -33.39185
  3189, 25.00000, -3.56993, -33.12053
  3190, 25.00000, -5.10869, -32.84920
  3191, 25.00000, -6.64745, -32.57787
  3192, 25.00000, -8.18621, -32.30655
  3193, 25.00000, -9.72498, -32.03522
  3194, 25.00000, -11.26374, -31.76390
  3195, 25.00000, -12.80250, -31.49257
  3196, 25.00000, -0.50000, -33.75000
  3197, 25.00000, -2.06250, -33.75000
  3198, 25.00000, -3.62500, -33.75000
  3199, 25.00000, -5.18750, -33.75000
  3200, 25.00000, -6.75000, -33.75000
  3201, 25.00000, -8.31250, -33.75000
  3202, 25.00000, -9.87500, -33.75000
  3203, 25.00000, -11.43750, -33.75000
  3204, 25.00000, -13.00000, -33.75000
  3205, 25.00000, -0.49240, -33.83682
  3206, 25.00000, -2.03117, -34.10815
  3207, 25.00000, -3.56993, -34.37947
  3208, 25.00000, -5.10869, -34.65080
  3209, 25.00000, -6.64745, -34.92213
  3210, 25.00000, -8.18621, -35.19345
  3211, 25.00000, -9.72498, -35.46478
  3212, 25.00000, -11.26374, -35.73610
  3213, 25.00000, -12.80250, -36.00743
  3214, 25.00000, -0.46985, -33.92101
  3215, 25.00000, -1.93812, -34.45542
  3216, 25.00000, -3.40639, -34.98982
  3217, 25.00000, -4.87466, -35.52423
  3218, 25.00000, -6.34293, -36.05864
  3219, 25.00000, -7.81119, -36.59304
  3220, 25.00000, -9.27946, -37.12745
  3221, 25.00000, -10.74773, -37.66186
  3222, 25.00000, -12.21600, -38.19626
  3223, 25.00000, -0.43301, -34.00000
  3224, 25.00000, -1.78618, -34.78125
  3225, 25.00000, -3.13934, -35.56250
  3226, 25.00000, -4.49251, -36.34375
  3227, 25.00000, -5.84567, -37.12500
  3228, 25.00000, -7.19884, -37.90625
  3229, 25.00000, -8.55200, -38.68750
  3230, 25.00000, -9.90517, -39.46875
  3231, 25.00000, -11.25833, -40.25000
  3232, 25.00000, -0.38302, -34.07139
  3233, 25.00000, -1.57997, -35.07575
  3234, 25.00000, -2.77691, -36.08011
  3235, 25.00000, -3.97386, -37.08446
  3236, 25.00000, -5.17080, -38.08882
  3237, 25.00000, -6.36774, -39.09317
  3238, 25.00000, -7.56469, -40.09753
  3239, 25.00000, -8.76163, -41.10188
  3240, 25.00000, -9.95858, -42.10624
  3241, 25.00000, -0.32139, -34.13302
  3242, 25.00000, -1.32575, -35.32997
  3243, 25.00000, -2.33011, -36.52691
  3244, 25.00000, -3.33446, -37.72386
  3245, 25.00000, -4.33882, -38.92080
  3246, 25.00000, -5.34317, -40.11774
  3247, 25.00000, -6.34753, -41.31469
  3248, 25.00000, -7.35188, -42.51163
  3249, 25.00000, -8.35624, -43.70858
  3250, 25.00000, -0.25000, -34.18301
  3251, 25.00000, -1.03125, -35.53618
  3252, 25.00000, -1.81250, -36.88934
  3253, 25.00000, -2.59375, -38.24251
  3254, 25.00000, -3.37500, -39.59567
  3255, 25.00000, -4.15625, -40.94884
  3256, 25.00000, -4.93750, -42.30200
  3257, 25.00000, -5.71875, -43.65517
  3258, 25.00000, -6.50000, -45.00833
  3259, 25.00000, -0.17101, -34.21985
  3260, 25.00000, -0.70542, -35.68812
  3261, 25.00000, -1.23982, -37.15639
  3262, 25.00000, -1.77423, -38.62466
  3263, 25.00000, -2.30864, -40.09293
  3264, 25.00000, -2.84304, -41.56119
  3265, 25.00000, -3.37745, -43.02946
  3266, 25.00000, -3.91186, -44.49773
  3267, 25.00000, -4.44626, -45.96600
  3268, 25.00000, -0.08682, -34.24240
  3269, 25.00000, -0.35815, -35.78117
  3270, 25.00000, -0.62947, -37.31993
  3271, 25.00000, -0.90080, -38.85869
  3272, 25.00000, -1.17213, -40.39745
  3273, 25.00000, -1.44345, -41.93621
  3274, 25.00000, -1.71478, -43.47498
  3275, 25.00000, -1.98610, -45.01374
  3276, 25.00000, -2.25743, -46.55250
  3277, 25.00000, -0.00000, -34.25000
  3278, 25.00000, -0.00000, -35.81250
  3279, 25.00000, -0.00000, -37.37500
  3280, 25.00000, -0.00000, -38.93750
  3281, 25.00000, -0.00000, -40.50000
  3282, 25.00000, -0.00000, -42.06250
  3283, 25.00000, -0.00000, -43.62500
  3284, 25.00000, -0.00000, -45.18750
  3285, 25.00000, -0.00000, -46.75000
  3286, 25.00000, 0.08682, -34.24240
  3287, 25.00000, 0.35815, -35.78117
  3288, 25.00000, 0.62947, -37.31993
  3289, 25.00000, 0.90080, -38.85869
  3290, 25.00000, 1.17213, -40.39745
  3291, 25.00000, 1.44345, -41.93621
  3292, 25.00000, 1.71478, -43.47498
  3293, 25.00000, 1.98610, -45.01374
  3294, 25.00000, 2.25743, -46.55250
  3295, 25.00000, 0.17101, -34.21985
  3296, 25.00000, 0.70542, -35.68812
  3297, 25.00000, 1.23982, -37.15639
  3298, 25.00000, 1.77423, -38.62466
  3299, 25.00000, 2.30864, -40.09293
  3300, 25.00000, 2.84304, -41.56119
  3301, 25.00000, 3.37745, -43.02946
  3302, 25.00000, 3.91186, -44.49773
  3303, 25.00000, 4.44626, -45.96600
  3304, 25.00000, 0.25000, -34.18301
  3305, 25.00000, 1.03125, -35.53618
  3306, 25.00000, 1.81250, -36.88934
  3307, 25.00000, 2.59375, -38.24251
  3308, 25.00000, 3.37500, -39.59567
  3309, 25.00000, 4.15625, -40.94884
  3310, 25.00000, 4.93750, -42.30200
  3311, 25.00000, 5.71875, -43.65517
  3312, 25.00000, 6.50000, -45.00833
  3313, 25.00000, 0.32139, -34.13302
  3314, 25.00000, 1.32575, -35.32997
  3315, 25.00000, 2.33011, -36.52691
  3316, 25.00000, 3.33446, -37.72386
  3317, 25.00000, 4.33882, -38.92080
  3318, 25.00000, 5.34317, -40.11774
  3319, 25.00000, 6.34753, -41.31469
  3320, 25.00000, 7.35188, -42.51163
  3321, 25.00000, 8.35624, -43.70858
  3322, 25.00000, 0.38302, -34.07139
  3323, 25.00000, 1.57997, -35.07575
  3324, 25.00000, 2.77691, -36.08011
  3325, 25.00000, 3.97386, -37.08446
  3326, 25.00000, 5.17080, -38.08882
  3327, 25.00000, 6.36774, -39.09317
  3328, 25.00000, 7.56469, -40.09753
  3329, 25.00000, 8.76163, -41.10188
  3330, 25.00000, 9.95858, -42.10624
  3331, 25.00000, 0.43301, -34.00000
  3332, 25.00000, 1.78618, -34.78125
  3333, 25.00000, 3.13934, -35.56250
  3334, 25.00000, 4.49251, -36.34375
  3335, 25.00000, 5.84567, -37.12500
  3336, 25.00000, 7.19884, -37.90625
  3337, 25.00000, 8.55200, -38.68750
  3338, 25.00000, 9.90517, -39.46875
  3339, 25.00000, 11.25833, -40.25000
  3340, 25.00000, 0.46985, -33.92101
  3341, 25.00000, 1.93812, -34.45542
  3342, 25.00000, 3.40639, -34.98982
  3343, 25.00000, 4.87466, -35.52423
  3344, 25.00000, 6.34293, -36.05864
  3345, 25.00000, 7.81119, -36.59304
  3346, 25.00000, 9.27946, -37.12745
  3347, 25.00000, 10.74773, -37.66186
  3348, 25.00000, 12.21600, -38.19626
  3349, 25.00000, 0.49240, -33.83682
  3350, 25.00000, 2.03117, -34.10815
  3351, 25.00000, 3.56993, -34.37947
  3352, 25.00000, 5.10869, -34.65080
  3353, 25.00000, 6.64745, -34.92213
  3354, 25.00000, 8.18621, -35.19345
  3355, 25.00000, 9.72498, -35.46478
  3356, 25.00000, 11.26374, -35.73610
  3357, 25.00000, 12.80250, -36.00743
  3358, 25.00000, 0.50000, -33.75000
  3359, 25.00000, 2.06250, -33.75000
  3360, 25.00000, 3.62500, -33.75000
  3361, 25.00000, 5.18750, -33.75000
  3362, 25.00000, 6.75000, -33.75000
  3363, 25.00000, 8.31250, -33.75000
  3364, 25.00000, 9.87500, -33.75000
  3365, 25.00000, 11.43750, -33.75000
  3366, 25.00000, 13.00000, -33.75000
  3367, 30.00000, 0.50000, -33.75000
  3368, 30.00000, 2.06250, -33.75000
  3369, 30.00000, 3.62500, -33.75000
  3370, 30.00000, 5.18750, -33.75000
  3371, 30.00000, 6.75000, -33.75000
  3372, 30.00000, 8.31250, -33.75000
  3373, 30.00000, 9.87500, -33.75000
  3374, 30.00000, 11.43750, -33.75000
  3375, 30.00000, 13.00000, -33.75000
  3376, 30.00000, 0.49240, -33.66318
  3377, 30.00000, 2.03117, -33.39185
  3378, 30.00000, 3.56993, -33.12053
  3379, 30.00000, 5.10869, -32.84920
  3380, 30.00000, 6.64745, -32.57787
  3381, 30.00000, 8.18621, -32.30655
  3382, 30.00000, 9.72498, -32.03522
  3383, 30.00000, 11.26374, -31.76390
  3384, 30.00000, 12.80250, -31.49257
  3385, 30.00000, 0.46985, -33.57899
  3386, 30.00000, 1.93812, -33.04458
  3387, 30.00000, 3.40639, -32.51018
  3388, 30.00000, 4.87466, -31.97577
  3389, 30.00000, 6.34293, -31.44136
  3390, 30.00000, 7.81119, -30.90696
  3391, 30.00000, 9.27946, -30.37255
  3392, 30.00000, 10.74773, -29.83814
  3393, 30.00000, 12.21600, -29.30374
  3394, 30.00000, 0.43301, -33.50000
  3395, 30.00000, 1.78618, -32.71875
  3396, 30.00000, 3.13934, -31.93750
  3397, 30.00000, 4.49251, -31.15625
  3398, 30.00000, 5.84567, -30.37500
  3399, 30.00000, 7.19884, -29.59375
  3400, 30.00000, 8.55200, -28.81250
  3401, 30.00000, 9.90517, -28.03125
  3402, 30.00000, 11.25833, -27.25000
  3403, 30.00000, 0.38302, -33.42861
  3404, 30.00000, 1.57997, -32.42425
  3405, 30.00000, 2.77691, -31.41989
  3406, 30.00000, 3.97386, -30.41554
  3407, 30.00000, 5.17080, -29.41118
  3408, 30.00000, 6.36774, -28.40683
  3409, 30.00000, 7.56469, -27.40247
  3410, 30.00000, 8.76163, -26.39812
  3411, 30.00000, 9.95858, -25.39376
  3412, 30.00000, 0.32139, -33.36698
  3413, 30.00000, 1.32575, -32.17003
  3414, 30.00000, 2.33011, -30.97309
  3415, 30.00000, 3.33446, -29.77614
  3416, 30.00000, 4.33882, -28.57920
  3417, 30.00000, 5.34317, -27.38226
  3418, 30.00000, 6.34753, -26.18531
  3419, 30.00000, 7.35188, -24.98837
  3420, 30.00000, 8.35624, -23.79142
  3421, 30.00000, 0.25000, -33.31699
  3422, 30.00000, 1.03125, -31.96382
  3423, 30.00000, 1.81250, -30.61066
  3424, 30.00000, 2.59375, -29.25749
  3425, 30.00000, 3.37500, -27.90433
  3426, 30.00000, 4.15625, -26.55116
  3427, 30.00000, 4.93750, -25.19800
  3428, 30.00000, 5.71875, -23.84483
  3429, 30.00000, 6.50000, -22.49167
  3430, 30.00000, 0.17101, -33.28015
  3431, 30.00000, 0.70542, -31.81188
  3432, 30.00000, 1.23982, -30.34361
  3433, 30.00000, 1.77423, -28.87534
  3434, 30.00000, 2.30864, -27.40707
  3435, 30.00000, 2.84304, -25.93881
  3436, 30.00000, 3.37745, -24.47054
  3437, 30.00000, 3.91186, -23.00227
  3438, 30.00000, 4.44626, -21.53400
  3439, 30.00000, 0.08682, -33.25760
  3440, 30.00000, 0.35815, -31.71883
  3441, 30.00000, 0.62947, -30.18007
  3442, 30.00000, 0.90080, -28.64131
  3443, 30.00000, 1.17213, -27.10255
  3444, 30.00000, 1.44345, -25.56379
  3445, 30.00000, 1.71478, -24.02502
  3446, 30.00000, 1.98610, -22.48626
  3447, 30.00000, 2.25743, -20.94750
  3448, 30.00000, 0.00000, -33.25000
  3449, 30.00000, 0.00000, -31.68750
  3450, 30.00000, 0.00000, -30.12500
  3451, 30.00000, 0.00000, -28.56250
  3452, 30.00000, 0.00000, -27.00000
  3453, 30.00000, 0.00000, -25.43750
  3454, 30.00000, 0.00000, -23.87500
  3455, 30.00000, 0.00000, -22.31250
  3456, 30.00000, 0.00000, -20.75000
  3457, 30.00000, -0.08682, -33.25760
  3458, 30.00000, -0.35815, -31.71883
  3459, 30.00000, -0.62947, -30.18007
  3460, 30.00000, -0.90080, -28.64131
  3461, 30.00000, -1.17213, -27.10255
  3462, 30.00000, -1.44345, -25.56379
  3463, 30.00000, -1.71478, -24.02502
  3464, 30.00000, -1.98610, -22.48626
  3465, 30.00000, -2.25743, -20.94750
  3466, 30.00000, -0.17101, -33.28015
  3467, 30.00000, -0.70542, -31.81188
  3468, 30.00000, -1.23982, -30.34361
  3469, 30.00000, -1.77423, -28.87534
  3470, 30.00000, -2.30864, -27.40707
  3471, 30.00000, -2.84304, -25.93881
  3472, 30.00000, -3.37745, -24.47054
  3473, 30.00000, -3.91186, -23.00227
  3474, 30.00000, -4.44626, -21.53400
  3475, 30.00000, -0.25000, -33.31699
  3476, 30.00000, -1.03125, -31.96382
  3477, 30.00000, -1.81250, -30.61066
  3478, 30.00000, -2.59375, -29.25749
  3479, 30.00000, -3.37500, -27.90433
  3480, 30.00000, -4.15625, -26.55116
  3481, 30.00000, -4.93750, -25.19800
  3482, 30.00000, -5.71875, -23.84483
  3483, 30.00000, -6.50000, -22.49167
  3484, 30.00000, -0.32139, -33.36698
  3485, 30.00000, -1.32575, -32.17003
  3486, 30.00000, -2.33011, -30.97309
  3487, 30.00000, -3.33446, -29.77614
  3488, 30.00000, -4.33882, -28.57920
  3489, 30.00000, -5.34317, -27.38226
  3490, 30.00000, -6.34753, -26.18531
  3491, 30.00000, -7.35188, -24.98837
  3492, 30.00000, -8.35624, -23.79142
  3493, 30.00000, -0.38302, -33.42861
  3494, 30.00000, -1.57997, -32.42425
  3495, 30.00000, -2.77691, -31.41989
  3496, 30.00000, -3.97386, -30.41554
  3497, 30.00000, -5.17080, -29.41118
  3498, 30.00000, -6.36774, -28.40683
  3499, 30.00000, -7.56469, -27.40247
  3500, 30.00000, -8.76163, -26.39812
  3501, 30.00000, -9.95858, -25.39376
  3502, 30.00000, -0.43301, -33.50000
  3503, 30.00000, -1.78618, -32.71875
  3504, 30.00000, -3.13934, -31.93750
  3505, 30.00000, -4.49251, -31.15625
  3506, 30.00000, -5.84567, -30.37500
  3507, 30.00000, -7.19884, -29.59375
  3508, 30.00000, -8.55200, -28.81250
  3509, 30.00000, -9.90517, -28.03125
  3510, 30.00000, -11.25833, -27.25000
  3511, 30.00000, -0.46985, -33.57899
  3512, 30.00000, -1.93812, -33.04458
  3513, 30.00000, -3.40639, -32.51018
  3514, 30.00000, -4.87466, -31.97577
  3515, 30.00000, -6.34293, -31.44136
  3516, 30.00000, -7.81119, -30.90696
  3517, 30.00000, -9.27946, -30.37255
  3518, 30.00000, -10.74773, -29.83814
  3519, 30.00000, -12.21600, -29.30374
  3520, 30.00000, -0.49240, -33.66318
  3521, 30.00000, -2.03117, -33.39185
  3522, 30.00000, -3.56993, -33.12053
  3523, 30.00000, -5.10869, -32.84920
  3524, 30.00000, -6.64745, -32.57787
  3525, 30.00000, -8.18621, -32.30655
  3526, 30.00000, -9.72498, -32.03522
  3527, 30.00000, -11.26374, -31.76390
  3528, 30.00000, -12.80250, -31.49257
  3529, 30.00000, -0.50000, -33.75000
  3530, 30.00000, -2.06250, -33.75000
  3531, 30.00000, -3.62500, -33.75000
  3532, 30.00000, -5.18750, -33.75000
  3533, 30.00000, -6.75000, -33.75000
  3534, 30.00000, -8.31250, -33.75000
  3535, 30.00000, -9.87500, -33.75000
  3536, 30.00000, -11.43750, -33.75000
  3537, 30.00000, -13.00000, -33.75000
  3538, 30.00000, -0.49240, -33.83682
  3539, 30.00000, -2.03117, -34.10815
  3540, 30.00000, -3.56993, -34.37947
  3541, 30.00000, -5.10869, -34.65080
  3542, 30.00000, -6.64745, -34.92213
  3543, 30.00000, -8.18621, -35.19345
  3544, 30.00000, -9.72498, -35.46478
  3545, 30.00000, -11.26374, -35.73610
  3546, 30.00000, -12.80250, -36.00743
  3547, 30.00000, -0.46985, -33.92101
  3548, 30.00000, -1.93812, -34.45542
  3549, 30.00000, -3.40639, -34.98982
  3550, 30.00000, -4.87466, -35.52423
  3551, 30.00000, -6.34293, -36.05864
  3552, 30.00000, -7.81119, -36.59304
  3553, 30.00000, -9.27946, -37.12745
  3554, 30.00000, -10.74773, -37.66186
  3555, 30.00000, -12.21600, -38.19626
  3556, 30.00000, -0.43301, -34.00000
  3557, 30.00000, -1.78618, -34.78125
  3558, 30.00000, -3.13934, -35.56250
  3559, 30.00000, -4.49251, -36.34375
  3560, 30.00000, -5.84567, -37.12500
  3561, 30.00000, -7.19884, -37.90625
  3562, 30.00000, -8.55200, -38.68750
  3563, 30.00000, -9.90517, -39.46875
  3564, 30.00000, -11.25833, -40.25000
  3565, 30.00000, -0.38302, -34.07139
  3566, 30.00000, -1.57997, -35.07575
  3567, 30.00000, -2.77691, -36.08011
  3568, 30.00000, -3.97386, -37.08446
  3569, 30.00000, -5.17080, -38.08882
  3570, 30.00000, -6.36774, -39.09317
  3571, 30.00000, -7.56469, -40.09753
  3572, 30.00000, -8.76163, -41.10188
  3573, 30.00000, -9.95858, -42.10624
  3574, 30.00000, -0.32139, -34.13302
  3575, 30.00000, -1.32575, -35.32997
  3576, 30.00000, -2.33011, -36.52691
  3577, 30.00000, -3.33446, -37.72386
  3578, 30.00000, -4.33882, -38.92080
  3579, 30.00000, -5.34317, -40.11774
  3580, 30.00000, -6.34753, -41.31469
  3581, 30.00000, -7.35188, -42.51163
  3582, 30.00000, -8.35624, -43.70858
  3583, 30.00000, -0.25000, -34.18301
  3584, 30.00000, -1.03125, -35.53618
  3585, 30.00000, -1.81250, -36.88934
  3586, 30.00000, -2.59375, -38.24251
  3587, 30.00000, -3.37500, -39.59567
  3588, 30.00000, -4.15625, -40.94884
  3589, 30.00000, -4.93750, -42.30200
  3590, 30.00000, -5.71875, -43.65517
  3591, 30.00000, -6.50000, -45.00833
  3592, 30.00000, -0.17101, -34.21985
  3593, 30.00000, -0.70542, -35.68812
  3594, 30.00000, -1.23982, -37.15639
  3595, 30.00000, -1.77423, -38.62466
  3596, 30.00000, -2.30864, -40.09293
  3597, 30.00000, -2.84304, -41.56119
  3598, 30.00000, -3.37745, -43.02946
  3599, 30.00000, -3.91186, -44.49773
  3600, 30.00000, -4.44626, -45.96600
  3601, 30.00000, -0.08682, -34.24240
  3602, 30.00000, -0.35815, -35.78117
  3603, 30.00000, -0.62947, -37.31993
  3604, 30.00000, -0.90080, -38.85869
  3605, 30.00000, -1.17213, -40.39745
  3606, 30.00000, -1.44345, -41.93621
  3607, 30.00000, -1.71478, -43.47498
  3608, 30.00000, -1.98610, -45.01374
  3609, 30.00000, -2.25743, -46.55250
  3610, 30.00000, -0.00000, -34.25000
  3611, 30.00000, -0.00000, -35.81250
  3612, 30.00000, -0.00000, -37.37500
  3613, 30.00000, -0.00000, -38.93750
  3614, 30.00000, -0.00000, -40.50000
  3615, 30.00000, -0.00000, -42.06250
  3616, 30.00000, -0.00000, -43.62500
  3617, 30.00000, -0.00000, -45.18750
  3618, 30.00000, -0.00000, -46.75000
  3619, 30.00000, 0.08682, -34.24240
  3620, 30.00000, 0.35815, -35.78117
  3621, 30.00000, 0.62947, -37.31993
  3622, 30.00000, 0.90080, -38.85869
  3623, 30.00000, 1.17213, -40.39745
  3624, 30.00000, 1.44345, -41.93621
  3625, 30.00000, 1.71478, -43.47498
  3626, 30.00000, 1.98610, -45.01374
  3627, 30.00000, 2.25743, -46.55250
  3628, 30.00000, 0.17101, -34.21985
  3629, 30.00000, 0.70542, -35.68812
  3630, 30.00000, 1.23982, -37.15639
  3631, 30.00000, 1.77423, -38.62466
  3632, 30.00000, 2.30864, -40.09293
  3633, 30.00000, 2.84304, -41.56119
  3634, 30.00000, 3.37745, -43.02946
  3635, 30.00000, 3.91186, -44.49773
  3636, 30.00000, 4.44626, -45.96600
  3637, 30.00000, 0.25000, -34.18301
  3638, 30.00000, 1.03125, -35.53618
  3639, 30.00000, 1.81250, -36.88934
  3640, 30.00000, 2.59375, -38.24251
  3641, 30.00000, 3.37500, -39.59567
  3642, 30.00000, 4.15625, -40.94884
  3643, 30.00000, 4.93750, -42.30200
  3644, 30.00000, 5.71875, -43.65517
  3645, 30.00000, 6.50000, -45.00833
  3646, 30.00000, 0.32139, -34.13302
  3647, 30.00000, 1.32575, -35.32997
  3648, 30.00000, 2.33011, -36.52691
  3649, 30.00000, 3.33446, -37.72386
  3650, 30.00000, 4.33882, -38.92080
  3651, 30.00000, 5.34317, -40.11774
  3652, 30.00000, 6.34753, -41.31469
  3653, 30.00000, 7.35188, -42.51163
  3654, 30.00000, 8.35624, -43.70858
  3655, 30.00000, 0.38302, -34.07139
  3656, 30.00000, 1.57997, -35.07575
  3657, 30.00000, 2.77691, -36.08011
  3658, 30.00000, 3.97386, -37.08446
  3659, 30.00000, 5.17080, -38.08882
  3660, 30.00000, 6.36774, -39.09317
  3661, 30.00000, 7.56469, -40.09753
  3662, 30.00000, 8.76163, -41.10188
  3663, 30.00000, 9.95858, -42.10624
  3664, 30.00000, 0.43301, -34.00000
  3665, 30.00000, 1.78618, -34.78125
  3666, 30.00000, 3.13934, -35.56250
  3667, 30.00000, 4.49251, -36.34375
  3668, 30.00000, 5.84567, -37.12500
  3669, 30.00000, 7.19884, -37.90625
  3670, 30.00000, 8.55200, -38.68750
  3671, 30.00000, 9.90517, -39.46875
  3672, 30.00000, 11.25833, -40.25000
  3673, 30.00000, 0.46985, -33.92101
  3674, 30.00000, 1.93812, -34.45542
  3675, 30.00000, 3.40639, -34.98982
  3676, 30.00000, 4.87466, -35.52423
  3677, 30.00000, 6.34293, -36.05864
  3678, 30.00000, 7.81119, -36.59304
  3679, 30.00000, 9.27946, -37.12745
  3680, 30.00000, 10.74773, -37.66186
  3681, 30.00000, 12.21600, -38.19626
  3682, 30.00000, 0.49240, -33.83682
  3683, 30.00000, 2.03117, -34.10815
  3684, 30.00000, 3.56993, -34.37947
  3685, 30.00000, 5.10869, -34.65080
  3686, 30.00000, 6.64745, -34.92213
  3687, 30.00000, 8.18621, -35.19345
  3688, 30.00000, 9.72498, -35.46478
  3689, 30.00000, 11.26374, -35.73610
  3690, 30.00000, 12.80250, -36.00743
  3691, 30.00000, 0.50000, -33.75000
  3692, 30.00000, 2.06250, -33.75000
  3693, 30.00000, 3.62500, -33.75000
  3694, 30.00000, 5.18750, -33.75000
  3695, 30.00000, 6.75000, -33.75000
  3696, 30.00000, 8.31250, -33.75000
  3697, 30.00000, 9.87500, -33.75000
  3698, 30.00000, 11.43750, -33.75000
  3699, 30.00000, 13.00000, -33.75000
  3700, 35.00000, 0.50000, -33.75000
  3701, 35.00000, 2.06250, -33.75000
  3702, 35.00000, 3.62500, -33.75000
  3703, 35.00000, 5.18750, -33.75000
  3704, 35.00000, 6.75000, -33.75000
  3705, 35.00000, 8.31250, -33.75000
  3706, 35.00000, 9.87500, -33.75000
  3707, 35.00000, 11.43750, -33.75000
  3708, 35.00000, 13.00000, -33.75000
  3709, 35.00000, 0.49240, -33.66318
  3710, 35.00000, 2.03117, -33.39185
  3711, 35.00000, 3.56993, -33.12053
  3712, 35.00000, 5.10869, -32.84920
  3713, 35.00000, 6.64745, -32.57787
  3714, 35.00000, 8.18621, -32.30655
  3715, 35.00000, 9.72498, -32.03522
  3716, 35.00000, 11.26374, -31.76390
  3717, 35.00000, 12.80250, -31.49257
  3718, 35.00000, 0.46985, -33.57899
  3719, 35.00000, 1.93812, -33.04458
  3720, 35.00000, 3.40639, -32.51018
  3721, 35.00000, 4.87466, -31.97577
  3722, 35.00000, 6.34293, -31.44136
  3723, 35.00000, 7.81119, -30.90696
  3724, 35.00000, 9.27946, -30.37255
  3725, 35.00000, 10.74773, -29.83814
  3726, 35.00000, 12.21600, -29.30374
  3727, 35.00000, 0.43301, -33.50000
  3728, 35.00000, 1.78618, -32.71875
  3729, 35.00000, 3.13934, -31.93750
  3730, 35.00000, 4.49251, -31.15625
  3731, 35.00000, 5.84567, -30.37500
  3732, 35.00000, 7.19884, -29.59375
  3733, 35.00000, 8.55200, -28.81250
  3734, 35.00000, 9.90517, -28.03125
  3735, 35.00000, 11.25833, -27.25000
  3736, 35.00000, 0.38302, -33.42861
  3737, 35.00000, 1.57997, -32.42425
  3738, 35.00000, 2.77691, -31.41989
  3739, 35.00000, 3.97386, -30.41554
  3740, 35.00000, 5.17080, -29.41118
  3741, 35.00000, 6.36774, -28.40683
  3742, 35.00000, 7.56469, -27.40247
  3743, 35.00000, 8.76163, -26.39812
  3744, 35.00000, 9.95858, -25.39376
  3745, 35.00000, 0.32139, -33.36698
  3746, 35.00000, 1.32575, -32.17003
  3747, 35.00000, 2.33011, -30.97309
  3748, 35.00000, 3.33446, -29.77614
  3749, 35.00000, 4.33882, -28.57920
  3750, 35.00000, 5.34317, -27.38226
  3751, 35.00000, 6.34753, -26.18531
  3752, 35.00000, 7.35188, -24.98837
  3753, 35.00000, 8.35624, -23.79142
  3754, 35.00000, 0.25000, -33.31699
  3755, 35.00000, 1.03125, -31.96382
  3756, 35.00000, 1.81250, -30.61066
  3757, 35.00000, 2.59375, -29.25749
  3758, 35.00000, 3.37500, -27.90433
  3759, 35.00000, 4.15625, -26.55116
  3760, 35.00000, 4.93750, -25.19800
  3761, 35.00000, 5.71875, -23.84483
  3762, 35.00000, 6.50000, -22.49167
  3763, 35.00000, 0.17101, -33.28015
  3764, 35.00000, 0.70542, -31.81188
  3765, 35.00000, 1.23982, -30.34361
  3766, 35.00000, 1.77423, -28.87534
  3767, 35.00000, 2.30864, -27.40707
  3768, 35.00000, 2.84304, -25.93881
  3769, 35.00000, 3.37745, -24.47054
  3770, 35.00000, 3.91186, -23.00227
  3771, 35.00000, 4.44626, -21.53400
  3772, 35.00000, 0.08682, -33.25760
  3773, 35.00000, 0.35815, -31.71883
  3774, 35.00000, 0.62947, -30.18007
  3775, 35.00000, 0.90080, -28.64131
  3776, 35.00000, 1.17213, -27.10255
  3777, 35.00000, 1.44345, -25.56379
  3778, 35.00000, 1.71478, -24.02502
  3779, 35.00000, 1.98610, -22.48626
  3780, 35.00000, 2.25743, -20.94750
  3781, 35.00000, 0.00000, -33.25000
  3782, 35.00000, 0.00000, -31.68750
  3783, 35.00000, 0.00000, -30.12500
  3784, 35.00000, 0.00000, -28.56250
  3785, 35.00000, 0.00000, -27.00000
  3786, 35.00000, 0.00000, -25.43750
  3787, 35.00000, 0.00000, -23.87500
  3788, 35.00000, 0.00000, -22.31250
  3789, 35.00000, 0.00000, -20.75000
  3790, 35.00000, -0.08682, -33.25760
  3791, 35.00000, -0.35815, -31.71883
  3792, 35.00000, -0.62947, -30.18007
  3793, 35.00000, -0.90080, -28.64131
  3794, 35.00000, -1.17213, -27.10255
  3795, 35.00000, -1.44345, -25.56379
  3796, 35.00000, -1.71478, -24.02502
  3797, 35.00000, -1.98610, -22.48626
  3798, 35.00000, -2.25743, -20.94750
  3799, 35.00000, -0.17101, -33.28015
  3800, 35.00000, -0.70542, -31.81188
  3801, 35.00000, -1.23982, -30.34361
  3802, 35.00000, -1.77423, -28.87534
  3803, 35.00000, -2.30864, -27.40707
  3804, 35.00000, -2.84304, -25.93881
  3805, 35.00000, -3.37745, -24.47054
  3806, 35.00000, -3.91186, -23.00227
  3807, 35.00000, -4.44626, -21.53400
  3808, 35.00000, -0.25000, -33.31699
  3809, 35.00000, -1.03125, -31.96382
  3810, 35.00000, -1.81250, -30.61066
  3811, 35.00000, -2.59375, -29.25749
  3812, 35.00000, -3.37500, -27.90433
  3813, 35.00000, -4.15625, -26.55116
  3814, 35.00000, -4.93750, -25.19800
  3815, 35.00000, -5.71875, -23.84483
  3816, 35.00000, -6.50000, -22.49167
  3817, 35.00000, -0.32139, -33.36698
  3818, 35.00000, -1.32575, -32.17003
  3819, 35.00000, -2.33011, -30.97309
  3820, 35.00000, -3.33446, -29.77614
  3821, 35.00000, -4.33882, -28.57920
  3822, 35.00000, -5.34317, -27.38226
  3823, 35.00000, -6.34753, -26.18531
  3824, 35.00000, -7.35188, -24.98837
  3825, 35.00000, -8.35624, -23.79142
  3826, 35.00000, -0.38302, -33.42861
  3827, 35.00000, -1.57997, -32.42425
  3828, 35.00000, -2.77691, -31.41989
  3829, 35.00000, -3.97386, -30.41554
  3830, 35.00000, -5.17080, -29.41118
  3831, 35.00000, -6.36774, -28.40683
  3832, 35.00000, -7.56469, -27.40247
  3833, 35.00000, -8.76163, -26.39812
  3834, 35.00000, -9.95858, -25.39376
  3835, 35.00000, -0.43301, -33.50000
  3836, 35.00000, -1.78618, -32.71875
  3837, 35.00000, -3.13934, -31.93750
  3838, 35.00000, -4.49251, -31.15625
  3839, 35.00000, -5.84567, -30.37500
  3840, 35.00000, -7.19884, -29.59375
  3841, 35.00000, -8.55200, -28.81250
  3842, 35.00000, -9.90517, -28.03125
  3843, 35.00000, -11.25833, -27.25000
  3844, 35.00000, -0.46985, -33.57899
  3845, 35.00000, -1.93812, -33.04458
  3846, 35.00000, -3.40639, -32.51018
  3847, 35.00000, -4.87466, -31.97577
  3848, 35.00000, -6.34293, -31.44136
  3849, 35.00000, -7.81119, -30.90696
  3850, 35.00000, -9.27946, -30.37255
  3851, 35.00000, -10.74773, -29.83814
  3852, 35.00000, -12.21600, -29.30374
  3853, 35.00000, -0.49240, -33.66318
  3854, 35.00000, -2.03117, -33.39185
  3855, 35.00000, -3.56993, -33.12053
  3856, 35.00000, -5.10869, -32.84920
  3857, 35.00000, -6.64745, -32.57787
  3858, 35.00000, -8.18621, -32.30655
  3859, 35.00000, -9.72498, -32.03522
  3860, 35.00000, -11.26374, -31.76390
  3861, 35.00000, -12.80250, -31.49257
  3862, 35.00000, -0.50000, -33.75000
  3863, 35.00000, -2.06250, -33.75000
  3864, 35.00000, -3.62500, -33.75000
  3865, 35.00000, -5.18750, -33.75000
  3866, 35.00000, -6.75000, -33.75000
  3867, 35.00000, -8.31250, -33.75000
  3868, 35.00000, -9.87500, -33.75000
  3869, 35.00000, -11.43750, -33.75000
  3870, 35.00000, -13.00000, -33.75000
  3871, 35.00000, -0.49240, -33.83682
  3872, 35.00000, -2.03117, -34.10815
  3873, 35.00000, -3.56993, -34.37947
  3874, 35.00000, -5.10869, -34.65080
  3875, 35.00000, -6.64745, -34.92213
  3876, 35.00000, -8.18621, -35.19345
  3877, 35.00000, -9.72498, -35.46478
  3878, 35.00000, -11.26374, -35.73610
  3879, 35.00000, -12.80250, -36.00743
  3880, 35.00000, -0.46985, -33.92101
  3881, 35.00000, -1.93812, -34.45542
  3882, 35.00000, -3.40639, -34.98982
  3883, 35.00000, -4.87466, -35.52423
  3884, 35.00000, -6.34293, -36.05864
  3885, 35.00000, -7.81119, -36.59304
  3886, 35.00000, -9.27946, -37.12745
  3887, 35.00000, -10.74773, -37.66186
  3888, 35.00000, -12.21600, -38.19626
  3889, 35.00000, -0.43301, -34.00000
  3890, 35.00000, -1.78618, -34.78125
  3891, 35.00000, -3.13934, -35.56250
  3892, 35.00000, -4.49251, -36.34375
  3893, 35.00000, -5.84567, -37.12500
  3894, 35.00000, -7.19884, -37.90625
  3895, 35.00000, -8.55200, -38.68750
  3896, 35.00000, -9.90517, -39.46875
  3897, 35.00000, -11.25833, -40.25000
  3898, 35.00000, -0.38302, -34.07139
  3899, 35.00000, -1.57997, -35.07575
  3900, 35.00000, -2.77691, -36.08011
  3901, 35.00000, -3.97386, -37.08446
  3902, 35.00000, -5.17080, -38.08882
  3903, 35.00000, -6.36774, -39.09317
  3904, 35.00000, -7.56469, -40.09753
  3905, 35.00000, -8.76163, -41.10188
  3906, 35.00000, -9.95858, -42.10624
  3907, 35.00000, -0.32139, -34.13302
  3908, 35.00000, -1.32575, -35.32997
  3909, 35.00000, -2.33011, -36.52691
  3910, 35.00000, -3.33446, -37.72386
  3911, 35.00000, -4.33882, -38.92080
  3912, 35.00000, -5.34317, -40.11774
  3913, 35.00000, -6.34753, -41.31469
  3914, 35.00000, -7.35188, -42.51163
  3915, 35.00000, -8.35624, -43.70858
  3916, 35.00000, -0.25000, -34.18301
  3917, 35.00000, -1.03125, -35.53618
  3918, 35.00000, -1.81250, -36.88934
  3919, 35.00000, -2.59375, -38.24251
  3920, 35.00000, -3.37500, -39.59567
  3921, 35.00000, -4.15625, -40.94884
  3922, 35.00000, -4.93750, -42.30200
  3923, 35.00000, -5.71875, -43.65517
  3924, 35.00000, -6.50000, -45.00833
  3925, 35.00000, -0.17101, -34.21985
  3926, 35.00000, -0.70542, -35.68812
  3927, 35.00000, -1.23982, -37.15639
  3928, 35.00000, -1.77423, -38.62466
  3929, 35.00000, -2.30864, -40.09293
  3930, 35.00000, -2.84304, -41.56119
  3931, 35.00000, -3.37745, -43.02946
  3932, 35.00000, -3.91186, -44.49773
  3933, 35.00000, -4.44626, -45.96600
  3934, 35.00000, -0.08682, -34.24240
  3935, 35.00000, -0.35815, -35.78117
  3936, 35.00000, -0.62947, -37.31993
  3937, 35.00000, -0.90080, -38.85869
  3938, 35.00000, -1.17213, -40.39745
  3939, 35.00000, -1.44345, -41.93621
  3940, 35.00000, -1.71478, -43.47498
  3941, 35.00000, -1.98610, -45.01374
  3942, 35.00000, -2.25743, -46.55250
  3943, 35.00000, -0.00000, -34.25000
  3944, 35.00000, -0.00000, -35.81250
  3945, 35.00000, -0.00000, -37.37500
  3946, 35.00000, -0.00000, -38.93750
  3947, 35.00000, -0.00000, -40.50000
  3948, 35.00000, -0.00000, -42.06250
  3949, 35.00000, -0.00000, -43.62500
  3950, 35.00000, -0.00000, -45.18750
  3951, 35.00000, -0.00000, -46.75000
  3952, 35.00000, 0.08682, -34.24240
  3953, 35.00000, 0.35815, -35.78117
  3954, 35.00000, 0.62947, -37.31993
  3955, 35.00000, 0.90080, -38.85869
  3956, 35.00000, 1.17213, -40.39745
  3957, 35.00000, 1.44345, -41.93621
  3958, 35.00000, 1.71478, -43.47498
  3959, 35.00000, 1.98610, -45.01374
  3960, 35.00000, 2.25743, -46.55250
  3961, 35.00000, 0.17101, -34.21985
  3962, 35.00000, 0.70542, -35.68812
  3963, 35.00000, 1.23982, -37.15639
  3964, 35.00000, 1.77423, -38.62466
  3965, 35.00000, 2.30864, -40.09293
  3966, 35.00000, 2.84304, -41.56119
  3967, 35.00000, 3.37745, -43.02946
  3968, 35.00000, 3.91186, -44.49773
  3969, 35.00000, 4.44626, -45.96600
  3970, 35.00000, 0.25000, -34.18301
  3971, 35.00000, 1.03125, -35.53618
  3972, 35.00000, 1.81250, -36.88934
  3973, 35.00000, 2.59375, -38.24251
  3974, 35.00000, 3.37500, -39.59567
  3975, 35.00000, 4.15625, -40.94884
  3976, 35.00000, 4.93750, -42.30200
  3977, 35.00000, 5.71875, -43.65517
  3978, 35.00000, 6.50000, -45.00833
  3979, 35.00000, 0.32139, -34.13302
  3980, 35.00000, 1.32575, -35.32997
  3981, 35.00000, 2.33011, -36.52691
  3982, 35.00000, 3.33446, -37.72386
  3983, 35.00000, 4.33882, -38.92080
  3984, 35.00000, 5.34317, -40.11774
  3985, 35.00000, 6.34753, -41.31469
  3986, 35.00000, 7.35188, -42.51163
  3987, 35.00000, 8.35624, -43.70858
  3988, 35.00000, 0.38302, -34.07139
  3989, 35.00000, 1.57997, -35.07575
  3990, 35.00000, 2.77691, -36.08011
  3991, 35.00000, 3.97386, -37.08446
  3992, 35.00000, 5.17080, -38.08882
  3993, 35.00000, 6.36774, -39.09317
  3994, 35.00000, 7.56469, -40.09753
  3995, 35.00000, 8.76163, -41.10188
  3996, 35.00000, 9.95858, -42.10624
  3997, 35.00000, 0.43301, -34.00000
  3998, 35.00000, 1.78618, -34.78125
  3999, 35.00000, 3.13934, -35.56250
  4000, 35.00000, 4.49251, -36.34375
  4001, 35.00000, 5.84567, -37.12500
  4002, 35.00000, 7.19884, -37.90625
  4003, 35.00000, 8.55200, -38.68750
  4004, 35.00000, 9.90517, -39.46875
  4005, 35.00000, 11.25833, -40.25000
  4006, 35.00000, 0.46985, -33.92101
  4007, 35.00000, 1.93812, -34.45542
  4008, 35.00000, 3.40639, -34.98982
  4009, 35.00000, 4.87466, -35.52423
  4010, 35.00000, 6.34293, -36.05864
  4011, 35.00000, 7.81119, -36.59304
  4012, 35.00000, 9.27946, -37.12745
  4013, 35.00000, 10.74773, -37.66186
  4014, 35.00000, 12.21600, -38.19626
  4015, 35.00000, 0.49240, -33.83682
  4016, 35.00000, 2.03117, -34.10815
  4017, 35.00000, 3.56993, -34.37947
  4018, 35.00000, 5.10869, -34.65080
  4019, 35.00000, 6.64745, -34.92213
  4020, 35.00000, 8.18621, -35.19345
  4021, 35.00000, 9.72498, -35.46478
  4022, 35.00000, 11.26374, -35.73610
  4023, 35.00000, 12.80250, -36.00743
  4024, 35.00000, 0.50000, -33.75000
  4025, 35.00000, 2.06250, -33.75000
  4026, 35.00000, 3.62500, -33.75000
  4027, 35.00000, 5.18750, -33.75000
  4028, 35.00000, 6.75000, -33.75000
  4029, 35.00000, 8.31250, -33.75000
  4030, 35.00000, 9.87500, -33.75000
  4031, 35.00000, 11.43750, -33.75000
  4032, 35.00000, 13.00000, -33.75000
  4033, 40.00000, 0.50000, -33.75000
  4034, 40.00000, 2.06250, -33.75000
  4035, 40.00000, 3.62500, -33.75000
  4036, 40.00000, 5.18750, -33.75000
  4037, 40.00000, 6.75000, -33.75000
  4038, 40.00000, 8.31250, -33.75000
  4039, 40.00000, 9.87500, -33.75000
  4040, 40.00000, 11.43750, -33.75000
  4041, 40.00000, 13.00000, -33.75000
  4042, 40.00000, 0.49240, -33.66318
  4043, 40.00000, 2.03117, -33.39185
  4044, 40.00000, 3.56993, -33.12053
  4045, 40.00000, 5.10869, -32.84920
  4046, 40.00000, 6.64745, -32.57787
  4047, 40.00000, 8.18621, -32.30655
  4048, 40.00000, 9.72498, -32.03522
  4049, 40.00000, 11.26374, -31.76390
  4050, 40.00000, 12.80250, -31.49257
  4051, 40.00000, 0.46985, -33.57899
  4052, 40.00000, 1.93812, -33.04458
  4053, 40.00000, 3.40639, -32.51018
  4054, 40.00000, 4.87466, -31.97577
  4055, 40.00000, 6.34293, -31.44136
  4056, 40.00000, 7.81119, -30.90696
  4057, 40.00000, 9.27946, -30.37255
  4058, 40.00000, 10.74773, -29.83814
  4059, 40.00000, 12.21600, -29.30374
  4060, 40.00000, 0.43301, -33.50000
  4061, 40.00000, 1.78618, -32.71875
  4062, 40.00000, 3.13934, -31.93750
  4063, 40.00000, 4.49251, -31.15625
  4064, 40.00000, 5.84567, -30.37500
  4065, 40.00000, 7.19884, -29.59375
  4066, 40.00000, 8.55200, -28.81250
  4067, 40.00000, 9.90517, -28.03125
  4068, 40.00000, 11.25833, -27.25000
  4069, 40.00000, 0.38302, -33.42861
  4070, 40.00000, 1.57997, -32.42425
  4071, 40.00000, 2.77691, -31.41989
  4072, 40.00000, 3.97386, -30.41554
  4073, 40.00000, 5.17080, -29.41118
  4074, 40.00000, 6.36774, -28.40683
  4075, 40.00000, 7.56469, -27.40247
  4076, 40.00000, 8.76163, -26.39812
  4077, 40.00000, 9.95858, -25.39376
  4078, 40.00000, 0.32139, -33.36698
  4079, 40.00000, 1.32575, -32.17003
  4080, 40.00000, 2.33011, -30.97309
  4081, 40.00000, 3.33446, -29.77614
  4082, 40.00000, 4.33882, -28.57920
  4083, 40.00000, 5.34317, -27.38226
  4084, 40.00000, 6.34753, -26.18531
  4085, 40.00000, 7.35188, -24.98837
  4086, 40.00000, 8.35624, -23.79142
  4087, 40.00000, 0.25000, -33.31699
  4088, 40.00000, 1.03125, -31.96382
  4089, 40.00000, 1.81250, -30.61066
  4090, 40.00000, 2.59375, -29.25749
  4091, 40.00000, 3.37500, -27.90433
  4092, 40.00000, 4.15625, -26.55116
  4093, 40.00000, 4.93750, -25.19800
  4094, 40.00000, 5.71875, -23.84483
  4095, 40.00000, 6.50000, -22.49167
  4096, 40.00000, 0.17101, -33.28015
  4097, 40.00000, 0.70542, -31.81188
  4098, 40.00000, 1.23982, -30.34361
  4099, 40.00000, 1.77423, -28.87534
  4100, 40.00000, 2.30864, -27.40707
  4101, 40.00000, 2.84304, -25.93881
  4102, 40.00000, 3.37745, -24.47054
  4103, 40.00000, 3.91186, -23.00227
  4104, 40.00000, 4.44626, -21.53400
  4105, 40.00000, 0.08682, -33.25760
  4106, 40.00000, 0.35815, -31.71883
  4107, 40.00000, 0.62947, -30.18007
  4108, 40.00000, 0.90080, -28.64131
  4109, 40.00000, 1.17213, -27.10255
  4110, 40.00000, 1.44345, -25.56379
  4111, 40.00000, 1.71478, -24.02502
  4112, 40.00000, 1.98610, -22.48626
  4113, 40.00000, 2.25743, -20.94750
  4114, 40.00000, 0.00000, -33.25000
  4115, 40.00000, 0.00000, -31.68750
  4116, 40.00000, 0.00000, -30.12500
  4117, 40.00000, 0.00000, -28.56250
  4118, 40.00000, 0.00000, -27.00000
  4119, 40.00000, 0.00000, -25.43750
  4120, 40.00000, 0.00000, -23.87500
  4121, 40.00000, 0.00000, -22.31250
  4122, 40.00000, 0.00000, -20.75000
  4123, 40.00000, -0.08682, -33.25760
  4124, 40.00000, -0.35815, -31.71883
  4125, 40.00000, -0.62947, -30.18007
  4126, 40.00000, -0.90080, -28.64131
  4127, 40.00000, -1.17213, -27.10255
  4128, 40.00000, -1.44345, -25.56379
  4129, 40.00000, -1.71478, -24.02502
  4130, 40.00000, -1.98610, -22.48626
  4131, 40.00000, -2.25743, -20.94750
  4132, 40.00000, -0.17101, -33.28015
  4133, 40.00000, -0.70542, -31.81188
  4134, 40.00000, -1.23982, -30.34361
  4135, 40.00000, -1.77423, -28.87534
  4136, 40.00000, -2.30864, -27.40707
  4137, 40.00000, -2.84304, -25.93881
  4138, 40.00000, -3.37745, -24.47054
  4139, 40.00000, -3.91186, -23.00227
  4140, 40.00000, -4.44626, -21.53400
  4141, 40.00000, -0.25000, -33.31699
  4142, 40.00000, -1.03125, -31.96382
  4143, 40.00000, -1.81250, -30.61066
  4144, 40.00000, -2.59375, -29.25749
  4145, 40.00000, -3.37500, -27.90433
  4146, 40.00000, -4.15625, -26.55116
  4147, 40.00000, -4.93750, -25.19800
  4148, 40.00000, -5.71875, -23.84483
  4149, 40.00000, -6.50000, -22.49167
  4150, 40.00000, -0.32139, -33.36698
  4151, 40.00000, -1.32575, -32.17003
  4152, 40.00000, -2.33011, -30.97309
  4153, 40.00000, -3.33446, -29.77614
  4154, 40.00000, -4.33882, -28.57920
  4155, 40.00000, -5.34317, -27.38226
  4156, 40.00000, -6.34753, -26.18531
  4157, 40.00000, -7.35188, -24.98837
  4158, 40.00000, -8.35624, -23.79142
  4159, 40.00000, -0.38302, -33.42861
  4160, 40.00000, -1.57997, -32.42425
  4161, 40.00000, -2.77691, -31.41989
  4162, 40.00000, -3.97386, -30.41554
  4163, 40.00000, -5.17080, -29.41118
  4164, 40.00000, -6.36774, -28.40683
  4165, 40.00000, -7.56469, -27.40247
  4166, 40.00000, -8.76163, -26.39812
  4167, 40.00000, -9.95858, -25.39376
  4168, 40.00000, -0.43301, -33.50000
  4169, 40.00000, -1.78618, -32.71875
  4170, 40.00000, -3.13934, -31.93750
  4171, 40.00000, -4.49251, -31.15625
  4172, 40.00000, -5.84567, -30.37500
  4173, 40.00000, -7.19884, -29.59375
  4174, 40.00000, -8.55200, -28.81250
  4175, 40.00000, -9.90517, -28.03125
  4176, 40.00000, -11.25833, -27.25000
  4177, 40.00000, -0.46985, -33.57899
  4178, 40.00000, -1.93812, -33.04458
  4179, 40.00000, -3.40639, -32.51018
  4180, 40.00000, -4.87466, -31.97577
  4181, 40.00000, -6.34293, -31.44136
  4182, 40.00000, -7.81119, -30.90696
  4183, 40.00000, -9.27946, -30.37255
  4184, 40.00000, -10.74773, -29.83814
  4185, 40.00000, -12.21600, -29.30374
  4186, 40.00000, -0.49240, -33.66318
  4187, 40.00000, -2.03117, -33.39185
  4188, 40.00000, -3.56993, -33.12053
  4189, 40.00000, -5.10869, -32.84920
  4190, 40.00000, -6.64745, -32.57787
  4191, 40.00000, -8.18621, -32.30655
  4192, 40.00000, -9.72498, -32.03522
  4193, 40.00000, -11.26374, -31.76390
  4194, 40.00000, -12.80250, -31.49257
  4195, 40.00000, -0.50000, -33.75000
  4196, 40.00000, -2.06250, -33.75000
  4197, 40.00000, -3.62500, -33.75000
  4198, 40.00000, -5.18750, -33.75000
  4199, 40.00000, -6.75000, -33.75000
  4200, 40.00000, -8.31250, -33.75000
  4201, 40.00000, -9.87500, -33.75000
  4202, 40.00000, -11.43750, -33.75000
  4203, 40.00000, -13.00000, -33.75000
  4204, 40.00000, -0.49240, -33.83682
  4205, 40.00000, -2.03117, -34.10815
  4206, 40.00000, -3.56993, -34.37947
  4207, 40.00000, -5.10869, -34.65080
  4208, 40.00000, -6.64745, -34.92213
  4209, 40.00000, -8.18621, -35.19345
  4210, 40.00000, -9.72498, -35.46478
  4211, 40.00000, -11.26374, -35.73610
  4212, 40.00000, -12.80250, -36.00743
  4213, 40.00000, -0.46985, -33.92101
  4214, 40.00000, -1.93812, -34.45542
  4215, 40.00000, -3.40639, -34.98982
  4216, 40.00000, -4.87466, -35.52423
  4217, 40.00000, -6.34293, -36.05864
  4218, 40.00000, -7.81119, -36.59304
  4219, 40.00000, -9.27946, -37.12745
  4220, 40.00000, -10.74773, -37.66186
  4221, 40.00000, -12.21600, -38.19626
  4222, 40.00000, -0.43301, -34.00000
  4223, 40.00000, -1.78618, -34.78125
  4224, 40.00000, -3.13934, -35.56250
  4225, 40.00000, -4.49251, -36.34375
  4226, 40.00000, -5.84567, -37.12500
  4227, 40.00000, -7.19884, -37.90625
  4228, 40.00000, -8.55200, -38.68750
  4229, 40.00000, -9.90517, -39.46875
  4230, 40.00000, -11.25833, -40.25000
  4231, 40.00000, -0.38302, -34.07139
  4232, 40.00000, -1.57997, -35.07575
  4233, 40.00000, -2.77691, -36.08011
  4234, 40.00000, -3.97386, -37.08446
  4235, 40.00000, -5.17080, -38.08882
  4236, 40.00000, -6.36774, -39.09317
  4237, 40.00000, -7.56469, -40.09753
  4238, 40.00000, -8.76163, -41.10188
  4239, 40.00000, -9.95858, -42.10624
  4240, 40.00000, -0.32139, -34.13302
  4241, 40.00000, -1.32575, -35.32997
  4242, 40.00000, -2.33011, -36.52691
  4243, 40.00000, -3.33446, -37.72386
  4244, 40.00000, -4.33882, -38.92080
  4245, 40.00000, -5.34317, -40.11774
  4246, 40.00000, -6.34753, -41.31469
  4247, 40.00000, -7.35188, -42.51163
  4248, 40.00000, -8.35624, -43.70858
  4249, 40.00000, -0.25000, -34.18301
  4250, 40.00000, -1.03125, -35.53618
  4251, 40.00000, -1.81250, -36.88934
  4252, 40.00000, -2.59375, -38.24251
  4253, 40.00000, -3.37500, -39.59567
  4254, 40.00000, -4.15625, -40.94884
  4255, 40.00000, -4.93750, -42.30200
  4256, 40.00000, -5.71875, -43.65517
  4257, 40.00000, -6.50000, -45.00833
  4258, 40.00000, -0.17101, -34.21985
  4259, 40.00000, -0.70542, -35.68812
  4260, 40.00000, -1.23982, -37.15639
  4261, 40.00000, -1.77423, -38.62466
  4262, 40.00000, -2.30864, -40.09293
  4263, 40.00000, -2.84304, -41.56119
  4264, 40.00000, -3.37745, -43.02946
  4265, 40.00000, -3.91186, -44.49773
  4266, 40.00000, -4.44626, -45.96600
  4267, 40.00000, -0.08682, -34.24240
  4268, 40.00000, -0.35815, -35.78117
  4269, 40.00000, -0.62947, -37.31993
  4270, 40.00000, -0.90080, -38.85869
  4271, 40.00000, -1.17213, -40.39745
  4272, 40.00000, -1.44345, -41.93621
  4273, 40.00000, -1.71478, -43.47498
  4274, 40.00000, -1.98610, -45.01374
  4275, 40.00000, -2.25743, -46.55250
  4276, 40.00000, -0.00000, -34.25000
  4277, 40.00000, -0.00000, -35.81250
  4278, 40.00000, -0.00000, -37.37500
  4279, 40.00000, -0.00000, -38.93750
  4280, 40.00000, -0.00000, -40.50000
  4281, 40.00000, -0.00000, -42.06250
  4282, 40.00000, -0.00000, -43.62500
  4283, 40.00000, -0.00000, -45.18750
  4284, 40.00000, -0.00000, -46.75000
  4285, 40.00000, 0.08682, -34.24240
  4286, 40.00000, 0.35815, -35.78117
  4287, 40.00000, 0.62947, -37.31993
  4288, 40.00000, 0.90080, -38.85869
  4289, 40.00000, 1.17213, -40.39745
  4290, 40.00000, 1.44345, -41.93621
  4291, 40.00000, 1.71478, -43.47498
  4292, 40.00000, 1.98610, -45.01374
  4293, 40.00000, 2.25743, -46.55250
  4294, 40.00000, 0.17101, -34.21985
  4295, 40.00000, 0.70542, -35.68812
  4296, 40.00000, 1.23982, -37.15639
  4297, 40.00000, 1.77423, -38.62466
  4298, 40.00000, 2.30864, -40.09293
  4299, 40.00000, 2.84304, -41.56119
  4300, 40.00000, 3.37745, -43.02946
  4301, 40.00000, 3.91186, -44.49773
  4302, 40.00000, 4.44626, -45.96600
  4303, 40.00000, 0.25000, -34.18301
  4304, 40.00000, 1.03125, -35.53618
  4305, 40.00000, 1.81250, -36.88934
  4306, 40.00000, 2.59375, -38.24251
  4307, 40.00000, 3.37500, -39.59567
  4308, 40.00000, 4.15625, -40.94884
  4309, 40.00000, 4.93750, -42.30200
  4310, 40.00000, 5.71875, -43.65517
  4311, 40.00000, 6.50000, -45.00833
  4312, 40.00000, 0.32139, -34.13302
  4313, 40.00000, 1.32575, -35.32997
  4314, 40.00000, 2.33011, -36.52691
  4315, 40.00000, 3.33446, -37.72386
  4316, 40.00000, 4.33882, -38.92080
  4317, 40.00000, 5.34317, -40.11774
  4318, 40.00000, 6.34753, -41.31469
  4319, 40.00000, 7.35188, -42.51163
  4320, 40.00000, 8.35624, -43.70858
  4321, 40.00000, 0.38302, -34.07139
  4322, 40.00000, 1.57997, -35.07575
  4323, 40.00000, 2.77691, -36.08011
  4324, 40.00000, 3.97386, -37.08446
  4325, 40.00000, 5.17080, -38.08882
  4326, 40.00000, 6.36774, -39.09317
  4327, 40.00000, 7.56469, -40.09753
  4328, 40.00000, 8.76163, -41.10188
  4329, 40.00000, 9.95858, -42.10624
  4330, 40.00000, 0.43301, -34.00000
  4331, 40.00000, 1.78618, -34.78125
  4332, 40.00000, 3.13934, -35.56250
  4333, 40.00000, 4.49251, -36.34375
  4334, 40.00000, 5.84567, -37.12500
  4335, 40.00000, 7.19884, -37.90625
  4336, 40.00000, 8.55200, -38.68750
  4337, 40.00000, 9.90517, -39.46875
  4338, 40.00000, 11.25833, -40.25000
  4339, 40.00000, 0.46985, -33.92101
  4340, 40.00000, 1.93812, -34.45542
  4341, 40.00000, 3.40639, -34.98982
  4342, 40.00000, 4.87466, -35.52423
  4343, 40.00000, 6.34293, -36.05864
  4344, 40.00000, 7.81119, -36.59304
  4345, 40.00000, 9.27946, -37.12745
  4346, 40.00000, 10.74773, -37.66186
  4347, 40.00000, 12.21600, -38.19626
  4348, 40.00000, 0.49240, -33.83682
  4349, 40.00000, 2.03117, -34.10815
  4350, 40.00000, 3.56993, -34.37947
  4351, 40.00000, 5.10869, -34.65080
  4352, 40.00000, 6.64745, -34.92213
  4353, 40.00000, 8.18621, -35.19345
  4354, 40.00000, 9.72498, -35.46478
  4355, 40.00000, 11.26374, -35.73610
  4356, 40.00000, 12.80250, -36.00743
  4357, 40.00000, 0.50000, -33.75000
  4358, 40.00000, 2.06250, -33.75000
  4359, 40.00000, 3.62500, -33.75000
  4360, 40.00000, 5.18750, -33.75000
  4361, 40.00000, 6.75000, -33.75000
  4362, 40.00000, 8.31250, -33.75000
  4363, 40.00000, 9.87500, -33.75000
  4364, 40.00000, 11.43750, -33.75000
  4365, 40.00000, 13.00000, -33.75000
  4366, 45.00000, 0.50000, -33.75000
  4367, 45.00000, 2.06250, -33.75000
  4368, 45.00000, 3.62500, -33.75000
  4369, 45.00000, 5.18750, -33.75000
  4370, 45.00000, 6.75000, -33.75000
  4371, 45.00000, 8.31250, -33.75000
  4372, 45.00000, 9.87500, -33.75000
  4373, 45.00000, 11.43750, -33.75000
  4374, 45.00000, 13.00000, -33.75000
  4375, 45.00000, 0.49240, -33.66318
  4376, 45.00000, 2.03117, -33.39185
  4377, 45.00000, 3.56993, -33.12053
  4378, 45.00000, 5.10869, -32.84920
  4379, 45.00000, 6.64745, -32.57787
  4380, 45.00000, 8.18621, -32.30655
  4381, 45.00000, 9.72498, -32.03522
  4382, 45.00000, 11.26374, -31.76390
  4383, 45.00000, 12.80250, -31.49257
  4384, 45.00000, 0.46985, -33.57899
  4385, 45.00000, 1.93812, -33.04458
  4386, 45.00000, 3.40639, -32.51018
  4387, 45.00000, 4.87466, -31.97577
  4388, 45.00000, 6.34293, -31.44136
  4389, 45.00000, 7.81119, -30.90696
  4390, 45.00000, 9.27946, -30.37255
  4391, 45.00000, 10.74773, -29.83814
  4392, 45.00000, 12.21600, -29.30374
  4393, 45.00000, 0.43301, -33.50000
  4394, 45.00000, 1.78618, -32.71875
  4395, 45.00000, 3.13934, -31.93750
  4396, 45.00000, 4.49251, -31.15625
  4397, 45.00000, 5.84567, -30.37500
  4398, 45.00000, 7.19884, -29.59375
  4399, 45.00000, 8.55200, -28.81250
  4400, 45.00000, 9.90517, -28.03125
  4401, 45.00000, 11.25833, -27.25000
  4402, 45.00000, 0.38302, -33.42861
  4403, 45.00000, 1.57997, -32.42425
  4404, 45.00000, 2.77691, -31.41989
  4405, 45.00000, 3.97386, -30.41554
  4406, 45.00000, 5.17080, -29.41118
  4407, 45.00000, 6.36774, -28.40683
  4408, 45.00000, 7.56469, -27.40247
  4409, 45.00000, 8.76163, -26.39812
  4410, 45.00000, 9.95858, -25.39376
  4411, 45.00000, 0.32139, -33.36698
  4412, 45.00000, 1.32575, -32.17003
  4413, 45.00000, 2.33011, -30.97309
  4414, 45.00000, 3.33446, -29.77614
  4415, 45.00000, 4.33882, -28.57920
  4416, 45.00000, 5.34317, -27.38226
  4417, 45.00000, 6.34753, -26.18531
  4418, 45.00000, 7.35188, -24.98837
  4419, 45.00000, 8.35624, -23.79142
  4420, 45.00000, 0.25000, -33.31699
  4421, 45.00000, 1.03125, -31.96382
  4422, 45.00000, 1.81250, -30.61066
  4423, 45.00000, 2.59375, -29.25749
  4424, 45.00000, 3.37500, -27.90433
  4425, 45.00000, 4.15625, -26.55116
  4426, 45.00000, 4.93750, -25.19800
  4427, 45.00000, 5.71875, -23.84483
  4428, 45.00000, 6.50000, -22.49167
  4429, 45.00000, 0.17101, -33.28015
  4430, 45.00000, 0.70542, -31.81188
  4431, 45.00000, 1.23982, -30.34361
  4432, 45.00000, 1.77423, -28.87534
  4433, 45.00000, 2.30864, -27.40707
  4434, 45.00000, 2.84304, -25.93881
  4435, 45.00000, 3.37745, -24.47054
  4436, 45.00000, 3.91186, -23.00227
  4437, 45.00000, 4.44626, -21.53400
  4438, 45.00000, 0.08682, -33.25760
  4439, 45.00000, 0.35815, -31.71883
  4440, 45.00000, 0.62947, -30.18007
  4441, 45.00000, 0.90080, -28.64131
  4442, 45.00000, 1.17213, -27.10255
  4443, 45.00000, 1.44345, -25.56379
  4444, 45.00000, 1.71478, -24.02502
  4445, 45.00000, 1.98610, -22.48626
  4446, 45.00000, 2.25743, -20.94750
  4447, 45.00000, 0.00000, -33.25000
  4448, 45.00000, 0.00000, -31.68750
  4449, 45.00000, 0.00000, -30.12500
  4450, 45.00000, 0.00000, -28.56250
  4451, 45.00000, 0.00000, -27.00000
  4452, 45.00000, 0.00000, -25.43750
  4453, 45.00000, 0.00000, -23.87500
  4454, 45.00000, 0.00000, -22.31250
  4455, 45.00000, 0.00000, -20.75000
  4456, 45.00000, -0.08682, -33.25760
  4457, 45.00000, -0.35815, -31.71883
  4458, 45.00000, -0.62947, -30.18007
  4459, 45.00000, -0.90080, -28.64131
  4460, 45.00000, -1.17213, -27.10255
  4461, 45.00000, -1.44345, -25.56379
  4462, 45.00000, -1.71478, -24.02502
  4463, 45.00000, -1.98610, -22.48626
  4464, 45.00000, -2.25743, -20.94750
  4465, 45.00000, -0.17101, -33.28015
  4466, 45.00000, -0.70542, -31.81188
  4467, 45.00000, -1.23982, -30.34361
  4468, 45.00000, -1.77423, -28.87534
  4469, 45.00000, -2.30864, -27.40707
  4470, 45.00000, -2.84304, -25.93881
  4471, 45.00000, -3.37745, -24.47054
  4472, 45.00000, -3.91186, -23.00227
  4473, 45.00000, -4.44626, -21.53400
  4474, 45.00000, -0.25000, -33.31699
  4475, 45.00000, -1.03125, -31.96382
  4476, 45.00000, -1.81250, -30.61066
  4477, 45.00000, -2.59375, -29.25749
  4478, 45.00000, -3.37500, -27.90433
  4479, 45.00000, -4.15625, -26.55116
  4480, 45.00000, -4.93750, -25.19800
  4481, 45.00000, -5.71875, -23.84483
  4482, 45.00000, -6.50000, -22.49167
  4483, 45.00000, -0.32139, -33.36698
  4484, 45.00000, -1.32575, -32.17003
  4485, 45.00000, -2.33011, -30.97309
  4486, 45.00000, -3.33446, -29.77614
  4487, 45.00000, -4.33882, -28.57920
  4488, 45.00000, -5.34317, -27.38226
  4489, 45.00000, -6.34753, -26.18531
  4490, 45.00000, -7.35188, -24.98837
  4491, 45.00000, -8.35624, -23.79142
  4492, 45.00000, -0.38302, -33.42861
  4493, 45.00000, -1.57997, -32.42425
  4494, 45.00000, -2.77691, -31.41989
  4495, 45.00000, -3.97386, -30.41554
  4496, 45.00000, -5.17080, -29.41118
  4497, 45.00000, -6.36774, -28.40683
  4498, 45.00000, -7.56469, -27.40247
  4499, 45.00000, -8.76163, -26.39812
  4500, 45.00000, -9.95858, -25.39376
  4501, 45.00000, -0.43301, -33.50000
  4502, 45.00000, -1.78618, -32.71875
  4503, 45.00000, -3.13934, -31.93750
  4504, 45.00000, -4.49251, -31.15625
  4505, 45.00000, -5.84567, -30.37500
  4506, 45.00000, -7.19884, -29.59375
  4507, 45.00000, -8.55200, -28.81250
  4508, 45.00000, -9.90517, -28.03125
  4509, 45.00000, -11.25833, -27.25000
  4510, 45.00000, -0.46985, -33.57899
  4511, 45.00000, -1.93812, -33.04458
  4512, 45.00000, -3.40639, -32.51018
  4513, 45.00000, -4.87466, -31.97577
  4514, 45.00000, -6.34293, -31.44136
  4515, 45.00000, -7.81119, -30.90696
  4516, 45.00000, -9.27946, -30.37255
  4517, 45.00000, -10.74773, -29.83814
  4518, 45.00000, -12.21600, -29.30374
  4519, 45.00000, -0.49240, -33.66318
  4520, 45.00000, -2.03117, -33.39185
  4521, 45.00000, -3.56993, -33.12053
  4522, 45.00000, -5.10869, -32.84920
  4523, 45.00000, -6.64745, -32.57787
  4524, 45.00000, -8.18621, -32.30655
  4525, 45.00000, -9.72498, -32.03522
  4526, 45.00000, -11.26374, -31.76390
  4527, 45.00000, -12.80250, -31.49257
  4528, 45.00000, -0.50000, -33.75000
  4529, 45.00000, -2.06250, -33.75000
  4530, 45.00000, -3.62500, -33.75000
  4531, 45.00000, -5.18750, -33.75000
  4532, 45.00000, -6.75000, -33.75000
  4533, 45.00000, -8.31250, -33.75000
  4534, 45.00000, -9.87500, -33.75000
  4535, 45.00000, -11.43750, -33.75000
  4536, 45.00000, -13.00000, -33.75000
  4537, 45.00000, -0.49240, -33.83682
  4538, 45.00000, -2.03117, -34.10815
  4539, 45.00000, -3.56993, -34.37947
  4540, 45.00000, -5.10869, -34.65080
  4541, 45.00000, -6.64745, -34.92213
  4542, 45.00000, -8.18621, -35.19345
  4543, 45.00000, -9.72498, -35.46478
  4544, 45.00000, -11.26374, -35.73610
  4545, 45.00000, -12.80250, -36.00743
  4546, 45.00000, -0.46985, -33.92101
  4547, 45.00000, -1.93812, -34.45542
  4548, 45.00000, -3.40639, -34.98982
  4549, 45.00000, -4.87466, -35.52423
  4550, 45.00000, -6.34293, -36.05864
  4551, 45.00000, -7.81119, -36.59304
  4552, 45.00000, -9.27946, -37.12745
  4553, 45.00000, -10.74773, -37.66186
  4554, 45.00000, -12.21600, -38.19626
  4555, 45.00000, -0.43301, -34.00000
  4556, 45.00000, -1.78618, -34.78125
  4557, 45.00000, -3.13934, -35.56250
  4558, 45.00000, -4.49251, -36.34375
  4559, 45.00000, -5.84567, -37.12500
  4560, 45.00000, -7.19884, -37.90625
  4561, 45.00000, -8.55200, -38.68750
  4562, 45.00000, -9.90517, -39.46875
  4563, 45.00000, -11.25833, -40.25000
  4564, 45.00000, -0.38302, -34.07139
  4565, 45.00000, -1.57997, -35.07575
  4566, 45.00000, -2.77691, -36.08011
  4567, 45.00000, -3.97386, -37.08446
  4568, 45.00000, -5.17080, -38.08882
  4569, 45.00000, -6.36774, -39.09317
  4570, 45.00000, -7.56469, -40.09753
  4571, 45.00000, -8.76163, -41.10188
  4572, 45.00000, -9.95858, -42.10624
  4573, 45.00000, -0.32139, -34.13302
  4574, 45.00000, -1.32575, -35.32997
  4575, 45.00000, -2.33011, -36.52691
  4576, 45.00000, -3.33446, -37.72386
  4577, 45.00000, -4.33882, -38.92080
  4578, 45.00000, -5.34317, -40.11774
  4579, 45.00000, -6.34753, -41.31469
  4580, 45.00000, -7.35188, -42.51163
  4581, 45.00000, -8.35624, -43.70858
  4582, 45.00000, -0.25000, -34.18301
  4583, 45.00000, -1.03125, -35.53618
  4584, 45.00000, -1.81250, -36.88934
  4585, 45.00000, -2.59375, -38.24251
  4586, 45.00000, -3.37500, -39.59567
  4587, 45.00000, -4.15625, -40.94884
  4588, 45.00000, -4.93750, -42.30200
  4589, 45.00000, -5.71875, -43.65517
  4590, 45.00000, -6.50000, -45.00833
  4591, 45.00000, -0.17101, -34.21985
  4592, 45.00000, -0.70542, -35.68812
  4593, 45.00000, -1.23982, -37.15639
  4594, 45.00000, -1.77423, -38.62466
  4595, 45.00000, -2.30864, -40.09293
  4596, 45.00000, -2.84304, -41.56119
  4597, 45.00000, -3.37745, -43.02946
  4598, 45.00000, -3.91186, -44.49773
  4599, 45.00000, -4.44626, -45.96600
  4600, 45.00000, -0.08682, -34.24240
  4601, 45.00000, -0.35815, -35.78117
  4602, 45.00000, -0.62947, -37.31993
  4603, 45.00000, -0.90080, -38.85869
  4604, 45.00000, -1.17213, -40.39745
  4605, 45.00000, -1.44345, -41.93621
  4606, 45.00000, -1.71478, -43.47498
  4607, 45.00000, -1.98610, -45.01374
  4608, 45.00000, -2.25743, -46.55250
  4609, 45.00000, -0.00000, -34.25000
  4610, 45.00000, -0.00000, -35.81250
  4611, 45.00000, -0.00000, -37.37500
  4612, 45.00000, -0.00000, -38.93750
  4613, 45.00000, -0.00000, -40.50000
  4614, 45.00000, -0.00000, -42.06250
  4615, 45.00000, -0.00000, -43.62500
  4616, 45.00000, -0.00000, -45.18750
  4617, 45.00000, -0.00000, -46.75000
  4618, 45.00000, 0.08682, -34.24240
  4619, 45.00000, 0.35815, -35.78117
  4620, 45.00000, 0.62947, -37.31993
  4621, 45.00000, 0.90080, -38.85869
  4622, 45.00000, 1.17213, -40.39745
  4623, 45.00000, 1.44345, -41.93621
  4624, 45.00000, 1.71478, -43.47498
  4625, 45.00000, 1.98610, -45.01374
  4626, 45.00000, 2.25743, -46.55250
  4627, 45.00000, 0.17101, -34.21985
  4628, 45.00000, 0.70542, -35.68812
  4629, 45.00000, 1.23982, -37.15639
  4630, 45.00000, 1.77423, -38.62466
  4631, 45.00000, 2.30864, -40.09293
  4632, 45.00000, 2.84304, -41.56119
  4633, 45.00000, 3.37745, -43.02946
  4634, 45.00000, 3.91186, -44.49773
  4635, 45.00000, 4.44626, -45.96600
  4636, 45.00000, 0.25000, -34.18301
  4637, 45.00000, 1.03125, -35.53618
  4638, 45.00000, 1.81250, -36.88934
  4639, 45.00000, 2.59375, -38.24251
  4640, 45.00000, 3.37500, -39.59567
  4641, 45.00000, 4.15625, -40.94884
  4642, 45.00000, 4.93750, -42.30200
  4643, 45.00000, 5.71875, -43.65517
  4644, 45.00000, 6.50000, -45.00833
  4645, 45.00000, 0.32139, -34.13302
  4646, 45.00000, 1.32575, -35.32997
  4647, 45.00000, 2.33011, -36.52691
  4648, 45.00000, 3.33446, -37.72386
  4649, 45.00000, 4.33882, -38.92080
  4650, 45.00000, 5.34317, -40.11774
  4651, 45.00000, 6.34753, -41.31469
  4652, 45.00000, 7.35188, -42.51163
  4653, 45.00000, 8.35624, -43.70858
  4654, 45.00000, 0.38302, -34.07139
  4655, 45.00000, 1.57997, -35.07575
  4656, 45.00000, 2.77691, -36.08011
  4657, 45.00000, 3.97386, -37.08446
  4658, 45.00000, 5.17080, -38.08882
  4659, 45.00000, 6.36774, -39.09317
  4660, 45.00000, 7.56469, -40.09753
  4661, 45.00000, 8.76163, -41.10188
  4662, 45.00000, 9.95858, -42.10624
  4663, 45.00000, 0.43301, -34.00000
  4664, 45.00000, 1.78618, -34.78125
  4665, 45.00000, 3.13934, -35.56250
  4666, 45.00000, 4.49251, -36.34375
  4667, 45.00000, 5.84567, -37.12500
  4668, 45.00000, 7.19884, -37.90625
  4669, 45.00000, 8.55200, -38.68750
  4670, 45.00000, 9.90517, -39.46875
  4671, 45.00000, 11.25833, -40.25000
  4672, 45.00000, 0.46985, -33.92101
  4673, 45.00000, 1.93812, -34.45542
  4674, 45.00000, 3.40639, -34.98982
  4675, 45.00000, 4.87466, -35.52423
  4676, 45.00000, 6.34293, -36.05864
  4677, 45.00000, 7.81119, -36.59304
  4678, 45.00000, 9.27946, -37.12745
  4679, 45.00000, 10.74773, -37.66186
  4680, 45.00000, 12.21600, -38.19626
  4681, 45.00000, 0.49240, -33.83682
  4682, 45.00000, 2.03117, -34.10815
  4683, 45.00000, 3.56993, -34.37947
  4684, 45.00000, 5.10869, -34.65080
  4685, 45.00000, 6.64745, -34.92213
  4686, 45.00000, 8.18621, -35.19345
  4687, 45.00000, 9.72498, -35.46478
  4688, 45.00000, 11.26374, -35.73610
  4689, 45.00000, 12.80250, -36.00743
  4690, 45.00000, 0.50000, -33.75000
  4691, 45.00000, 2.06250, -33.75000
  4692, 45.00000, 3.62500, -33.75000
  4693, 45.00000, 5.18750, -33.75000
  4694, 45.00000, 6.75000, -33.75000
  4695, 45.00000, 8.31250, -33.75000
  4696, 45.00000, 9.87500, -33.75000
  4697, 45.00000, 11.43750, -33.75000
  4698, 45.00000, 13.00000, -33.75000
  4699, 50.00000, 0.50000, -33.75000
  4700, 50.00000, 2.06250, -33.75000
  4701, 50.00000, 3.62500, -33.75000
  4702, 50.00000, 5.18750, -33.75000
  4703, 50.00000, 6.75000, -33.75000
  4704, 50.00000, 8.31250, -33.75000
  4705, 50.00000, 9.87500, -33.75000
  4706, 50.00000, 11.43750, -33.75000
  4707, 50.00000, 13.00000, -33.75000
  4708, 50.00000, 0.49240, -33.66318
  4709, 50.00000, 2.03117, -33.39185
  4710, 50.00000, 3.56993, -33.12053
  4711, 50.00000, 5.10869, -32.84920
  4712, 50.00000, 6.64745, -32.57787
  4713, 50.00000, 8.18621, -32.30655
  4714, 50.00000, 9.72498, -32.03522
  4715, 50.00000, 11.26374, -31.76390
  4716, 50.00000, 12.80250, -31.49257
  4717, 50.00000, 0.46985, -33.57899
  4718, 50.00000, 1.93812, -33.04458
  4719, 50.00000, 3.40639, -32.51018
  4720, 50.00000, 4.87466, -31.97577
  4721, 50.00000, 6.34293, -31.44136
  4722, 50.00000, 7.81119, -30.90696
  4723, 50.00000, 9.27946, -30.37255
  4724, 50.00000, 10.74773, -29.83814
  4725, 50.00000, 12.21600, -29.30374
  4726, 50.00000, 0.43301, -33.50000
  4727, 50.00000, 1.78618, -32.71875
  4728, 50.00000, 3.13934, -31.93750
  4729, 50.00000, 4.49251, -31.15625
  4730, 50.00000, 5.84567, -30.37500
  4731, 50.00000, 7.19884, -29.59375
  4732, 50.00000, 8.55200, -28.81250
  4733, 50.00000, 9.90517, -28.03125
  4734, 50.00000, 11.25833, -27.25000
  4735, 50.00000, 0.38302, -33.42861
  4736, 50.00000, 1.57997, -32.42425
  4737, 50.00000, 2.77691, -31.41989
  4738, 50.00000, 3.97386, -30.41554
  4739, 50.00000, 5.17080, -29.41118
  4740, 50.00000, 6.36774, -28.40683
  4741, 50.00000, 7.56469, -27.40247
  4742, 50.00000, 8.76163, -26.39812
  4743, 50.00000, 9.95858, -25.39376
  4744, 50.00000, 0.32139, -33.36698
  4745, 50.00000, 1.32575, -32.17003
  4746, 50.00000, 2.33011, -30.97309
  4747, 50.00000, 3.33446, -29.77614
  4748, 50.00000, 4.33882, -28.57920
  4749, 50.00000, 5.34317, -27.38226
  4750, 50.00000, 6.34753, -26.18531
  4751, 50.00000, 7.35188, -24.98837
  4752, 50.00000, 8.35624, -23.79142
  4753, 50.00000, 0.25000, -33.31699
  4754, 50.00000, 1.03125, -31.96382
  4755, 50.00000, 1.81250, -30.61066
  4756, 50.00000, 2.59375, -29.25749
  4757, 50.00000, 3.37500, -27.90433
  4758, 50.00000, 4.15625, -26.55116
  4759, 50.00000, 4.93750, -25.19800
  4760, 50.00000, 5.71875, -23.84483
  4761, 50.00000, 6.50000, -22.49167
  4762, 50.00000, 0.17101, -33.28015
  4763, 50.00000, 0.70542, -31.81188
  4764, 50.00000, 1.23982, -30.34361
  4765, 50.00000, 1.77423, -28.87534
  4766, 50.00000, 2.30864, -27.40707
  4767, 50.00000, 2.84304, -25.93881
  4768, 50.00000, 3.37745, -24.47054
  4769, 50.00000, 3.91186, -23.00227
  4770, 50.00000, 4.44626, -21.53400
  4771, 50.00000, 0.08682, -33.25760
  4772, 50.00000, 0.35815, -31.71883
  4773, 50.00000, 0.62947, -30.18007
  4774, 50.00000, 0.90080, -28.64131
  4775, 50.00000, 1.17213, -27.10255
  4776, 50.00000, 1.44345, -25.56379
  4777, 50.00000, 1.71478, -24.02502
  4778, 50.00000, 1.98610, -22.48626
  4779, 50.00000, 2.25743, -20.94750
  4780, 50.00000, 0.00000, -33.25000
  4781, 50.00000, 0.00000, -31.68750
  4782, 50.00000, 0.00000, -30.12500
  4783, 50.00000, 0.00000, -28.56250
  4784, 50.00000, 0.00000, -27.00000
  4785, 50.00000, 0.00000, -25.43750
  4786, 50.00000, 0.00000, -23.87500
  4787, 50.00000, 0.00000, -22.31250
  4788, 50.00000, 0.00000, -20.75000
  4789, 50.00000, -0.08682, -33.25760
  4790, 50.00000, -0.35815, -31.71883
  4791, 50.00000, -0.62947, -30.18007
  4792, 50.00000, -0.90080, -28.64131
  4793, 50.00000, -1.17213, -27.10255
  4794, 50.00000, -1.44345, -25.56379
  4795, 50.00000, -1.71478, -24.02502
  4796, 50.00000, -1.98610, -22.48626
  4797, 50.00000, -2.25743, -20.94750
  4798, 50.00000, -0.17101, -33.28015
  4799, 50.00000, -0.70542, -31.81188
  4800, 50.00000, -1.23982, -30.34361
  4801, 50.00000, -1.77423, -28.87534
  4802, 50.00000, -2.30864, -27.40707
  4803, 50.00000, -2.84304, -25.93881
  4804, 50.00000, -3.37745, -24.47054
  4805, 50.00000, -3.91186, -23.00227
  4806, 50.00000, -4.44626, -21.53400
  4807, 50.00000, -0.25000, -33.31699
  4808, 50.00000, -1.03125, -31.96382
  4809, 50.00000, -1.81250, -30.61066
  4810, 50.00000, -2.59375, -29.25749
  4811, 50.00000, -3.37500, -27.90433
  4812, 50.00000, -4.15625, -26.55116
  4813, 50.00000, -4.93750, -25.19800
  4814, 50.00000, -5.71875, -23.84483
  4815, 50.00000, -6.50000, -22.49167
  4816, 50.00000, -0.32139, -33.36698
  4817, 50.00000, -1.32575, -32.17003
  4818, 50.00000, -2.33011, -30.97309
  4819, 50.00000, -3.33446, -29.77614
  4820, 50.00000, -4.33882, -28.57920
  4821, 50.00000, -5.34317, -27.38226
  4822, 50.00000, -6.34753, -26.18531
  4823, 50.00000, -7.35188, -24.98837
  4824, 50.00000, -8.35624, -23.79142
  4825, 50.00000, -0.38302, -33.42861
  4826, 50.00000, -1.57997, -32.42425
  4827, 50.00000, -2.77691, -31.41989
  4828, 50.00000, -3.97386, -30.41554
  4829, 50.00000, -5.17080, -29.41118
  4830, 50.00000, -6.36774, -28.40683
  4831, 50.00000, -7.56469, -27.40247
  4832, 50.00000, -8.76163, -26.39812
  4833, 50.00000, -9.95858, -25.39376
  4834, 50.00000, -0.43301, -33.50000
  4835, 50.00000, -1.78618, -32.71875
  4836, 50.00000, -3.13934, -31.93750
  4837, 50.00000, -4.49251, -31.15625
  4838, 50.00000, -5.84567, -30.37500
  4839, 50.00000, -7.19884, -29.59375
  4840, 50.00000, -8.55200, -28.81250
  4841, 50.00000, -9.90517, -28.03125
  4842, 50.00000, -11.25833, -27.25000
  4843, 50.00000, -0.46985, -33.57899
  4844, 50.00000, -1.93812, -33.04458
  4845, 50.00000, -3.40639, -32.51018
  4846, 50.00000, -4.87466, -31.97577
  4847, 50.00000, -6.34293, -31.44136
  4848, 50.00000, -7.81119, -30.90696
  4849, 50.00000, -9.27946, -30.37255
  4850, 50.00000, -10.74773, -29.83814
  4851, 50.00000, -12.21600, -29.30374
  4852, 50.00000, -0.49240, -33.66318
  4853, 50.00000, -2.03117, -33.39185
  4854, 50.00000, -3.56993, -33.12053
  4855, 50.00000, -5.10869, -32.84920
  4856, 50.00000, -6.64745, -32.57787
  4857, 50.00000, -8.18621, -32.30655
  4858, 50.00000, -9.72498, -32.03522
  4859, 50.00000, -11.26374, -31.76390
  4860, 50.00000, -12.80250, -31.49257
  4861, 50.00000, -0.50000, -33.75000
  4862, 50.00000, -2.06250, -33.75000
  4863, 50.00000, -3.62500, -33.75000
  4864, 50.00000, -5.18750, -33.75000
  4865, 50.00000, -6.75000, -33.75000
  4866, 50.00000, -8.31250, -33.75000
  4867, 50.00000, -9.87500, -33.75000
  4868, 50.00000, -11.43750, -33.75000
  4869, 50.00000, -13.00000, -33.75000
  4870, 50.00000, -0.49240, -33.83682
  4871, 50.00000, -2.03117, -34.10815
  4872, 50.00000, -3.56993, -34.37947
  4873, 50.00000, -5.10869, -34.65080
  4874, 50.00000, -6.64745, -34.92213
  4875, 50.00000, -8.18621, -35.19345
  4876, 50.00000, -9.72498, -35.46478
  4877, 50.00000, -11.26374, -35.73610
  4878, 50.00000, -12.80250, -36.00743
  4879, 50.00000, -0.46985, -33.92101
  4880, 50.00000, -1.93812, -34.45542
  4881, 50.00000, -3.40639, -34.98982
  4882, 50.00000, -4.87466, -35.52423
  4883, 50.00000, -6.34293, -36.05864
  4884, 50.00000, -7.81119, -36.59304
  4885, 50.00000, -9.27946, -37.12745
  4886, 50.00000, -10.74773, -37.66186
  4887, 50.00000, -12.21600, -38.19626
  4888, 50.00000, -0.43301, -34.00000
  4889, 50.00000, -1.78618, -34.78125
  4890, 50.00000, -3.13934, -35.56250
  4891, 50.00000, -4.49251, -36.34375
  4892, 50.00000, -5.84567, -37.12500
  4893, 50.00000, -7.19884, -37.90625
  4894, 50.00000, -8.55200, -38.68750
  4895, 50.00000, -9.90517, -39.46875
  4896, 50.00000, -11.25833, -40.25000
  4897, 50.00000, -0.38302, -34.07139
  4898, 50.00000, -1.57997, -35.07575
  4899, 50.00000, -2.77691, -36.08011
  4900, 50.00000, -3.97386, -37.08446
  4901, 50.00000, -5.17080, -38.08882
  4902, 50.00000, -6.36774, -39.09317
  4903, 50.00000, -7.56469, -40.09753
  4904, 50.00000, -8.76163, -41.10188
  4905, 50.00000, -9.95858, -42.10624
  4906, 50.00000, -0.32139, -34.13302
  4907, 50.00000, -1.32575, -35.32997
  4908, 50.00000, -2.33011, -36.52691
  4909, 50.00000, -3.33446, -37.72386
  4910, 50.00000, -4.33882, -38.92080
  4911, 50.00000, -5.34317, -40.11774
  4912, 50.00000, -6.34753, -41.31469
  4913, 50.00000, -7.35188, -42.51163
  4914, 50.00000, -8.35624, -43.70858
  4915, 50.00000, -0.25000, -34.18301
  4916, 50.00000, -1.03125, -35.53618
  4917, 50.00000, -1.81250, -36.88934
  4918, 50.00000, -2.59375, -38.24251
  4919, 50.00000, -3.37500, -39.59567
  4920, 50.00000, -4.15625, -40.94884
  4921, 50.00000, -4.93750, -42.30200
  4922, 50.00000, -5.71875, -43.65517
  4923, 50.00000, -6.50000, -45.00833
  4924, 50.00000, -0.17101, -34.21985
  4925, 50.00000, -0.70542, -35.68812
  4926, 50.00000, -1.23982, -37.15639
  4927, 50.00000, -1.77423, -38.62466
  4928, 50.00000, -2.30864, -40.09293
  4929, 50.00000, -2.84304, -41.56119
  4930, 50.00000, -3.37745, -43.02946
  4931, 50.00000, -3.91186, -44.49773
  4932, 50.00000, -4.44626, -45.96600
  4933, 50.00000, -0.08682, -34.24240
  4934, 50.00000, -0.35815, -35.78117
  4935, 50.00000, -0.62947, -37.31993
  4936, 50.00000, -0.90080, -38.85869
  4937, 50.00000, -1.17213, -40.39745
  4938, 50.00000, -1.44345, -41.93621
  4939, 50.00000, -1.71478, -43.47498
  4940, 50.00000, -1.98610, -45.01374
  4941, 50.00000, -2.25743, -46.55250
  4942, 50.00000, -0.00000, -34.25000
  4943, 50.00000, -0.00000, -35.81250
  4944, 50.00000, -0.00000, -37.37500
  4945, 50.00000, -0.00000, -38.93750
  4946, 50.00000, -0.00000, -40.50000
  4947, 50.00000, -0.00000, -42.06250
  4948, 50.00000, -0.00000, -43.62500
  4949, 50.00000, -0.00000, -45.18750
  4950, 50.00000, -0.00000, -46.75000
  4951, 50.00000, 0.08682, -34.24240
  4952, 50.00000, 0.35815, -35.78117
  4953, 50.00000, 0.62947, -37.31993
  4954, 50.00000, 0.90080, -38.85869
  4955, 50.00000, 1.17213, -40.39745
  4956, 50.00000, 1.44345, -41.93621
  4957, 50.00000, 1.71478, -43.47498
  4958, 50.00000, 1.98610, -45.01374
  4959, 50.00000, 2.25743, -46.55250
  4960, 50.00000, 0.17101, -34.21985
  4961, 50.00000, 0.70542, -35.68812
  4962, 50.00000, 1.23982, -37.15639
  4963, 50.00000, 1.77423, -38.62466
  4964, 50.00000, 2.30864, -40.09293
  4965, 50.00000, 2.84304, -41.56119
  4966, 50.00000, 3.37745, -43.02946
  4967, 50.00000, 3.91186, -44.49773
  4968, 50.00000, 4.44626, -45.96600
  4969, 50.00000, 0.25000, -34.18301
  4970, 50.00000, 1.03125, -35.53618
  4971, 50.00000, 1.81250, -36.88934
  4972, 50.00000, 2.59375, -38.24251
  4973, 50.00000, 3.37500, -39.59567
  4974, 50.00000, 4.15625, -40.94884
  4975, 50.00000, 4.93750, -42.30200
  4976, 50.00000, 5.71875, -43.65517
  4977, 50.00000, 6.50000, -45.00833
  4978, 50.00000, 0.32139, -34.13302
  4979, 50.00000, 1.32575, -35.32997
  4980, 50.00000, 2.33011, -36.52691
  4981, 50.00000, 3.33446, -37.72386
  4982, 50.00000, 4.33882, -38.92080
  4983, 50.00000, 5.34317, -40.11774
  4984, 50.00000, 6.34753, -41.31469
  4985, 50.00000, 7.35188, -42.51163
  4986, 50.00000, 8.35624, -43.70858
  4987, 50.00000, 0.38302, -34.07139
  4988, 50.00000, 1.57997, -35.07575
  4989, 50.00000, 2.77691, -36.08011
  4990, 50.00000, 3.97386, -37.08446
  4991, 50.00000, 5.17080, -38.08882
  4992, 50.00000, 6.36774, -39.09317
  4993, 50.00000, 7.56469, -40.09753
  4994, 50.00000, 8.76163, -41.10188
  4995, 50.00000, 9.95858, -42.10624
  4996, 50.00000, 0.43301, -34.00000
  4997, 50.00000, 1.78618, -34.78125
  4998, 50.00000, 3.13934, -35.56250
  4999, 50.00000, 4.49251, -36.34375
  5000, 50.00000, 5.84567, -37.12500
  5001, 50.00000, 7.19884, -37.90625
  5002, 50.00000, 8.55200, -38.68750
  5003, 50.00000, 9.90517, -39.46875
  5004, 50.00000, 11.25833, -40.25000
  5005, 50.00000, 0.46985, -33.92101
  5006, 50.00000, 1.93812, -34.45542
  5007, 50.00000, 3.40639, -34.98982
  5008, 50.00000, 4.87466, -35.52423
  5009, 50.00000, 6.34293, -36.05864
  5010, 50.00000, 7.81119, -36.59304
  5011, 50.00000, 9.27946, -37.12745
  5012, 50.00000, 10.74773, -37.66186
  5013, 50.00000, 12.21600, -38.19626
  5014, 50.00000, 0.49240, -33.83682
  5015, 50.00000, 2.03117, -34.10815
  5016, 50.00000, 3.56993, -34.37947
  5017, 50.00000, 5.10869, -34.65080
  5018, 50.00000, 6.64745, -34.92213
  5019, 50.00000, 8.18621, -35.19345
  5020, 50.00000, 9.72498, -35.46478
  5021, 50.00000, 11.26374, -35.73610
  5022, 50.00000, 12.80250, -36.00743
  5023, 50.00000, 0.50000, -33.75000
  5024, 50.00000, 2.06250, -33.75000
  5025, 50.00000, 3.62500, -33.75000
  5026, 50.00000, 5.18750, -33.75000
  5027, 50.00000, 6.75000, -33.75000
  5028, 50.00000, 8.31250, -33.75000
  5029, 50.00000, 9.87500, -33.75000
  5030, 50.00000, 11.43750, -33.75000
  5031, 50.00000, 13.00000, -33.75000
  5032, 55.00000, 0.50000, -33.75000
  5033, 55.00000, 2.06250, -33.75000
  5034, 55.00000, 3.62500, -33.75000
  5035, 55.00000, 5.18750, -33.75000
  5036, 55.00000, 6.75000, -33.75000
  5037, 55.00000, 8.31250, -33.75000
  5038, 55.00000, 9.87500, -33.75000
  5039, 55.00000, 11.43750, -33.75000
  5040, 55.00000, 13.00000, -33.75000
  5041, 55.00000, 0.49240, -33.66318
  5042, 55.00000, 2.03117, -33.39185
  5043, 55.00000, 3.56993, -33.12053
  5044, 55.00000, 5.10869, -32.84920
  5045, 55.00000, 6.64745, -32.57787
  5046, 55.00000, 8.18621, -32.30655
  5047, 55.00000, 9.72498, -32.03522
  5048, 55.00000, 11.26374, -31.76390
  5049, 55.00000, 12.80250, -31.49257
  5050, 55.00000, 0.46985, -33.57899
  5051, 55.00000, 1.93812, -33.04458
  5052, 55.00000, 3.40639, -32.51018
  5053, 55.00000, 4.87466, -31.97577
  5054, 55.00000, 6.34293, -31.44136
  5055, 55.00000, 7.81119, -30.90696
  5056, 55.00000, 9.27946, -30.37255
  5057, 55.00000, 10.74773, -29.83814
  5058, 55.00000, 12.21600, -29.30374
  5059, 55.00000, 0.43301, -33.50000
  5060, 55.00000, 1.78618, -32.71875
  5061, 55.00000, 3.13934, -31.93750
  5062, 55.00000, 4.49251, -31.15625
  5063, 55.00000, 5.84567, -30.37500
  5064, 55.00000, 7.19884, -29.59375
  5065, 55.00000, 8.55200, -28.81250
  5066, 55.00000, 9.90517, -28.03125
  5067, 55.00000, 11.25833, -27.25000
  5068, 55.00000, 0.38302, -33.42861
  5069, 55.00000, 1.57997, -32.42425
  5070, 55.00000, 2.77691, -31.41989
  5071, 55.00000, 3.97386, -30.41554
  5072, 55.00000, 5.17080, -29.41118
  5073, 55.00000, 6.36774, -28.40683
  5074, 55.00000, 7.56469, -27.40247
  5075, 55.00000, 8.76163, -26.39812
  5076, 55.00000, 9.95858, -25.39376
  5077, 55.00000, 0.32139, -33.36698
  5078, 55.00000, 1.32575, -32.17003
  5079, 55.00000, 2.33011, -30.97309
  5080, 55.00000, 3.33446, -29.77614
  5081, 55.00000, 4.33882, -28.57920
  5082, 55.00000, 5.34317, -27.38226
  5083, 55.00000, 6.34753, -26.18531
  5084, 55.00000, 7.35188, -24.98837
  5085, 55.00000, 8.35624, -23.79142
  5086, 55.00000, 0.25000, -33.31699
  5087, 55.00000, 1.03125, -31.96382
  5088, 55.00000, 1.81250, -30.61066
  5089, 55.00000, 2.59375, -29.25749
  5090, 55.00000, 3.37500, -27.90433
  5091, 55.00000, 4.15625, -26.55116
  5092, 55.00000, 4.93750, -25.19800
  5093, 55.00000, 5.71875, -23.84483
  5094, 55.00000, 6.50000, -22.49167
  5095, 55.00000, 0.17101, -33.28015
  5096, 55.00000, 0.70542, -31.81188
  5097, 55.00000, 1.23982, -30.34361
  5098, 55.00000, 1.77423, -28.87534
  5099, 55.00000, 2.30864, -27.40707
  5100, 55.00000, 2.84304, -25.93881
  5101, 55.00000, 3.37745, -24.47054
  5102, 55.00000, 3.91186, -23.00227
  5103, 55.00000, 4.44626, -21.53400
  5104, 55.00000, 0.08682, -33.25760
  5105, 55.00000, 0.35815, -31.71883
  5106, 55.00000, 0.62947, -30.18007
  5107, 55.00000, 0.90080, -28.64131
  5108, 55.00000, 1.17213, -27.10255
  5109, 55.00000, 1.44345, -25.56379
  5110, 55.00000, 1.71478, -24.02502
  5111, 55.00000, 1.98610, -22.48626
  5112, 55.00000, 2.25743, -20.94750
  5113, 55.00000, 0.00000, -33.25000
  5114, 55.00000, 0.00000, -31.68750
  5115, 55.00000, 0.00000, -30.12500
  5116, 55.00000, 0.00000, -28.56250
  5117, 55.00000, 0.00000, -27.00000
  5118, 55.00000, 0.00000, -25.43750
  5119, 55.00000, 0.00000, -23.87500
  5120, 55.00000, 0.00000, -22.31250
  5121, 55.00000, 0.00000, -20.75000
  5122, 55.00000, -0.08682, -33.25760
  5123, 55.00000, -0.35815, -31.71883
  5124, 55.00000, -0.62947, -30.18007
  5125, 55.00000, -0.90080, -28.64131
  5126, 55.00000, -1.17213, -27.10255
  5127, 55.00000, -1.44345, -25.56379
  5128, 55.00000, -1.71478, -24.02502
  5129, 55.00000, -1.98610, -22.48626
  5130, 55.00000, -2.25743, -20.94750
  5131, 55.00000, -0.17101, -33.28015
  5132, 55.00000, -0.70542, -31.81188
  5133, 55.00000, -1.23982, -30.34361
  5134, 55.00000, -1.77423, -28.87534
  5135, 55.00000, -2.30864, -27.40707
  5136, 55.00000, -2.84304, -25.93881
  5137, 55.00000, -3.37745, -24.47054
  5138, 55.00000, -3.91186, -23.00227
  5139, 55.00000, -4.44626, -21.53400
  5140, 55.00000, -0.25000, -33.31699
  5141, 55.00000, -1.03125, -31.96382
  5142, 55.00000, -1.81250, -30.61066
  5143, 55.00000, -2.59375, -29.25749
  5144, 55.00000, -3.37500, -27.90433
  5145, 55.00000, -4.15625, -26.55116
  5146, 55.00000, -4.93750, -25.19800
  5147, 55.00000, -5.71875, -23.84483
  5148, 55.00000, -6.50000, -22.49167
  5149, 55.00000, -0.32139, -33.36698
  5150, 55.00000, -1.32575, -32.17003
  5151, 55.00000, -2.33011, -30.97309
  5152, 55.00000, -3.33446, -29.77614
  5153, 55.00000, -4.33882, -28.57920
  5154, 55.00000, -5.34317, -27.38226
  5155, 55.00000, -6.34753, -26.18531
  5156, 55.00000, -7.35188, -24.98837
  5157, 55.00000, -8.35624, -23.79142
  5158, 55.00000, -0.38302, -33.42861
  5159, 55.00000, -1.57997, -32.42425
  5160, 55.00000, -2.77691, -31.41989
  5161, 55.00000, -3.97386, -30.41554
  5162, 55.00000, -5.17080, -29.41118
  5163, 55.00000, -6.36774, -28.40683
  5164, 55.00000, -7.56469, -27.40247
  5165, 55.00000, -8.76163, -26.39812
  5166, 55.00000, -9.95858, -25.39376
  5167, 55.00000, -0.43301, -33.50000
  5168, 55.00000, -1.78618, -32.71875
  5169, 55.00000, -3.13934, -31.93750
  5170, 55.00000, -4.49251, -31.15625
  5171, 55.00000, -5.84567, -30.37500
  5172, 55.00000, -7.19884, -29.59375
  5173, 55.00000, -8.55200, -28.81250
  5174, 55.00000, -9.90517, -28.03125
  5175, 55.00000, -11.25833, -27.25000
  5176, 55.00000, -0.46985, -33.57899
  5177, 55.00000, -1.93812, -33.04458
  5178, 55.00000, -3.40639, -32.51018
  5179, 55.00000, -4.87466, -31.97577
  5180, 55.00000, -6.34293, -31.44136
  5181, 55.00000, -7.81119, -30.90696
  5182, 55.00000, -9.27946, -30.37255
  5183, 55.00000, -10.74773, -29.83814
  5184, 55.00000, -12.21600, -29.30374
  5185, 55.00000, -0.49240, -33.66318
  5186, 55.00000, -2.03117, -33.39185
  5187, 55.00000, -3.56993, -33.12053
  5188, 55.00000, -5.10869, -32.84920
  5189, 55.00000, -6.64745, -32.57787
  5190, 55.00000, -8.18621, -32.30655
  5191, 55.00000, -9.72498, -32.03522
  5192, 55.00000, -11.26374, -31.76390
  5193, 55.00000, -12.80250, -31.49257
  5194, 55.00000, -0.50000, -33.75000
  5195, 55.00000, -2.06250, -33.75000
  5196, 55.00000, -3.62500, -33.75000
  5197, 55.00000, -5.18750, -33.75000
  5198, 55.00000, -6.75000, -33.75000
  5199, 55.00000, -8.31250, -33.75000
  5200, 55.00000, -9.87500, -33.75000
  5201, 55.00000, -11.43750, -33.75000
  5202, 55.00000, -13.00000, -33.75000
  5203, 55.00000, -0.49240, -33.83682
  5204, 55.00000, -2.03117, -34.10815
  5205, 55.00000, -3.56993, -34.37947
  5206, 55.00000, -5.10869, -34.65080
  5207, 55.00000, -6.64745, -34.92213
  5208, 55.00000, -8.18621, -35.19345
  5209, 55.00000, -9.72498, -35.46478
  5210, 55.00000, -11.26374, -35.73610
  5211, 55.00000, -12.80250, -36.00743
  5212, 55.00000, -0.46985, -33.92101
  5213, 55.00000, -1.93812, -34.45542
  5214, 55.00000, -3.40639, -34.98982
  5215, 55.00000, -4.87466, -35.52423
  5216, 55.00000, -6.34293, -36.05864
  5217, 55.00000, -7.81119, -36.59304
  5218, 55.00000, -9.27946, -37.12745
  5219, 55.00000, -10.74773, -37.66186
  5220, 55.00000, -12.21600, -38.19626
  5221, 55.00000, -0.43301, -34.00000
  5222, 55.00000, -1.78618, -34.78125
  5223, 55.00000, -3.13934, -35.56250
  5224, 55.00000, -4.49251, -36.34375
  5225, 55.00000, -5.84567, -37.12500
  5226, 55.00000, -7.19884, -37.90625
  5227, 55.00000, -8.55200, -38.68750
  5228, 55.00000, -9.90517, -39.46875
  5229, 55.00000, -11.25833, -40.25000
  5230, 55.00000, -0.38302, -34.07139
  5231, 55.00000, -1.57997, -35.07575
  5232, 55.00000, -2.77691, -36.08011
  5233, 55.00000, -3.97386, -37.08446
  5234, 55.00000, -5.17080, -38.08882
  5235, 55.00000, -6.36774, -39.09317
  5236, 55.00000, -7.56469, -40.09753
  5237, 55.00000, -8.76163, -41.10188
  5238, 55.00000, -9.95858, -42.10624
  5239, 55.00000, -0.32139, -34.13302
  5240, 55.00000, -1.32575, -35.32997
  5241, 55.00000, -2.33011, -36.52691
  5242, 55.00000, -3.33446, -37.72386
  5243, 55.00000, -4.33882, -38.92080
  5244, 55.00000, -5.34317, -40.11774
  5245, 55.00000, -6.34753, -41.31469
  5246, 55.00000, -7.35188, -42.51163
  5247, 55.00000, -8.35624, -43.70858
  5248, 55.00000, -0.25000, -34.18301
  5249, 55.00000, -1.03125, -35.53618
  5250, 55.00000, -1.81250, -36.88934
  5251, 55.00000, -2.59375, -38.24251
  5252, 55.00000, -3.37500, -39.59567
  5253, 55.00000, -4.15625, -40.94884
  5254, 55.00000, -4.93750, -42.30200
  5255, 55.00000, -5.71875, -43.65517
  5256, 55.00000, -6.50000, -45.00833
  5257, 55.00000, -0.17101, -34.21985
  5258, 55.00000, -0.70542, -35.68812
  5259, 55.00000, -1.23982, -37.15639
  5260, 55.00000, -1.77423, -38.62466
  5261, 55.00000, -2.30864, -40.09293
  5262, 55.00000, -2.84304, -41.56119
  5263, 55.00000, -3.37745, -43.02946
  5264, 55.00000, -3.91186, -44.49773
  5265, 55.00000, -4.44626, -45.96600
  5266, 55.00000, -0.08682, -34.24240
  5267, 55.00000, -0.35815, -35.78117
  5268, 55.00000, -0.62947, -37.31993
  5269, 55.00000, -0.90080, -38.85869
  5270, 55.00000, -1.17213, -40.39745
  5271, 55.00000, -1.44345, -41.93621
  5272, 55.00000, -1.71478, -43.47498
  5273, 55.00000, -1.98610, -45.01374
  5274, 55.00000, -2.25743, -46.55250
  5275, 55.00000, -0.00000, -34.25000
  5276, 55.00000, -0.00000, -35.81250
  5277, 55.00000, -0.00000, -37.37500
  5278, 55.00000, -0.00000, -38.93750
  5279, 55.00000, -0.00000, -40.50000
  5280, 55.00000, -0.00000, -42.06250
  5281, 55.00000, -0.00000, -43.62500
  5282, 55.00000, -0.00000, -45.18750
  5283, 55.00000, -0.00000, -46.75000
  5284, 55.00000, 0.08682, -34.24240
  5285, 55.00000, 0.35815, -35.78117
  5286, 55.00000, 0.62947, -37.31993
  5287, 55.00000, 0.90080, -38.85869
  5288, 55.00000, 1.17213, -40.39745
  5289, 55.00000, 1.44345, -41.93621
  5290, 55.00000, 1.71478, -43.47498
  5291, 55.00000, 1.98610, -45.01374
  5292, 55.00000, 2.25743, -46.55250
  5293, 55.00000, 0.17101, -34.21985
  5294, 55.00000, 0.70542, -35.68812
  5295, 55.00000, 1.23982, -37.15639
  5296, 55.00000, 1.77423, -38.62466
  5297, 55.00000, 2.30864, -40.09293
  5298, 55.00000, 2.84304, -41.56119
  5299, 55.00000, 3.37745, -43.02946
  5300, 55.00000, 3.91186, -44.49773
  5301, 55.00000, 4.44626, -45.96600
  5302, 55.00000, 0.25000, -34.18301
  5303, 55.00000, 1.03125, -35.53618
  5304, 55.00000, 1.81250, -36.88934
  5305, 55.00000, 2.59375, -38.24251
  5306, 55.00000, 3.37500, -39.59567
  5307, 55.00000, 4.15625, -40.94884
  5308, 55.00000, 4.93750, -42.30200
  5309, 55.00000, 5.71875, -43.65517
  5310, 55.00000, 6.50000, -45.00833
  5311, 55.00000, 0.32139, -34.13302
  5312, 55.00000, 1.32575, -35.32997
  5313, 55.00000, 2.33011, -36.52691
  5314, 55.00000, 3.33446, -37.72386
  5315, 55.00000, 4.33882, -38.92080
  5316, 55.00000, 5.34317, -40.11774
  5317, 55.00000, 6.34753, -41.31469
  5318, 55.00000, 7.35188, -42.51163
  5319, 55.00000, 8.35624, -43.70858
  5320, 55.00000, 0.38302, -34.07139
  5321, 55.00000, 1.57997, -35.07575
  5322, 55.00000, 2.77691, -36.08011
  5323, 55.00000, 3.97386, -37.08446
  5324, 55.00000, 5.17080, -38.08882
  5325, 55.00000, 6.36774, -39.09317
  5326, 55.00000, 7.56469, -40.09753
  5327, 55.00000, 8.76163, -41.10188
  5328, 55.00000, 9.95858, -42.10624
  5329, 55.00000, 0.43301, -34.00000
  5330, 55.00000, 1.78618, -34.78125
  5331, 55.00000, 3.13934, -35.56250
  5332, 55.00000, 4.49251, -36.34375
  5333, 55.00000, 5.84567, -37.12500
  5334, 55.00000, 7.19884, -37.90625
  5335, 55.00000, 8.55200, -38.68750
  5336, 55.00000, 9.90517, -39.46875
  5337, 55.00000, 11.25833, -40.25000
  5338, 55.00000, 0.46985, -33.92101
  5339, 55.00000, 1.93812, -34.45542
  5340, 55.00000, 3.40639, -34.98982
  5341, 55.00000, 4.87466, -35.52423
  5342, 55.00000, 6.34293, -36.05864
  5343, 55.00000, 7.81119, -36.59304
  5344, 55.00000, 9.27946, -37.12745
  5345, 55.00000, 10.74773, -37.66186
  5346, 55.00000, 12.21600, -38.19626
  5347, 55.00000, 0.49240, -33.83682
  5348, 55.00000, 2.03117, -34.10815
  5349, 55.00000, 3.56993, -34.37947
  5350, 55.00000, 5.10869, -34.65080
  5351, 55.00000, 6.64745, -34.92213
  5352, 55.00000, 8.18621, -35.19345
  5353, 55.00000, 9.72498, -35.46478
  5354, 55.00000, 11.26374, -35.73610
  5355, 55.00000, 12.80250, -36.00743
  5356, 55.00000, 0.50000, -33.75000
  5357, 55.00000, 2.06250, -33.75000
  5358, 55.00000, 3.62500, -33.75000
  5359, 55.00000, 5.18750, -33.75000
  5360, 55.00000, 6.75000, -33.75000
  5361, 55.00000, 8.31250, -33.75000
  5362, 55.00000, 9.87500, -33.75000
  5363, 55.00000, 11.43750, -33.75000
  5364, 55.00000, 13.00000, -33.75000
  5365, 60.00000, 0.50000, -33.75000
  5366, 60.00000, 2.06250, -33.75000
  5367, 60.00000, 3.62500, -33.75000
  5368, 60.00000, 5.18750, -33.75000
  5369, 60.00000, 6.75000, -33.75000
  5370, 60.00000, 8.31250, -33.75000
  5371, 60.00000, 9.87500, -33.75000
  5372, 60.00000, 11.43750, -33.75000
  5373, 60.00000, 13.00000, -33.75000
  5374, 60.00000, 0.49240, -33.66318
  5375, 60.00000, 2.03117, -33.39185
  5376, 60.00000, 3.56993, -33.12053
  5377, 60.00000, 5.10869, -32.84920
  5378, 60.00000, 6.64745, -32.57787
  5379, 60.00000, 8.18621, -32.30655
  5380, 60.00000, 9.72498, -32.03522
  5381, 60.00000, 11.26374, -31.76390
  5382, 60.00000, 12.80250, -31.49257
  5383, 60.00000, 0.46985, -33.57899
  5384, 60.00000, 1.93812, -33.04458
  5385, 60.00000, 3.40639, -32.51018
  5386, 60.00000, 4.87466, -31.97577
  5387, 60.00000, 6.34293, -31.44136
  5388, 60.00000, 7.81119, -30.90696
  5389, 60.00000, 9.27946, -30.37255
  5390, 60.00000, 10.74773, -29.83814
  5391, 60.00000, 12.21600, -29.30374
  5392, 60.00000, 0.43301, -33.50000
  5393, 60.00000, 1.78618, -32.71875
  5394, 60.00000, 3.13934, -31.93750
  5395, 60.00000, 4.49251, -31.15625
  5396, 60.00000, 5.84567, -30.37500
  5397, 60.00000, 7.19884, -29.59375
  5398, 60.00000, 8.55200, -28.81250
  5399, 60.00000, 9.90517, -28.03125
  5400, 60.00000, 11.25833, -27.25000
  5401, 60.00000, 0.38302, -33.42861
  5402, 60.00000, 1.57997, -32.42425
  5403, 60.00000, 2.77691, -31.41989
  5404, 60.00000, 3.97386, -30.41554
  5405, 60.00000, 5.17080, -29.41118
  5406, 60.00000, 6.36774, -28.40683
  5407, 60.00000, 7.56469, -27.40247
  5408, 60.00000, 8.76163, -26.39812
  5409, 60.00000, 9.95858, -25.39376
  5410, 60.00000, 0.32139, -33.36698
  5411, 60.00000, 1.32575, -32.17003
  5412, 60.00000, 2.33011, -30.97309
  5413, 60.00000, 3.33446, -29.77614
  5414, 60.00000, 4.33882, -28.57920
  5415, 60.00000, 5.34317, -27.38226
  5416, 60.00000, 6.34753, -26.18531
  5417, 60.00000, 7.35188, -24.98837
  5418, 60.00000, 8.35624, -23.79142
  5419, 60.00000, 0.25000, -33.31699
  5420, 60.00000, 1.03125, -31.96382
  5421, 60.00000, 1.81250, -30.61066
  5422, 60.00000, 2.59375, -29.25749
  5423, 60.00000, 3.37500, -27.90433
  5424, 60.00000, 4.15625, -26.55116
  5425, 60.00000, 4.93750, -25.19800
  5426, 60.00000, 5.71875, -23.84483
  5427, 60.00000, 6.50000, -22.49167
  5428, 60.00000, 0.17101, -33.28015
  5429, 60.00000, 0.70542, -31.81188
  5430, 60.00000, 1.23982, -30.34361
  5431, 60.00000, 1.77423, -28.87534
  5432, 60.00000, 2.30864, -27.40707
  5433, 60.00000, 2.84304, -25.93881
  5434, 60.00000, 3.37745, -24.47054
  5435, 60.00000, 3.91186, -23.00227
  5436, 60.00000, 4.44626, -21.53400
  5437, 60.00000, 0.08682, -33.25760
  5438, 60.00000, 0.35815, -31.71883
  5439, 60.00000, 0.62947, -30.18007
  5440, 60.00000, 0.90080, -28.64131
  5441, 60.00000, 1.17213, -27.10255
  5442, 60.00000, 1.44345, -25.56379
  5443, 60.00000, 1.71478, -24.02502
  5444, 60.00000, 1.98610, -22.48626
  5445, 60.00000, 2.25743, -20.94750
  5446, 60.00000, 0.00000, -33.25000
  5447, 60.00000, 0.00000, -31.68750
  5448, 60.00000, 0.00000, -30.12500
  5449, 60.00000, 0.00000, -28.56250
  5450, 60.00000, 0.00000, -27.00000
  5451, 60.00000, 0.00000, -25.43750
  5452, 60.00000, 0.00000, -23.87500
  5453, 60.00000, 0.00000, -22.31250
  5454, 60.00000, 0.00000, -20.75000
  5455, 60.00000, -0.08682, -33.25760
  5456, 60.00000, -0.35815, -31.71883
  5457, 60.00000, -0.62947, -30.18007
  5458, 60.00000, -0.90080, -28.64131
  5459, 60.00000, -1.17213, -27.10255
  5460, 60.00000, -1.44345, -25.56379
  5461, 60.00000, -1.71478, -24.02502
  5462, 60.00000, -1.98610, -22.48626
  5463, 60.00000, -2.25743, -20.94750
  5464, 60.00000, -0.17101, -33.28015
  5465, 60.00000, -0.70542, -31.81188
  5466, 60.00000, -1.23982, -30.34361
  5467, 60.00000, -1.77423, -28.87534
  5468, 60.00000, -2.30864, -27.40707
  5469, 60.00000, -2.84304, -25.93881
  5470, 60.00000, -3.37745, -24.47054
  5471, 60.00000, -3.91186, -23.00227
  5472, 60.00000, -4.44626, -21.53400
  5473, 60.00000, -0.25000, -33.31699
  5474, 60.00000, -1.03125, -31.96382
  5475, 60.00000, -1.81250, -30.61066
  5476, 60.00000, -2.59375, -29.25749
  5477, 60.00000, -3.37500, -27.90433
  5478, 60.00000, -4.15625, -26.55116
  5479, 60.00000, -4.93750, -25.19800
  5480, 60.00000, -5.71875, -23.84483
  5481, 60.00000, -6.50000, -22.49167
  5482, 60.00000, -0.32139, -33.36698
  5483, 60.00000, -1.32575, -32.17003
  5484, 60.00000, -2.33011, -30.97309
  5485, 60.00000, -3.33446, -29.77614
  5486, 60.00000, -4.33882, -28.57920
  5487, 60.00000, -5.34317, -27.38226
  5488, 60.00000, -6.34753, -26.18531
  5489, 60.00000, -7.35188, -24.98837
  5490, 60.00000, -8.35624, -23.79142
  5491, 60.00000, -0.38302, -33.42861
  5492, 60.00000, -1.57997, -32.42425
  5493, 60.00000, -2.77691, -31.41989
  5494, 60.00000, -3.97386, -30.41554
  5495, 60.00000, -5.17080, -29.41118
  5496, 60.00000, -6.36774, -28.40683
  5497, 60.00000, -7.56469, -27.40247
  5498, 60.00000, -8.76163, -26.39812
  5499, 60.00000, -9.95858, -25.39376
  5500, 60.00000, -0.43301, -33.50000
  5501, 60.00000, -1.78618, -32.71875
  5502, 60.00000, -3.13934, -31.93750
  5503, 60.00000, -4.49251, -31.15625
  5504, 60.00000, -5.84567, -30.37500
  5505, 60.00000, -7.19884, -29.59375
  5506, 60.00000, -8.55200, -28.81250
  5507, 60.00000, -9.90517, -28.03125
  5508, 60.00000, -11.25833, -27.25000
  5509, 60.00000, -0.46985, -33.57899
  5510, 60.00000, -1.93812, -33.04458
  5511, 60.00000, -3.40639, -32.51018
  5512, 60.00000, -4.87466, -31.97577
  5513, 60.00000, -6.34293, -31.44136
  5514, 60.00000, -7.81119, -30.90696
  5515, 60.00000, -9.27946, -30.37255
  5516, 60.00000, -10.74773, -29.83814
  5517, 60.00000, -12.21600, -29.30374
  5518, 60.00000, -0.49240, -33.66318
  5519, 60.00000, -2.03117, -33.39185
  5520, 60.00000, -3.56993, -33.12053
  5521, 60.00000, -5.10869, -32.84920
  5522, 60.00000, -6.64745, -32.57787
  5523, 60.00000, -8.18621, -32.30655
  5524, 60.00000, -9.72498, -32.03522
  5525, 60.00000, -11.26374, -31.76390
  5526, 60.00000, -12.80250, -31.49257
  5527, 60.00000, -0.50000, -33.75000
  5528, 60.00000, -2.06250, -33.75000
  5529, 60.00000, -3.62500, -33.75000
  5530, 60.00000, -5.18750, -33.75000
  5531, 60.00000, -6.75000, -33.75000
  5532, 60.00000, -8.31250, -33.75000
  5533, 60.00000, -9.87500, -33.75000
  5534, 60.00000, -11.43750, -33.75000
  5535, 60.00000, -13.00000, -33.75000
  5536, 60.00000, -0.49240, -33.83682
  5537, 60.00000, -2.03117, -34.10815
  5538, 60.00000, -3.56993, -34.37947
  5539, 60.00000, -5.10869, -34.65080
  5540, 60.00000, -6.64745, -34.92213
  5541, 60.00000, -8.18621, -35.19345
  5542, 60.00000, -9.72498, -35.46478
  5543, 60.00000, -11.26374, -35.73610
  5544, 60.00000, -12.80250, -36.00743
  5545, 60.00000, -0.46985, -33.92101
  5546, 60.00000, -1.93812, -34.45542
  5547, 60.00000, -3.40639, -34.98982
  5548, 60.00000, -4.87466, -35.52423
  5549, 60.00000, -6.34293, -36.05864
  5550, 60.00000, -7.81119, -36.59304
  5551, 60.00000, -9.27946, -37.12745
  5552, 60.00000, -10.74773, -37.66186
  5553, 60.00000, -12.21600, -38.19626
  5554, 60.00000, -0.43301, -34.00000
  5555, 60.00000, -1.78618, -34.78125
  5556, 60.00000, -3.13934, -35.56250
  5557, 60.00000, -4.49251, -36.34375
  5558, 60.00000, -5.84567, -37.12500
  5559, 60.00000, -7.19884, -37.90625
  5560, 60.00000, -8.55200, -38.68750
  5561, 60.00000, -9.90517, -39.46875
  5562, 60.00000, -11.25833, -40.25000
  5563, 60.00000, -0.38302, -34.07139
  5564, 60.00000, -1.57997, -35.07575
  5565, 60.00000, -2.77691, -36.08011
  5566, 60.00000, -3.97386, -37.08446
  5567, 60.00000, -5.17080, -38.08882
  5568, 60.00000, -6.36774, -39.09317
  5569, 60.00000, -7.56469, -40.09753
  5570, 60.00000, -8.76163, -41.10188
  5571, 60.00000, -9.95858, -42.10624
  5572, 60.00000, -0.32139, -34.13302
  5573, 60.00000, -1.32575, -35.32997
  5574, 60.00000, -2.33011, -36.52691
  5575, 60.00000, -3.33446, -37.72386
  5576, 60.00000, -4.33882, -38.92080
  5577, 60.00000, -5.34317, -40.11774
  5578, 60.00000, -6.34753, -41.31469
  5579, 60.00000, -7.35188, -42.51163
  5580, 60.00000, -8.35624, -43.70858
  5581, 60.00000, -0.25000, -34.18301
  5582, 60.00000, -1.03125, -35.53618
  5583, 60.00000, -1.81250, -36.88934
  5584, 60.00000, -2.59375, -38.24251
  5585, 60.00000, -3.37500, -39.59567
  5586, 60.00000, -4.15625, -40.94884
  5587, 60.00000, -4.93750, -42.30200
  5588, 60.00000, -5.71875, -43.65517
  5589, 60.00000, -6.50000, -45.00833
  5590, 60.00000, -0.17101, -34.21985
  5591, 60.00000, -0.70542, -35.68812
  5592, 60.00000, -1.23982, -37.15639
  5593, 60.00000, -1.77423, -38.62466
  5594, 60.00000, -2.30864, -40.09293
  5595, 60.00000, -2.84304, -41.56119
  5596, 60.00000, -3.37745, -43.02946
  5597, 60.00000, -3.91186, -44.49773
  5598, 60.00000, -4.44626, -45.96600
  5599, 60.00000, -0.08682, -34.24240
  5600, 60.00000, -0.35815, -35.78117
  5601, 60.00000, -0.62947, -37.31993
  5602, 60.00000, -0.90080, -38.85869
  5603, 60.00000, -1.17213, -40.39745
  5604, 60.00000, -1.44345, -41.93621
  5605, 60.00000, -1.71478, -43.47498
  5606, 60.00000, -1.98610, -45.01374
  5607, 60.00000, -2.25743, -46.55250
  5608, 60.00000, -0.00000, -34.25000
  5609, 60.00000, -0.00000, -35.81250
  5610, 60.00000, -0.00000, -37.37500
  5611, 60.00000, -0.00000, -38.93750
  5612, 60.00000, -0.00000, -40.50000
  5613, 60.00000, -0.00000, -42.06250
  5614, 60.00000, -0.00000, -43.62500
  5615, 60.00000, -0.00000, -45.18750
  5616, 60.00000, -0.00000, -46.75000
  5617, 60.00000, 0.08682, -34.24240
  5618, 60.00000, 0.35815, -35.78117
  5619, 60.00000, 0.62947, -37.31993
  5620, 60.00000, 0.90080, -38.85869
  5621, 60.00000, 1.17213, -40.39745
  5622, 60.00000, 1.44345, -41.93621
  5623, 60.00000, 1.71478, -43.47498
  5624, 60.00000, 1.98610, -45.01374
  5625, 60.00000, 2.25743, -46.55250
  5626, 60.00000, 0.17101, -34.21985
  5627, 60.00000, 0.70542, -35.68812
  5628, 60.00000, 1.23982, -37.15639
  5629, 60.00000, 1.77423, -38.62466
  5630, 60.00000, 2.30864, -40.09293
  5631, 60.00000, 2.84304, -41.56119
  5632, 60.00000, 3.37745, -43.02946
  5633, 60.00000, 3.91186, -44.49773
  5634, 60.00000, 4.44626, -45.96600
  5635, 60.00000, 0.25000, -34.18301
  5636, 60.00000, 1.03125, -35.53618
  5637, 60.00000, 1.81250, -36.88934
  5638, 60.00000, 2.59375, -38.24251
  5639, 60.00000, 3.37500, -39.59567
  5640, 60.00000, 4.15625, -40.94884
  5641, 60.00000, 4.93750, -42.30200
  5642, 60.00000, 5.71875, -43.65517
  5643, 60.00000, 6.50000, -45.00833
  5644, 60.00000, 0.32139, -34.13302
  5645, 60.00000, 1.32575, -35.32997
  5646, 60.00000, 2.33011, -36.52691
  5647, 60.00000, 3.33446, -37.72386
  5648, 60.00000, 4.33882, -38.92080
  5649, 60.00000, 5.34317, -40.11774
  5650, 60.00000, 6.34753, -41.31469
  5651, 60.00000, 7.35188, -42.51163
  5652, 60.00000, 8.35624, -43.70858
  5653, 60.00000, 0.38302, -34.07139
  5654, 60.00000, 1.57997, -35.07575
  5655, 60.00000, 2.77691, -36.08011
  5656, 60.00000, 3.97386, -37.08446
  5657, 60.00000, 5.17080, -38.08882
  5658, 60.00000, 6.36774, -39.09317
  5659, 60.00000, 7.56469, -40.09753
  5660, 60.00000, 8.76163, -41.10188
  5661, 60.00000, 9.95858, -42.10624
  5662, 60.00000, 0.43301, -34.00000
  5663, 60.00000, 1.78618, -34.78125
  5664, 60.00000, 3.13934, -35.56250
  5665, 60.00000, 4.49251, -36.34375
  5666, 60.00000, 5.84567, -37.12500
  5667, 60.00000, 7.19884, -37.90625
  5668, 60.00000, 8.55200, -38.68750
  5669, 60.00000, 9.90517, -39.46875
  5670, 60.00000, 11.25833, -40.25000
  5671, 60.00000, 0.46985, -33.92101
  5672, 60.00000, 1.93812, -34.45542
  5673, 60.00000, 3.40639, -34.98982
  5674, 60.00000, 4.87466, -35.52423
  5675, 60.00000, 6.34293, -36.05864
  5676, 60.00000, 7.81119, -36.59304
  5677, 60.00000, 9.27946, -37.12745
  5678, 60.00000, 10.74773, -37.66186
  5679, 60.00000, 12.21600, -38.19626
  5680, 60.00000, 0.49240, -33.83682
  5681, 60.00000, 2.03117, -34.10815
  5682, 60.00000, 3.56993, -34.37947
  5683, 60.00000, 5.10869, -34.65080
  5684, 60.00000, 6.64745, -34.92213
  5685, 60.00000, 8.18621, -35.19345
  5686, 60.00000, 9.72498, -35.46478
  5687, 60.00000, 11.26374, -35.73610
  5688, 60.00000, 12.80250, -36.00743
  5689, 60.00000, 0.50000, -33.75000
  5690, 60.00000, 2.06250, -33.75000
  5691, 60.00000, 3.62500, -33.75000
  5692, 60.00000, 5.18750, -33.75000
  5693, 60.00000, 6.75000, -33.75000
  5694, 60.00000, 8.31250, -33.75000
  5695, 60.00000, 9.87500, -33.75000
  5696, 60.00000, 11.43750, -33.75000
  5697, 60.00000, 13.00000, -33.75000
  5698, 65.00000, 0.50000, -33.75000
  5699, 65.00000, 2.06250, -33.75000
  5700, 65.00000, 3.62500, -33.75000
  5701, 65.00000, 5.18750, -33.75000
  5702, 65.00000, 6.75000, -33.75000
  5703, 65.00000, 8.31250, -33.75000
  5704, 65.00000, 9.87500, -33.75000
  5705, 65.00000, 11.43750, -33.75000
  5706, 65.00000, 13.00000, -33.75000
  5707, 65.00000, 0.49240, -33.66318
  5708, 65.00000, 2.03117, -33.39185
  5709, 65.00000, 3.56993, -33.12053
  5710, 65.00000, 5.10869, -32.84920
  5711, 65.00000, 6.64745, -32.57787
  5712, 65.00000, 8.18621, -32.30655
  5713, 65.00000, 9.72498, -32.03522
  5714, 65.00000, 11.26374, -31.76390
  5715, 65.00000, 12.80250, -31.49257
  5716, 65.00000, 0.46985, -33.57899
  5717, 65.00000, 1.93812, -33.04458
  5718, 65.00000, 3.40639, -32.51018
  5719, 65.00000, 4.87466, -31.97577
  5720, 65.00000, 6.34293, -31.44136
  5721, 65.00000, 7.81119, -30.90696
  5722, 65.00000, 9.27946, -30.37255
  5723, 65.00000, 10.74773, -29.83814
  5724, 65.00000, 12.21600, -29.30374
  5725, 65.00000, 0.43301, -33.50000
  5726, 65.00000, 1.78618, -32.71875
  5727, 65.00000, 3.13934, -31.93750
  5728, 65.00000, 4.49251, -31.15625
  5729, 65.00000, 5.84567, -30.37500
  5730, 65.00000, 7.19884, -29.59375
  5731, 65.00000, 8.55200, -28.81250
  5732, 65.00000, 9.90517, -28.03125
  5733, 65.00000, 11.25833, -27.25000
  5734, 65.00000, 0.38302, -33.42861
  5735, 65.00000, 1.57997, -32.42425
  5736, 65.00000, 2.77691, -31.41989
  5737, 65.00000, 3.97386, -30.41554
  5738, 65.00000, 5.17080, -29.41118
  5739, 65.00000, 6.36774, -28.40683
  5740, 65.00000, 7.56469, -27.40247
  5741, 65.00000, 8.76163, -26.39812
  5742, 65.00000, 9.95858, -25.39376
  5743, 65.00000, 0.32139, -33.36698
  5744, 65.00000, 1.32575, -32.17003
  5745, 65.00000, 2.33011, -30.97309
  5746, 65.00000, 3.33446, -29.77614
  5747, 65.00000, 4.33882, -28.57920
  5748, 65.00000, 5.34317, -27.38226
  5749, 65.00000, 6.34753, -26.18531
  5750, 65.00000, 7.35188, -24.98837
  5751, 65.00000, 8.35624, -23.79142
  5752, 65.00000, 0.25000, -33.31699
  5753, 65.00000, 1.03125, -31.96382
  5754, 65.00000, 1.81250, -30.61066
  5755, 65.00000, 2.59375, -29.25749
  5756, 65.00000, 3.37500, -27.90433
  5757, 65.00000, 4.15625, -26.55116
  5758, 65.00000, 4.93750, -25.19800
  5759, 65.00000, 5.71875, -23.84483
  5760, 65.00000, 6.50000, -22.49167
  5761, 65.00000, 0.17101, -33.28015
  5762, 65.00000, 0.70542, -31.81188
  5763, 65.00000, 1.23982, -30.34361
  5764, 65.00000, 1.77423, -28.87534
  5765, 65.00000, 2.30864, -27.40707
  5766, 65.00000, 2.84304, -25.93881
  5767, 65.00000, 3.37745, -24.47054
  5768, 65.00000, 3.91186, -23.00227
  5769, 65.00000, 4.44626, -21.53400
  5770, 65.00000, 0.08682, -33.25760
  5771, 65.00000, 0.35815, -31.71883
  5772, 65.00000, 0.62947, -30.18007
  5773, 65.00000, 0.90080, -28.64131
  5774, 65.00000, 1.17213, -27.10255
  5775, 65.00000, 1.44345, -25.56379
  5776, 65.00000, 1.71478, -24.02502
  5777, 65.00000, 1.98610, -22.48626
  5778, 65.00000, 2.25743, -20.94750
  5779, 65.00000, 0.00000, -33.25000
  5780, 65.00000, 0.00000, -31.68750
  5781, 65.00000, 0.00000, -30.12500
  5782, 65.00000, 0.00000, -28.56250
  5783, 65.00000, 0.00000, -27.00000
  5784, 65.00000, 0.00000, -25.43750
  5785, 65.00000, 0.00000, -23.87500
  5786, 65.00000, 0.00000, -22.31250
  5787, 65.00000, 0.00000, -20.75000
  5788, 65.00000, -0.08682, -33.25760
  5789, 65.00000, -0.35815, -31.71883
  5790, 65.00000, -0.62947, -30.18007
  5791, 65.00000, -0.90080, -28.64131
  5792, 65.00000, -1.17213, -27.10255
  5793, 65.00000, -1.44345, -25.56379
  5794, 65.00000, -1.71478, -24.02502
  5795, 65.00000, -1.98610, -22.48626
  5796, 65.00000, -2.25743, -20.94750
  5797, 65.00000, -0.17101, -33.28015
  5798, 65.00000, -0.70542, -31.81188
  5799, 65.00000, -1.23982, -30.34361
  5800, 65.00000, -1.77423, -28.87534
  5801, 65.00000, -2.30864, -27.40707
  5802, 65.00000, -2.84304, -25.93881
  5803, 65.00000, -3.37745, -24.47054
  5804, 65.00000, -3.91186, -23.00227
  5805, 65.00000, -4.44626, -21.53400
  5806, 65.00000, -0.25000, -33.31699
  5807, 65.00000, -1.03125, -31.96382
  5808, 65.00000, -1.81250, -30.61066
  5809, 65.00000, -2.59375, -29.25749
  5810, 65.00000, -3.37500, -27.90433
  5811, 65.00000, -4.15625, -26.55116
  5812, 65.00000, -4.93750, -25.19800
  5813, 65.00000, -5.71875, -23.84483
  5814, 65.00000, -6.50000, -22.49167
  5815, 65.00000, -0.32139, -33.36698
  5816, 65.00000, -1.32575, -32.17003
  5817, 65.00000, -2.33011, -30.97309
  5818, 65.00000, -3.33446, -29.77614
  5819, 65.00000, -4.33882, -28.57920
  5820, 65.00000, -5.34317, -27.38226
  5821, 65.00000, -6.34753, -26.18531
  5822, 65.00000, -7.35188, -24.98837
  5823, 65.00000, -8.35624, -23.79142
  5824, 65.00000, -0.38302, -33.42861
  5825, 65.00000, -1.57997, -32.42425
  5826, 65.00000, -2.77691, -31.41989
  5827, 65.00000, -3.97386, -30.41554
  5828, 65.00000, -5.17080, -29.41118
  5829, 65.00000, -6.36774, -28.40683
  5830, 65.00000, -7.56469, -27.40247
  5831, 65.00000, -8.76163, -26.39812
  5832, 65.00000, -9.95858, -25.39376
  5833, 65.00000, -0.43301, -33.50000
  5834, 65.00000, -1.78618, -32.71875
  5835, 65.00000, -3.13934, -31.93750
  5836, 65.00000, -4.49251, -31.15625
  5837, 65.00000, -5.84567, -30.37500
  5838, 65.00000, -7.19884, -29.59375
  5839, 65.00000, -8.55200, -28.81250
  5840, 65.00000, -9.90517, -28.03125
  5841, 65.00000, -11.25833, -27.25000
  5842, 65.00000, -0.46985, -33.57899
  5843, 65.00000, -1.93812, -33.04458
  5844, 65.00000, -3.40639, -32.51018
  5845, 65.00000, -4.87466, -31.97577
  5846, 65.00000, -6.34293, -31.44136
  5847, 65.00000, -7.81119, -30.90696
  5848, 65.00000, -9.27946, -30.37255
  5849, 65.00000, -10.74773, -29.83814
  5850, 65.00000, -12.21600, -29.30374
  5851, 65.00000, -0.49240, -33.66318
  5852, 65.00000, -2.03117, -33.39185
  5853, 65.00000, -3.56993, -33.12053
  5854, 65.00000, -5.10869, -32.84920
  5855, 65.00000, -6.64745, -32.57787
  5856, 65.00000, -8.18621, -32.30655
  5857, 65.00000, -9.72498, -32.03522
  5858, 65.00000, -11.26374, -31.76390
  5859, 65.00000, -12.80250, -31.49257
  5860, 65.00000, -0.50000, -33.75000
  5861, 65.00000, -2.06250, -33.75000
  5862, 65.00000, -3.62500, -33.75000
  5863, 65.00000, -5.18750, -33.75000
  5864, 65.00000, -6.75000, -33.75000
  5865, 65.00000, -8.31250, -33.75000
  5866, 65.00000, -9.87500, -33.75000
  5867, 65.00000, -11.43750, -33.75000
  5868, 65.00000, -13.00000, -33.75000
  5869, 65.00000, -0.49240, -33.83682
  5870, 65.00000, -2.03117, -34.10815
  5871, 65.00000, -3.56993, -34.37947
  5872, 65.00000, -5.10869, -34.65080
  5873, 65.00000, -6.64745, -34.92213
  5874, 65.00000, -8.18621, -35.19345
  5875, 65.00000, -9.72498, -35.46478
  5876, 65.00000, -11.26374, -35.73610
  5877, 65.00000, -12.80250, -36.00743
  5878, 65.00000, -0.46985, -33.92101
  5879, 65.00000, -1.93812, -34.45542
  5880, 65.00000, -3.40639, -34.98982
  5881, 65.00000, -4.87466, -35.52423
  5882, 65.00000, -6.34293, -36.05864
  5883, 65.00000, -7.81119, -36.59304
  5884, 65.00000, -9.27946, -37.12745
  5885, 65.00000, -10.74773, -37.66186
  5886, 65.00000, -12.21600, -38.19626
  5887, 65.00000, -0.43301, -34.00000
  5888, 65.00000, -1.78618, -34.78125
  5889, 65.00000, -3.13934, -35.56250
  5890, 65.00000, -4.49251, -36.34375
  5891, 65.00000, -5.84567, -37.12500
  5892, 65.00000, -7.19884, -37.90625
  5893, 65.00000, -8.55200, -38.68750
  5894, 65.00000, -9.90517, -39.46875
  5895, 65.00000, -11.25833, -40.25000
  5896, 65.00000, -0.38302, -34.07139
  5897, 65.00000, -1.57997, -35.07575
  5898, 65.00000, -2.77691, -36.08011
  5899, 65.00000, -3.97386, -37.08446
  5900, 65.00000, -5.17080, -38.08882
  5901, 65.00000, -6.36774, -39.09317
  5902, 65.00000, -7.56469, -40.09753
  5903, 65.00000, -8.76163, -41.10188
  5904, 65.00000, -9.95858, -42.10624
  5905, 65.00000, -0.32139, -34.13302
  5906, 65.00000, -1.32575, -35.32997
  5907, 65.00000, -2.33011, -36.52691
  5908, 65.00000, -3.33446, -37.72386
  5909, 65.00000, -4.33882, -38.92080
  5910, 65.00000, -5.34317, -40.11774
  5911, 65.00000, -6.34753, -41.31469
  5912, 65.00000, -7.35188, -42.51163
  5913, 65.00000, -8.35624, -43.70858
  5914, 65.00000, -0.25000, -34.18301
  5915, 65.00000, -1.03125, -35.53618
  5916, 65.00000, -1.81250, -36.88934
  5917, 65.00000, -2.59375, -38.24251
  5918, 65.00000, -3.37500, -39.59567
  5919, 65.00000, -4.15625, -40.94884
  5920, 65.00000, -4.93750, -42.30200
  5921, 65.00000, -5.71875, -43.65517
  5922, 65.00000, -6.50000, -45.00833
  5923, 65.00000, -0.17101, -34.21985
  5924, 65.00000, -0.70542, -35.68812
  5925, 65.00000, -1.23982, -37.15639
  5926, 65.00000, -1.77423, -38.62466
  5927, 65.00000, -2.30864, -40.09293
  5928, 65.00000, -2.84304, -41.56119
  5929, 65.00000, -3.37745, -43.02946
  5930, 65.00000, -3.91186, -44.49773
  5931, 65.00000, -4.44626, -45.96600
  5932, 65.00000, -0.08682, -34.24240
  5933, 65.00000, -0.35815, -35.78117
  5934, 65.00000, -0.62947, -37.31993
  5935, 65.00000, -0.90080, -38.85869
  5936, 65.00000, -1.17213, -40.39745
  5937, 65.00000, -1.44345, -41.93621
  5938, 65.00000, -1.71478, -43.47498
  5939, 65.00000, -1.98610, -45.01374
  5940, 65.00000, -2.25743, -46.55250
  5941, 65.00000, -0.00000, -34.25000
  5942, 65.00000, -0.00000, -35.81250
  5943, 65.00000, -0.00000, -37.37500
  5944, 65.00000, -0.00000, -38.93750
  5945, 65.00000, -0.00000, -40.50000
  5946, 65.00000, -0.00000, -42.06250
  5947, 65.00000, -0.00000, -43.62500
  5948, 65.00000, -0.00000, -45.18750
  5949, 65.00000, -0.00000, -46.75000
  5950, 65.00000, 0.08682, -34.24240
  5951, 65.00000, 0.35815, -35.78117
  5952, 65.00000, 0.62947, -37.31993
  5953, 65.00000, 0.90080, -38.85869
  5954, 65.00000, 1.17213, -40.39745
  5955, 65.00000, 1.44345, -41.93621
  5956, 65.00000, 1.71478, -43.47498
  5957, 65.00000, 1.98610, -45.01374
  5958, 65.00000, 2.25743, -46.55250
  5959, 65.00000, 0.17101, -34.21985
  5960, 65.00000, 0.70542, -35.68812
  5961, 65.00000, 1.23982, -37.15639
  5962, 65.00000, 1.77423, -38.62466
  5963, 65.00000, 2.30864, -40.09293
  5964, 65.00000, 2.84304, -41.56119
  5965, 65.00000, 3.37745, -43.02946
  5966, 65.00000, 3.91186, -44.49773
  5967, 65.00000, 4.44626, -45.96600
  5968, 65.00000, 0.25000, -34.18301
  5969, 65.00000, 1.03125, -35.53618
  5970, 65.00000, 1.81250, -36.88934
  5971, 65.00000, 2.59375, -38.24251
  5972, 65.00000, 3.37500, -39.59567
  5973, 65.00000, 4.15625, -40.94884
  5974, 65.00000, 4.93750, -42.30200
  5975, 65.00000, 5.71875, -43.65517
  5976, 65.00000, 6.50000, -45.00833
  5977, 65.00000, 0.32139, -34.13302
  5978, 65.00000, 1.32575, -35.32997
  5979, 65.00000, 2.33011, -36.52691
  5980, 65.00000, 3.33446, -37.72386
  5981, 65.00000, 4.33882, -38.92080
  5982, 65.00000, 5.34317, -40.11774
  5983, 65.00000, 6.34753, -41.31469
  5984, 65.00000, 7.35188, -42.51163
  5985, 65.00000, 8.35624, -43.70858
  5986, 65.00000, 0.38302, -34.07139
  5987, 65.00000, 1.57997, -35.07575
  5988, 65.00000, 2.77691, -36.08011
  5989, 65.00000, 3.97386, -37.08446
  5990, 65.00000, 5.17080, -38.08882
  5991, 65.00000, 6.36774, -39.09317
  5992, 65.00000, 7.56469, -40.09753
  5993, 65.00000, 8.76163, -41.10188
  5994, 65.00000, 9.95858, -42.10624
  5995, 65.00000, 0.43301, -34.00000
  5996, 65.00000, 1.78618, -34.78125
  5997, 65.00000, 3.13934, -35.56250
  5998, 65.00000, 4.49251, -36.34375
  5999, 65.00000, 5.84567, -37.12500
  6000, 65.00000, 7.19884, -37.90625
  6001, 65.00000, 8.55200, -38.68750
  6002, 65.00000, 9.90517, -39.46875
  6003, 65.00000, 11.25833, -40.25000
  6004, 65.00000, 0.46985, -33.92101
  6005, 65.00000, 1.93812, -34.45542
  6006, 65.00000, 3.40639, -34.98982
  6007, 65.00000, 4.87466, -35.52423
  6008, 65.00000, 6.34293, -36.05864
  6009, 65.00000, 7.81119, -36.59304
  6010, 65.00000, 9.27946, -37.12745
  6011, 65.00000, 10.74773, -37.66186
  6012, 65.00000, 12.21600, -38.19626
  6013, 65.00000, 0.49240, -33.83682
  6014, 65.00000, 2.03117, -34.10815
  6015, 65.00000, 3.56993, -34.37947
  6016, 65.00000, 5.10869, -34.65080
  6017, 65.00000, 6.64745, -34.92213
  6018, 65.00000, 8.18621, -35.19345
  6019, 65.00000, 9.72498, -35.46478
  6020, 65.00000, 11.26374, -35.73610
  6021, 65.00000, 12.80250, -36.00743
  6022, 65.00000, 0.50000, -33.75000
  6023, 65.00000, 2.06250, -33.75000
  6024, 65.00000, 3.62500, -33.75000
  6025, 65.00000, 5.18750, -33.75000
  6026, 65.00000, 6.75000, -33.75000
  6027, 65.00000, 8.31250, -33.75000
  6028, 65.00000, 9.87500, -33.75000
  6029, 65.00000, 11.43750, -33.75000
  6030, 65.00000, 13.00000, -33.75000
  6031, 70.00000, 0.50000, -33.75000
  6032, 70.00000, 2.06250, -33.75000
  6033, 70.00000, 3.62500, -33.75000
  6034, 70.00000, 5.18750, -33.75000
  6035, 70.00000, 6.75000, -33.75000
  6036, 70.00000, 8.31250, -33.75000
  6037, 70.00000, 9.87500, -33.75000
  6038, 70.00000, 11.43750, -33.75000
  6039, 70.00000, 13.00000, -33.75000
  6040, 70.00000, 0.49240, -33.66318
  6041, 70.00000, 2.03117, -33.39185
  6042, 70.00000, 3.56993, -33.12053
  6043, 70.00000, 5.10869, -32.84920
  6044, 70.00000, 6.64745, -32.57787
  6045, 70.00000, 8.18621, -32.30655
  6046, 70.00000, 9.72498, -32.03522
  6047, 70.00000, 11.26374, -31.76390
  6048, 70.00000, 12.80250, -31.49257
  6049, 70.00000, 0.46985, -33.57899
  6050, 70.00000, 1.93812, -33.04458
  6051, 70.00000, 3.40639, -32.51018
  6052, 70.00000, 4.87466, -31.97577
  6053, 70.00000, 6.34293, -31.44136
  6054, 70.00000, 7.81119, -30.90696
  6055, 70.00000, 9.27946, -30.37255
  6056, 70.00000, 10.74773, -29.83814
  6057, 70.00000, 12.21600, -29.30374
  6058, 70.00000, 0.43301, -33.50000
  6059, 70.00000, 1.78618, -32.71875
  6060, 70.00000, 3.13934, -31.93750
  6061, 70.00000, 4.49251, -31.15625
  6062, 70.00000, 5.84567, -30.37500
  6063, 70.00000, 7.19884, -29.59375
  6064, 70.00000, 8.55200, -28.81250
  6065, 70.00000, 9.90517, -28.03125
  6066, 70.00000, 11.25833, -27.25000
  6067, 70.00000, 0.38302, -33.42861
  6068, 70.00000, 1.57997, -32.42425
  6069, 70.00000, 2.77691, -31.41989
  6070, 70.00000, 3.97386, -30.41554
  6071, 70.00000, 5.17080, -29.41118
  6072, 70.00000, 6.36774, -28.40683
  6073, 70.00000, 7.56469, -27.40247
  6074, 70.00000, 8.76163, -26.39812
  6075, 70.00000, 9.95858, -25.39376
  6076, 70.00000, 0.32139, -33.36698
  6077, 70.00000, 1.32575, -32.17003
  6078, 70.00000, 2.33011, -30.97309
  6079, 70.00000, 3.33446, -29.77614
  6080, 70.00000, 4.33882, -28.57920
  6081, 70.00000, 5.34317, -27.38226
  6082, 70.00000, 6.34753, -26.18531
  6083, 70.00000, 7.35188, -24.98837
  6084, 70.00000, 8.35624, -23.79142
  6085, 70.00000, 0.25000, -33.31699
  6086, 70.00000, 1.03125, -31.96382
  6087, 70.00000, 1.81250, -30.61066
  6088, 70.00000, 2.59375, -29.25749
  6089, 70.00000, 3.37500, -27.90433
  6090, 70.00000, 4.15625, -26.55116
  6091, 70.00000, 4.93750, -25.19800
  6092, 70.00000, 5.71875, -23.84483
  6093, 70.00000, 6.50000, -22.49167
  6094, 70.00000, 0.17101, -33.28015
  6095, 70.00000, 0.70542, -31.81188
  6096, 70.00000, 1.23982, -30.34361
  6097, 70.00000, 1.77423, -28.87534
  6098, 70.00000, 2.30864, -27.40707
  6099, 70.00000, 2.84304, -25.93881
  6100, 70.00000, 3.37745, -24.47054
  6101, 70.00000, 3.91186, -23.00227
  6102, 70.00000, 4.44626, -21.53400
  6103, 70.00000, 0.08682, -33.25760
  6104, 70.00000, 0.35815, -31.71883
  6105, 70.00000, 0.62947, -30.18007
  6106, 70.00000, 0.90080, -28.64131
  6107, 70.00000, 1.17213, -27.10255
  6108, 70.00000, 1.44345, -25.56379
  6109, 70.00000, 1.71478, -24.02502
  6110, 70.00000, 1.98610, -22.48626
  6111, 70.00000, 2.25743, -20.94750
  6112, 70.00000, 0.00000, -33.25000
  6113, 70.00000, 0.00000, -31.68750
  6114, 70.00000, 0.00000, -30.12500
  6115, 70.00000, 0.00000, -28.56250
  6116, 70.00000, 0.00000, -27.00000
  6117, 70.00000, 0.00000, -25.43750
  6118, 70.00000, 0.00000, -23.87500
  6119, 70.00000, 0.00000, -22.31250
  6120, 70.00000, 0.00000, -20.75000
  6121, 70.00000, -0.08682, -33.25760
  6122, 70.00000, -0.35815, -31.71883
  6123, 70.00000, -0.62947, -30.18007
  6124, 70.00000, -0.90080, -28.64131
  6125, 70.00000, -1.17213, -27.10255
  6126, 70.00000, -1.44345, -25.56379
  6127, 70.00000, -1.71478, -24.02502
  6128, 70.00000, -1.98610, -22.48626
  6129, 70.00000, -2.25743, -20.94750
  6130, 70.00000, -0.17101, -33.28015
  6131, 70.00000, -0.70542, -31.81188
  6132, 70.00000, -1.23982, -30.34361
  6133, 70.00000, -1.77423, -28.87534
  6134, 70.00000, -2.30864, -27.40707
  6135, 70.00000, -2.84304, -25.93881
  6136, 70.00000, -3.37745, -24.47054
  6137, 70.00000, -3.91186, -23.00227
  6138, 70.00000, -4.44626, -21.53400
  6139, 70.00000, -0.25000, -33.31699
  6140, 70.00000, -1.03125, -31.96382
  6141, 70.00000, -1.81250, -30.61066
  6142, 70.00000, -2.59375, -29.25749
  6143, 70.00000, -3.37500, -27.90433
  6144, 70.00000, -4.15625, -26.55116
  6145, 70.00000, -4.93750, -25.19800
  6146, 70.00000, -5.71875, -23.84483
  6147, 70.00000, -6.50000, -22.49167
  6148, 70.00000, -0.32139, -33.36698
  6149, 70.00000, -1.32575, -32.17003
  6150, 70.00000, -2.33011, -30.97309
  6151, 70.00000, -3.33446, -29.77614
  6152, 70.00000, -4.33882, -28.57920
  6153, 70.00000, -5.34317, -27.38226
  6154, 70.00000, -6.34753, -26.18531
  6155, 70.00000, -7.35188, -24.98837
  6156, 70.00000, -8.35624, -23.79142
  6157, 70.00000, -0.38302, -33.42861
  6158, 70.00000, -1.57997, -32.42425
  6159, 70.00000, -2.77691, -31.41989
  6160, 70.00000, -3.97386, -30.41554
  6161, 70.00000, -5.17080, -29.41118
  6162, 70.00000, -6.36774, -28.40683
  6163, 70.00000, -7.56469, -27.40247
  6164, 70.00000, -8.76163, -26.39812
  6165, 70.00000, -9.95858, -25.39376
  6166, 70.00000, -0.43301, -33.50000
  6167, 70.00000, -1.78618, -32.71875
  6168, 70.00000, -3.13934, -31.93750
  6169, 70.00000, -4.49251, -31.15625
  6170, 70.00000, -5.84567, -30.37500
  6171, 70.00000, -7.19884, -29.59375
  6172, 70.00000, -8.55200, -28.81250
  6173, 70.00000, -9.90517, -28.03125
  6174, 70.00000, -11.25833, -27.25000
  6175, 70.00000, -0.46985, -33.57899
  6176, 70.00000, -1.93812, -33.04458
  6177, 70.00000, -3.40639, -32.51018
  6178, 70.00000, -4.87466, -31.97577
  6179, 70.00000, -6.34293, -31.44136
  6180, 70.00000, -7.81119, -30.90696
  6181, 70.00000, -9.27946, -30.37255
  6182, 70.00000, -10.74773, -29.83814
  6183, 70.00000, -12.21600, -29.30374
  6184, 70.00000, -0.49240, -33.66318
  6185, 70.00000, -2.03117, -33.39185
  6186, 70.00000, -3.56993, -33.12053
  6187, 70.00000, -5.10869, -32.84920
  6188, 70.00000, -6.64745, -32.57787
  6189, 70.00000, -8.18621, -32.30655
  6190, 70.00000, -9.72498, -32.03522
  6191, 70.00000, -11.26374, -31.76390
  6192, 70.00000, -12.80250, -31.49257
  6193, 70.00000, -0.50000, -33.75000
  6194, 70.00000, -2.06250, -33.75000
  6195, 70.00000, -3.62500, -33.75000
  6196, 70.00000, -5.18750, -33.75000
  6197, 70.00000, -6.75000, -33.75000
  6198, 70.00000, -8.31250, -33.75000
  6199, 70.00000, -9.87500, -33.75000
  6200, 70.00000, -11.43750, -33.75000
  6201, 70.00000, -13.00000, -33.75000
  6202, 70.00000, -0.49240, -33.83682
  6203, 70.00000, -2.03117, -34.10815
  6204, 70.00000, -3.56993, -34.37947
  6205, 70.00000, -5.10869, -34.65080
  6206, 70.00000, -6.64745, -34.92213
  6207, 70.00000, -8.18621, -35.19345
  6208, 70.00000, -9.72498, -35.46478
  6209, 70.00000, -11.26374, -35.73610
  6210, 70.00000, -12.80250, -36.00743
  6211, 70.00000, -0.46985, -33.92101
  6212, 70.00000, -1.93812, -34.45542
  6213, 70.00000, -3.40639, -34.98982
  6214, 70.00000, -4.87466, -35.52423
  6215, 70.00000, -6.34293, -36.05864
  6216, 70.00000, -7.81119, -36.59304
  6217, 70.00000, -9.27946, -37.12745
  6218, 70.00000, -10.74773, -37.66186
  6219, 70.00000, -12.21600, -38.19626
  6220, 70.00000, -0.43301, -34.00000
  6221, 70.00000, -1.78618, -34.78125
  6222, 70.00000, -3.13934, -35.56250
  6223, 70.00000, -4.49251, -36.34375
  6224, 70.00000, -5.84567, -37.12500
  6225, 70.00000, -7.19884, -37.90625
  6226, 70.00000, -8.55200, -38.68750
  6227, 70.00000, -9.90517, -39.46875
  6228, 70.00000, -11.25833, -40.25000
  6229, 70.00000, -0.38302, -34.07139
  6230, 70.00000, -1.57997, -35.07575
  6231, 70.00000, -2.77691, -36.08011
  6232, 70.00000, -3.97386, -37.08446
  6233, 70.00000, -5.17080, -38.08882
  6234, 70.00000, -6.36774, -39.09317
  6235, 70.00000, -7.56469, -40.09753
  6236, 70.00000, -8.76163, -41.10188
  6237, 70.00000, -9.95858, -42.10624
  6238, 70.00000, -0.32139, -34.13302
  6239, 70.00000, -1.32575, -35.32997
  6240, 70.00000, -2.33011, -36.52691
  6241, 70.00000, -3.33446, -37.72386
  6242, 70.00000, -4.33882, -38.92080
  6243, 70.00000, -5.34317, -40.11774
  6244, 70.00000, -6.34753, -41.31469
  6245, 70.00000, -7.35188, -42.51163
  6246, 70.00000, -8.35624, -43.70858
  6247, 70.00000, -0.25000, -34.18301
  6248, 70.00000, -1.03125, -35.53618
  6249, 70.00000, -1.81250, -36.88934
  6250, 70.00000, -2.59375, -38.24251
  6251, 70.00000, -3.37500, -39.59567
  6252, 70.00000, -4.15625, -40.94884
  6253, 70.00000, -4.93750, -42.30200
  6254, 70.00000, -5.71875, -43.65517
  6255, 70.00000, -6.50000, -45.00833
  6256, 70.00000, -0.17101, -34.21985
  6257, 70.00000, -0.70542, -35.68812
  6258, 70.00000, -1.23982, -37.15639
  6259, 70.00000, -1.77423, -38.62466
  6260, 70.00000, -2.30864, -40.09293
  6261, 70.00000, -2.84304, -41.56119
  6262, 70.00000, -3.37745, -43.02946
  6263, 70.00000, -3.91186, -44.49773
  6264, 70.00000, -4.44626, -45.96600
  6265, 70.00000, -0.08682, -34.24240
  6266, 70.00000, -0.35815, -35.78117
  6267, 70.00000, -0.62947, -37.31993
  6268, 70.00000, -0.90080, -38.85869
  6269, 70.00000, -1.17213, -40.39745
  6270, 70.00000, -1.44345, -41.93621
  6271, 70.00000, -1.71478, -43.47498
  6272, 70.00000, -1.98610, -45.01374
  6273, 70.00000, -2.25743, -46.55250
  6274, 70.00000, -0.00000, -34.25000
  6275, 70.00000, -0.00000, -35.81250
  6276, 70.00000, -0.00000, -37.37500
  6277, 70.00000, -0.00000, -38.93750
  6278, 70.00000, -0.00000, -40.50000
  6279, 70.00000, -0.00000, -42.06250
  6280, 70.00000, -0.00000, -43.62500
  6281, 70.00000, -0.00000, -45.18750
  6282, 70.00000, -0.00000, -46.75000
  6283, 70.00000, 0.08682, -34.24240
  6284, 70.00000, 0.35815, -35.78117
  6285, 70.00000, 0.62947, -37.31993
  6286, 70.00000, 0.90080, -38.85869
  6287, 70.00000, 1.17213, -40.39745
  6288, 70.00000, 1.44345, -41.93621
  6289, 70.00000, 1.71478, -43.47498
  6290, 70.00000, 1.98610, -45.01374
  6291, 70.00000, 2.25743, -46.55250
  6292, 70.00000, 0.17101, -34.21985
  6293, 70.00000, 0.70542, -35.68812
  6294, 70.00000, 1.23982, -37.15639
  6295, 70.00000, 1.77423, -38.62466
  6296, 70.00000, 2.30864, -40.09293
  6297, 70.00000, 2.84304, -41.56119
  6298, 70.00000, 3.37745, -43.02946
  6299, 70.00000, 3.91186, -44.49773
  6300, 70.00000, 4.44626, -45.96600
  6301, 70.00000, 0.25000, -34.18301
  6302, 70.00000, 1.03125, -35.53618
  6303, 70.00000, 1.81250, -36.88934
  6304, 70.00000, 2.59375, -38.24251
  6305, 70.00000, 3.37500, -39.59567
  6306, 70.00000, 4.15625, -40.94884
  6307, 70.00000, 4.93750, -42.30200
  6308, 70.00000, 5.71875, -43.65517
  6309, 70.00000, 6.50000, -45.00833
  6310, 70.00000, 0.32139, -34.13302
  6311, 70.00000, 1.32575, -35.32997
  6312, 70.00000, 2.33011, -36.52691
  6313, 70.00000, 3.33446, -37.72386
  6314, 70.00000, 4.33882, -38.92080
  6315, 70.00000, 5.34317, -40.11774
  6316, 70.00000, 6.34753, -41.31469
  6317, 70.00000, 7.35188, -42.51163
  6318, 70.00000, 8.35624, -43.70858
  6319, 70.00000, 0.38302, -34.07139
  6320, 70.00000, 1.57997, -35.07575
  6321, 70.00000, 2.77691, -36.08011
  6322, 70.00000, 3.97386, -37.08446
  6323, 70.00000, 5.17080, -38.08882
  6324, 70.00000, 6.36774, -39.09317
  6325, 70.00000, 7.56469, -40.09753
  6326, 70.00000, 8.76163, -41.10188
  6327, 70.00000, 9.95858, -42.10624
  6328, 70.00000, 0.43301, -34.00000
  6329, 70.00000, 1.78618, -34.78125
  6330, 70.00000, 3.13934, -35.56250
  6331, 70.00000, 4.49251, -36.34375
  6332, 70.00000, 5.84567, -37.12500
  6333, 70.00000, 7.19884, -37.90625
  6334, 70.00000, 8.55200, -38.68750
  6335, 70.00000, 9.90517, -39.46875
  6336, 70.00000, 11.25833, -40.25000
  6337, 70.00000, 0.46985, -33.92101
  6338, 70.00000, 1.93812, -34.45542
  6339, 70.00000, 3.40639, -34.98982
  6340, 70.00000, 4.87466, -35.52423
  6341, 70.00000, 6.34293, -36.05864
  6342, 70.00000, 7.81119, -36.59304
  6343, 70.00000, 9.27946, -37.12745
  6344, 70.00000, 10.74773, -37.66186
  6345, 70.00000, 12.21600, -38.19626
  6346, 70.00000, 0.49240, -33.83682
  6347, 70.00000, 2.03117, -34.10815
  6348, 70.00000, 3.56993, -34.37947
  6349, 70.00000, 5.10869, -34.65080
  6350, 70.00000, 6.64745, -34.92213
  6351, 70.00000, 8.18621, -35.19345
  6352, 70.00000, 9.72498, -35.46478
  6353, 70.00000, 11.26374, -35.73610
  6354, 70.00000, 12.80250, -36.00743
  6355, 70.00000, 0.50000, -33.75000
  6356, 70.00000, 2.06250, -33.75000
  6357, 70.00000, 3.62500, -33.75000
  6358, 70.00000, 5.18750, -33.75000
  6359, 70.00000, 6.75000, -33.75000
  6360, 70.00000, 8.31250, -33.75000
  6361, 70.00000, 9.87500, -33.75000
  6362, 70.00000, 11.43750, -33.75000
  6363, 70.00000, 13.00000, -33.75000
  6364, 75.00000, 0.50000, -33.75000
  6365, 75.00000, 2.06250, -33.75000
  6366, 75.00000, 3.62500, -33.75000
  6367, 75.00000, 5.18750, -33.75000
  6368, 75.00000, 6.75000, -33.75000
  6369, 75.00000, 8.31250, -33.75000
  6370, 75.00000, 9.87500, -33.75000
  6371, 75.00000, 11.43750, -33.75000
  6372, 75.00000, 13.00000, -33.75000
  6373, 75.00000, 0.49240, -33.66318
  6374, 75.00000, 2.03117, -33.39185
  6375, 75.00000, 3.56993, -33.12053
  6376, 75.00000, 5.10869, -32.84920
  6377, 75.00000, 6.64745, -32.57787
  6378, 75.00000, 8.18621, -32.30655
  6379, 75.00000, 9.72498, -32.03522
  6380, 75.00000, 11.26374, -31.76390
  6381, 75.00000, 12.80250, -31.49257
  6382, 75.00000, 0.46985, -33.57899
  6383, 75.00000, 1.93812, -33.04458
  6384, 75.00000, 3.40639, -32.51018
  6385, 75.00000, 4.87466, -31.97577
  6386, 75.00000, 6.34293, -31.44136
  6387, 75.00000, 7.81119, -30.90696
  6388, 75.00000, 9.27946, -30.37255
  6389, 75.00000, 10.74773, -29.83814
  6390, 75.00000, 12.21600, -29.30374
  6391, 75.00000, 0.43301, -33.50000
  6392, 75.00000, 1.78618, -32.71875
  6393, 75.00000, 3.13934, -31.93750
  6394, 75.00000, 4.49251, -31.15625
  6395, 75.00000, 5.84567, -30.37500
  6396, 75.00000, 7.19884, -29.59375
  6397, 75.00000, 8.55200, -28.81250
  6398, 75.00000, 9.90517, -28.03125
  6399, 75.00000, 11.25833, -27.25000
  6400, 75.00000, 0.38302, -33.42861
  6401, 75.00000, 1.57997, -32.42425
  6402, 75.00000, 2.77691, -31.41989
  6403, 75.00000, 3.97386, -30.41554
  6404, 75.00000, 5.17080, -29.41118
  6405, 75.00000, 6.36774, -28.40683
  6406, 75.00000, 7.56469, -27.40247
  6407, 75.00000, 8.76163, -26.39812
  6408, 75.00000, 9.95858, -25.39376
  6409, 75.00000, 0.32139, -33.36698
  6410, 75.00000, 1.32575, -32.17003
  6411, 75.00000, 2.33011, -30.97309
  6412, 75.00000, 3.33446, -29.77614
  6413, 75.00000, 4.33882, -28.57920
  6414, 75.00000, 5.34317, -27.38226
  6415, 75.00000, 6.34753, -26.18531
  6416, 75.00000, 7.35188, -24.98837
  6417, 75.00000, 8.35624, -23.79142
  6418, 75.00000, 0.25000, -33.31699
  6419, 75.00000, 1.03125, -31.96382
  6420, 75.00000, 1.81250, -30.61066
  6421, 75.00000, 2.59375, -29.25749
  6422, 75.00000, 3.37500, -27.90433
  6423, 75.00000, 4.15625, -26.55116
  6424, 75.00000, 4.93750, -25.19800
  6425, 75.00000, 5.71875, -23.84483
  6426, 75.00000, 6.50000, -22.49167
  6427, 75.00000, 0.17101, -33.28015
  6428, 75.00000, 0.70542, -31.81188
  6429, 75.00000, 1.23982, -30.34361
  6430, 75.00000, 1.77423, -28.87534
  6431, 75.00000, 2.30864, -27.40707
  6432, 75.00000, 2.84304, -25.93881
  6433, 75.00000, 3.37745, -24.47054
  6434, 75.00000, 3.91186, -23.00227
  6435, 75.00000, 4.44626, -21.53400
  6436, 75.00000, 0.08682, -33.25760
  6437, 75.00000, 0.35815, -31.71883
  6438, 75.00000, 0.62947, -30.18007
  6439, 75.00000, 0.90080, -28.64131
  6440, 75.00000, 1.17213, -27.10255
  6441, 75.00000, 1.44345, -25.56379
  6442, 75.00000, 1.71478, -24.02502
  6443, 75.00000, 1.98610, -22.48626
  6444, 75.00000, 2.25743, -20.94750
  6445, 75.00000, 0.00000, -33.25000
  6446, 75.00000, 0.00000, -31.68750
  6447, 75.00000, 0.00000, -30.12500
  6448, 75.00000, 0.00000, -28.56250
  6449, 75.00000, 0.00000, -27.00000
  6450, 75.00000, 0.00000, -25.43750
  6451, 75.00000, 0.00000, -23.87500
  6452, 75.00000, 0.00000, -22.31250
  6453, 75.00000, 0.00000, -20.75000
  6454, 75.00000, -0.08682, -33.25760
  6455, 75.00000, -0.35815, -31.71883
  6456, 75.00000, -0.62947, -30.18007
  6457, 75.00000, -0.90080, -28.64131
  6458, 75.00000, -1.17213, -27.10255
  6459, 75.00000, -1.44345, -25.56379
  6460, 75.00000, -1.71478, -24.02502
  6461, 75.00000, -1.98610, -22.48626
  6462, 75.00000, -2.25743, -20.94750
  6463, 75.00000, -0.17101, -33.28015
  6464, 75.00000, -0.70542, -31.81188
  6465, 75.00000, -1.23982, -30.34361
  6466, 75.00000, -1.77423, -28.87534
  6467, 75.00000, -2.30864, -27.40707
  6468, 75.00000, -2.84304, -25.93881
  6469, 75.00000, -3.37745, -24.47054
  6470, 75.00000, -3.91186, -23.00227
  6471, 75.00000, -4.44626, -21.53400
  6472, 75.00000, -0.25000, -33.31699
  6473, 75.00000, -1.03125, -31.96382
  6474, 75.00000, -1.81250, -30.61066
  6475, 75.00000, -2.59375, -29.25749
  6476, 75.00000, -3.37500, -27.90433
  6477, 75.00000, -4.15625, -26.55116
  6478, 75.00000, -4.93750, -25.19800
  6479, 75.00000, -5.71875, -23.84483
  6480, 75.00000, -6.50000, -22.49167
  6481, 75.00000, -0.32139, -33.36698
  6482, 75.00000, -1.32575, -32.17003
  6483, 75.00000, -2.33011, -30.97309
  6484, 75.00000, -3.33446, -29.77614
  6485, 75.00000, -4.33882, -28.57920
  6486, 75.00000, -5.34317, -27.38226
  6487, 75.00000, -6.34753, -26.18531
  6488, 75.00000, -7.35188, -24.98837
  6489, 75.00000, -8.35624, -23.79142
  6490, 75.00000, -0.38302, -33.42861
  6491, 75.00000, -1.57997, -32.42425
  6492, 75.00000, -2.77691, -31.41989
  6493, 75.00000, -3.97386, -30.41554
  6494, 75.00000, -5.17080, -29.41118
  6495, 75.00000, -6.36774, -28.40683
  6496, 75.00000, -7.56469, -27.40247
  6497, 75.00000, -8.76163, -26.39812
  6498, 75.00000, -9.95858, -25.39376
  6499, 75.00000, -0.43301, -33.50000
  6500, 75.00000, -1.78618, -32.71875
  6501, 75.00000, -3.13934, -31.93750
  6502, 75.00000, -4.49251, -31.15625
  6503, 75.00000, -5.84567, -30.37500
  6504, 75.00000, -7.19884, -29.59375
  6505, 75.00000, -8.55200, -28.81250
  6506, 75.00000, -9.90517, -28.03125
  6507, 75.00000, -11.25833, -27.25000
  6508, 75.00000, -0.46985, -33.57899
  6509, 75.00000, -1.93812, -33.04458
  6510, 75.00000, -3.40639, -32.51018
  6511, 75.00000, -4.87466, -31.97577
  6512, 75.00000, -6.34293, -31.44136
  6513, 75.00000, -7.81119, -30.90696
  6514, 75.00000, -9.27946, -30.37255
  6515, 75.00000, -10.74773, -29.83814
  6516, 75.00000, -12.21600, -29.30374
  6517, 75.00000, -0.49240, -33.66318
  6518, 75.00000, -2.03117, -33.39185
  6519, 75.00000, -3.56993, -33.12053
  6520, 75.00000, -5.10869, -32.84920
  6521, 75.00000, -6.64745, -32.57787
  6522, 75.00000, -8.18621, -32.30655
  6523, 75.00000, -9.72498, -32.03522
  6524, 75.00000, -11.26374, -31.76390
  6525, 75.00000, -12.80250, -31.49257
  6526, 75.00000, -0.50000, -33.75000
  6527, 75.00000, -2.06250, -33.75000
  6528, 75.00000, -3.62500, -33.75000
  6529, 75.00000, -5.18750, -33.75000
  6530, 75.00000, -6.75000, -33.75000
  6531, 75.00000, -8.31250, -33.75000
  6532, 75.00000, -9.87500, -33.75000
  6533, 75.00000, -11.43750, -33.75000
  6534, 75.00000, -13.00000, -33.75000
  6535, 75.00000, -0.49240, -33.83682
  6536, 75.00000, -2.03117, -34.10815
  6537, 75.00000, -3.56993, -34.37947
  6538, 75.00000, -5.10869, -34.65080
  6539, 75.00000, -6.64745, -34.92213
  6540, 75.00000, -8.18621, -35.19345
  6541, 75.00000, -9.72498, -35.46478
  6542, 75.00000, -11.26374, -35.73610
  6543, 75.00000, -12.80250, -36.00743
  6544, 75.00000, -0.46985, -33.92101
  6545, 75.00000, -1.93812, -34.45542
  6546, 75.00000, -3.40639, -34.98982
  6547, 75.00000, -4.87466, -35.52423
  6548, 75.00000, -6.34293, -36.05864
  6549, 75.00000, -7.81119, -36.59304
  6550, 75.00000, -9.27946, -37.12745
  6551, 75.00000, -10.74773, -37.66186
  6552, 75.00000, -12.21600, -38.19626
  6553, 75.00000, -0.43301, -34.00000
  6554, 75.00000, -1.78618, -34.78125
  6555, 75.00000, -3.13934, -35.56250
  6556, 75.00000, -4.49251, -36.34375
  6557, 75.00000, -5.84567, -37.12500
  6558, 75.00000, -7.19884, -37.90625
  6559, 75.00000, -8.55200, -38.68750
  6560, 75.00000, -9.90517, -39.46875
  6561, 75.00000, -11.25833, -40.25000
  6562, 75.00000, -0.38302, -34.07139
  6563, 75.00000, -1.57997, -35.07575
  6564, 75.00000, -2.77691, -36.08011
  6565, 75.00000, -3.97386, -37.08446
  6566, 75.00000, -5.17080, -38.08882
  6567, 75.00000, -6.36774, -39.09317
  6568, 75.00000, -7.56469, -40.09753
  6569, 75.00000, -8.76163, -41.10188
  6570, 75.00000, -9.95858, -42.10624
  6571, 75.00000, -0.32139, -34.13302
  6572, 75.00000, -1.32575, -35.32997
  6573, 75.00000, -2.33011, -36.52691
  6574, 75.00000, -3.33446, -37.72386
  6575, 75.00000, -4.33882, -38.92080
  6576, 75.00000, -5.34317, -40.11774
  6577, 75.00000, -6.34753, -41.31469
  6578, 75.00000, -7.35188, -42.51163
  6579, 75.00000, -8.35624, -43.70858
  6580, 75.00000, -0.25000, -34.18301
  6581, 75.00000, -1.03125, -35.53618
  6582, 75.00000, -1.81250, -36.88934
  6583, 75.00000, -2.59375, -38.24251
  6584, 75.00000, -3.37500, -39.59567
  6585, 75.00000, -4.15625, -40.94884
  6586, 75.00000, -4.93750, -42.30200
  6587, 75.00000, -5.71875, -43.65517
  6588, 75.00000, -6.50000, -45.00833
  6589, 75.00000, -0.17101, -34.21985
  6590, 75.00000, -0.70542, -35.68812
  6591, 75.00000, -1.23982, -37.15639
  6592, 75.00000, -1.77423, -38.62466
  6593, 75.00000, -2.30864, -40.09293
  6594, 75.00000, -2.84304, -41.56119
  6595, 75.00000, -3.37745, -43.02946
  6596, 75.00000, -3.91186, -44.49773
  6597, 75.00000, -4.44626, -45.96600
  6598, 75.00000, -0.08682, -34.24240
  6599, 75.00000, -0.35815, -35.78117
  6600, 75.00000, -0.62947, -37.31993
  6601, 75.00000, -0.90080, -38.85869
  6602, 75.00000, -1.17213, -40.39745
  6603, 75.00000, -1.44345, -41.93621
  6604, 75.00000, -1.71478, -43.47498
  6605, 75.00000, -1.98610, -45.01374
  6606, 75.00000, -2.25743, -46.55250
  6607, 75.00000, -0.00000, -34.25000
  6608, 75.00000, -0.00000, -35.81250
  6609, 75.00000, -0.00000, -37.37500
  6610, 75.00000, -0.00000, -38.93750
  6611, 75.00000, -0.00000, -40.50000
  6612, 75.00000, -0.00000, -42.06250
  6613, 75.00000, -0.00000, -43.62500
  6614, 75.00000, -0.00000, -45.18750
  6615, 75.00000, -0.00000, -46.75000
  6616, 75.00000, 0.08682, -34.24240
  6617, 75.00000, 0.35815, -35.78117
  6618, 75.00000, 0.62947, -37.31993
  6619, 75.00000, 0.90080, -38.85869
  6620, 75.00000, 1.17213, -40.39745
  6621, 75.00000, 1.44345, -41.93621
  6622, 75.00000, 1.71478, -43.47498
  6623, 75.00000, 1.98610, -45.01374
  6624, 75.00000, 2.25743, -46.55250
  6625, 75.00000, 0.17101, -34.21985
  6626, 75.00000, 0.70542, -35.68812
  6627, 75.00000, 1.23982, -37.15639
  6628, 75.00000, 1.77423, -38.62466
  6629, 75.00000, 2.30864, -40.09293
  6630, 75.00000, 2.84304, -41.56119
  6631, 75.00000, 3.37745, -43.02946
  6632, 75.00000, 3.91186, -44.49773
  6633, 75.00000, 4.44626, -45.96600
  6634, 75.00000, 0.25000, -34.18301
  6635, 75.00000, 1.03125, -35.53618
  6636, 75.00000, 1.81250, -36.88934
  6637, 75.00000, 2.59375, -38.24251
  6638, 75.00000, 3.37500, -39.59567
  6639, 75.00000, 4.15625, -40.94884
  6640, 75.00000, 4.93750, -42.30200
  6641, 75.00000, 5.71875, -43.65517
  6642, 75.00000, 6.50000, -45.00833
  6643, 75.00000, 0.32139, -34.13302
  6644, 75.00000, 1.32575, -35.32997
  6645, 75.00000, 2.33011, -36.52691
  6646, 75.00000, 3.33446, -37.72386
  6647, 75.00000, 4.33882, -38.92080
  6648, 75.00000, 5.34317, -40.11774
  6649, 75.00000, 6.34753, -41.31469
  6650, 75.00000, 7.35188, -42.51163
  6651, 75.00000, 8.35624, -43.70858
  6652, 75.00000, 0.38302, -34.07139
  6653, 75.00000, 1.57997, -35.07575
  6654, 75.00000, 2.77691, -36.08011
  6655, 75.00000, 3.97386, -37.08446
  6656, 75.00000, 5.17080, -38.08882
  6657, 75.00000, 6.36774, -39.09317
  6658, 75.00000, 7.56469, -40.09753
  6659, 75.00000, 8.76163, -41.10188
  6660, 75.00000, 9.95858, -42.10624
  6661, 75.00000, 0.43301, -34.00000
  6662, 75.00000, 1.78618, -34.78125
  6663, 75.00000, 3.13934, -35.56250
  6664, 75.00000, 4.49251, -36.34375
  6665, 75.00000, 5.84567, -37.12500
  6666, 75.00000, 7.19884, -37.90625
  6667, 75.00000, 8.55200, -38.68750
  6668, 75.00000, 9.90517, -39.46875
  6669, 75.00000, 11.25833, -40.25000
  6670, 75.00000, 0.46985, -33.92101
  6671, 75.00000, 1.93812, -34.45542
  6672, 75.00000, 3.40639, -34.98982
  6673, 75.00000, 4.87466, -35.52423
  6674, 75.00000, 6.34293, -36.05864
  6675, 75.00000, 7.81119, -36.59304
  6676, 75.00000, 9.27946, -37.12745
  6677, 75.00000, 10.74773, -37.66186
  6678, 75.00000, 12.21600, -38.19626
  6679, 75.00000, 0.49240, -33.83682
  6680, 75.00000, 2.03117, -34.10815
  6681, 75.00000, 3.56993, -34.37947
  6682, 75.00000, 5.10869, -34.65080
  6683, 75.00000, 6.64745, -34.92213
  6684, 75.00000, 8.18621, -35.19345
  6685, 75.00000, 9.72498, -35.46478
  6686, 75.00000, 11.26374, -35.73610
  6687, 75.00000, 12.80250, -36.00743
  6688, 75.00000, 0.50000, -33.75000
  6689, 75.00000, 2.06250, -33.75000
  6690, 75.00000, 3.62500, -33.75000
  6691, 75.00000, 5.18750, -33.75000
  6692, 75.00000, 6.75000, -33.75000
  6693, 75.00000, 8.31250, -33.75000
  6694, 75.00000, 9.87500, -33.75000
  6695, 75.00000, 11.43750, -33.75000
  6696, 75.00000, 13.00000, -33.75000
  6697, 80.00000, 0.50000, -33.75000
  6698, 80.00000, 2.06250, -33.75000
  6699, 80.00000, 3.62500, -33.75000
  6700, 80.00000, 5.18750, -33.75000
  6701, 80.00000, 6.75000, -33.75000
  6702, 80.00000, 8.31250, -33.75000
  6703, 80.00000, 9.87500, -33.75000
  6704, 80.00000, 11.43750, -33.75000
  6705, 80.00000, 13.00000, -33.75000
  6706, 80.00000, 0.49240, -33.66318
  6707, 80.00000, 2.03117, -33.39185
  6708, 80.00000, 3.56993, -33.12053
  6709, 80.00000, 5.10869, -32.84920
  6710, 80.00000, 6.64745, -32.57787
  6711, 80.00000, 8.18621, -32.30655
  6712, 80.00000, 9.72498, -32.03522
  6713, 80.00000, 11.26374, -31.76390
  6714, 80.00000, 12.80250, -31.49257
  6715, 80.00000, 0.46985, -33.57899
  6716, 80.00000, 1.93812, -33.04458
  6717, 80.00000, 3.40639, -32.51018
  6718, 80.00000, 4.87466, -31.97577
  6719, 80.00000, 6.34293, -31.44136
  6720, 80.00000, 7.81119, -30.90696
  6721, 80.00000, 9.27946, -30.37255
  6722, 80.00000, 10.74773, -29.83814
  6723, 80.00000, 12.21600, -29.30374
  6724, 80.00000, 0.43301, -33.50000
  6725, 80.00000, 1.78618, -32.71875
  6726, 80.00000, 3.13934, -31.93750
  6727, 80.00000, 4.49251, -31.15625
  6728, 80.00000, 5.84567, -30.37500
  6729, 80.00000, 7.19884, -29.59375
  6730, 80.00000, 8.55200, -28.81250
  6731, 80.00000, 9.90517, -28.03125
  6732, 80.00000, 11.25833, -27.25000
  6733, 80.00000, 0.38302, -33.42861
  6734, 80.00000, 1.57997, -32.42425
  6735, 80.00000, 2.77691, -31.41989
  6736, 80.00000, 3.97386, -30.41554
  6737, 80.00000, 5.17080, -29.41118
  6738, 80.00000, 6.36774, -28.40683
  6739, 80.00000, 7.56469, -27.40247
  6740, 80.00000, 8.76163, -26.39812
  6741, 80.00000, 9.95858, -25.39376
  6742, 80.00000, 0.32139, -33.36698
  6743, 80.00000, 1.32575, -32.17003
  6744, 80.00000, 2.33011, -30.97309
  6745, 80.00000, 3.33446, -29.77614
  6746, 80.00000, 4.33882, -28.57920
  6747, 80.00000, 5.34317, -27.38226
  6748, 80.00000, 6.34753, -26.18531
  6749, 80.00000, 7.35188, -24.98837
  6750, 80.00000, 8.35624, -23.79142
  6751, 80.00000, 0.25000, -33.31699
  6752, 80.00000, 1.03125, -31.96382
  6753, 80.00000, 1.81250, -30.61066
  6754, 80.00000, 2.59375, -29.25749
  6755, 80.00000, 3.37500, -27.90433
  6756, 80.00000, 4.15625, -26.55116
  6757, 80.00000, 4.93750, -25.19800
  6758, 80.00000, 5.71875, -23.84483
  6759, 80.00000, 6.50000, -22.49167
  6760, 80.00000, 0.17101, -33.28015
  6761, 80.00000, 0.70542, -31.81188
  6762, 80.00000, 1.23982, -30.34361
  6763, 80.00000, 1.77423, -28.87534
  6764, 80.00000, 2.30864, -27.40707
  6765, 80.00000, 2.84304, -25.93881
  6766, 80.00000, 3.37745, -24.47054
  6767, 80.00000, 3.91186, -23.00227
  6768, 80.00000, 4.44626, -21.53400
  6769, 80.00000, 0.08682, -33.25760
  6770, 80.00000, 0.35815, -31.71883
  6771, 80.00000, 0.62947, -30.18007
  6772, 80.00000, 0.90080, -28.64131
  6773, 80.00000, 1.17213, -27.10255
  6774, 80.00000, 1.44345, -25.56379
  6775, 80.00000, 1.71478, -24.02502
  6776, 80.00000, 1.98610, -22.48626
  6777, 80.00000, 2.25743, -20.94750
  6778, 80.00000, 0.00000, -33.25000
  6779, 80.00000, 0.00000, -31.68750
  6780, 80.00000, 0.00000, -30.12500
  6781, 80.00000, 0.00000, -28.56250
  6782, 80.00000, 0.00000, -27.00000
  6783, 80.00000, 0.00000, -25.43750
  6784, 80.00000, 0.00000, -23.87500
  6785, 80.00000, 0.00000, -22.31250
  6786, 80.00000, 0.00000, -20.75000
  6787, 80.00000, -0.08682, -33.25760
  6788, 80.00000, -0.35815, -31.71883
  6789, 80.00000, -0.62947, -30.18007
  6790, 80.00000, -0.90080, -28.64131
  6791, 80.00000, -1.17213, -27.10255
  6792, 80.00000, -1.44345, -25.56379
  6793, 80.00000, -1.71478, -24.02502
  6794, 80.00000, -1.98610, -22.48626
  6795, 80.00000, -2.25743, -20.94750
  6796, 80.00000, -0.17101, -33.28015
  6797, 80.00000, -0.70542, -31.81188
  6798, 80.00000, -1.23982, -30.34361
  6799, 80.00000, -1.77423, -28.87534
  6800, 80.00000, -2.30864, -27.40707
  6801, 80.00000, -2.84304, -25.93881
  6802, 80.00000, -3.37745, -24.47054
  6803, 80.00000, -3.91186, -23.00227
  6804, 80.00000, -4.44626, -21.53400
  6805, 80.00000, -0.25000, -33.31699
  6806, 80.00000, -1.03125, -31.96382
  6807, 80.00000, -1.81250, -30.61066
  6808, 80.00000, -2.59375, -29.25749
  6809, 80.00000, -3.37500, -27.90433
  6810, 80.00000, -4.15625, -26.55116
  6811, 80.00000, -4.93750, -25.19800
  6812, 80.00000, -5.71875, -23.84483
  6813, 80.00000, -6.50000, -22.49167
  6814, 80.00000, -0.32139, -33.36698
  6815, 80.00000, -1.32575, -32.17003
  6816, 80.00000, -2.33011, -30.97309
  6817, 80.00000, -3.33446, -29.77614
  6818, 80.00000, -4.33882, -28.57920
  6819, 80.00000, -5.34317, -27.38226
  6820, 80.00000, -6.34753, -26.18531
  6821, 80.00000, -7.35188, -24.98837
  6822, 80.00000, -8.35624, -23.79142
  6823, 80.00000, -0.38302, -33.42861
  6824, 80.00000, -1.57997, -32.42425
  6825, 80.00000, -2.77691, -31.41989
  6826, 80.00000, -3.97386, -30.41554
  6827, 80.00000, -5.17080, -29.41118
  6828, 80.00000, -6.36774, -28.40683
  6829, 80.00000, -7.56469, -27.40247
  6830, 80.00000, -8.76163, -26.39812
  6831, 80.00000, -9.95858, -25.39376
  6832, 80.00000, -0.43301, -33.50000
  6833, 80.00000, -1.78618, -32.71875
  6834, 80.00000, -3.13934, -31.93750
  6835, 80.00000, -4.49251, -31.15625
  6836, 80.00000, -5.84567, -30.37500
  6837, 80.00000, -7.19884, -29.59375
  6838, 80.00000, -8.55200, -28.81250
  6839, 80.00000, -9.90517, -28.03125
  6840, 80.00000, -11.25833, -27.25000
  6841, 80.00000, -0.46985, -33.57899
  6842, 80.00000, -1.93812, -33.04458
  6843, 80.00000, -3.40639, -32.51018
  6844, 80.00000, -4.87466, -31.97577
  6845, 80.00000, -6.34293, -31.44136
  6846, 80.00000, -7.81119, -30.90696
  6847, 80.00000, -9.27946, -30.37255
  6848, 80.00000, -10.74773, -29.83814
  6849, 80.00000, -12.21600, -29.30374
  6850, 80.00000, -0.49240, -33.66318
  6851, 80.00000, -2.03117, -33.39185
  6852, 80.00000, -3.56993, -33.12053
  6853, 80.00000, -5.10869, -32.84920
  6854, 80.00000, -6.64745, -32.57787
  6855, 80.00000, -8.18621, -32.30655
  6856, 80.00000, -9.72498, -32.03522
  6857, 80.00000, -11.26374, -31.76390
  6858, 80.00000, -12.80250, -31.49257
  6859, 80.00000, -0.50000, -33.75000
  6860, 80.00000, -2.06250, -33.75000
  6861, 80.00000, -3.62500, -33.75000
  6862, 80.00000, -5.18750, -33.75000
  6863, 80.00000, -6.75000, -33.75000
  6864, 80.00000, -8.31250, -33.75000
  6865, 80.00000, -9.87500, -33.75000
  6866, 80.00000, -11.43750, -33.75000
  6867, 80.00000, -13.00000, -33.75000
  6868, 80.00000, -0.49240, -33.83682
  6869, 80.00000, -2.03117, -34.10815
  6870, 80.00000, -3.56993, -34.37947
  6871, 80.00000, -5.10869, -34.65080
  6872, 80.00000, -6.64745, -34.92213
  6873, 80.00000, -8.18621, -35.19345
  6874, 80.00000, -9.72498, -35.46478
  6875, 80.00000, -11.26374, -35.73610
  6876, 80.00000, -12.80250, -36.00743
  6877, 80.00000, -0.46985, -33.92101
  6878, 80.00000, -1.93812, -34.45542
  6879, 80.00000, -3.40639, -34.98982
  6880, 80.00000, -4.87466, -35.52423
  6881, 80.00000, -6.34293, -36.05864
  6882, 80.00000, -7.81119, -36.59304
  6883, 80.00000, -9.27946, -37.12745
  6884, 80.00000, -10.74773, -37.66186
  6885, 80.00000, -12.21600, -38.19626
  6886, 80.00000, -0.43301, -34.00000
  6887, 80.00000, -1.78618, -34.78125
  6888, 80.00000, -3.13934, -35.56250
  6889, 80.00000, -4.49251, -36.34375
  6890, 80.00000, -5.84567, -37.12500
  6891, 80.00000, -7.19884, -37.90625
  6892, 80.00000, -8.55200, -38.68750
  6893, 80.00000, -9.90517, -39.46875
  6894, 80.00000, -11.25833, -40.25000
  6895, 80.00000, -0.38302, -34.07139
  6896, 80.00000, -1.57997, -35.07575
  6897, 80.00000, -2.77691, -36.08011
  6898, 80.00000, -3.97386, -37.08446
  6899, 80.00000, -5.17080, -38.08882
  6900, 80.00000, -6.36774, -39.09317
  6901, 80.00000, -7.56469, -40.09753
  6902, 80.00000, -8.76163, -41.10188
  6903, 80.00000, -9.95858, -42.10624
  6904, 80.00000, -0.32139, -34.13302
  6905, 80.00000, -1.32575, -35.32997
  6906, 80.00000, -2.33011, -36.52691
  6907, 80.00000, -3.33446, -37.72386
  6908, 80.00000, -4.33882, -38.92080
  6909, 80.00000, -5.34317, -40.11774
  6910, 80.00000, -6.34753, -41.31469
  6911, 80.00000, -7.35188, -42.51163
  6912, 80.00000, -8.35624, -43.70858
  6913, 80.00000, -0.25000, -34.18301
  6914, 80.00000, -1.03125, -35.53618
  6915, 80.00000, -1.81250, -36.88934
  6916, 80.00000, -2.59375, -38.24251
  6917, 80.00000, -3.37500, -39.59567
  6918, 80.00000, -4.15625, -40.94884
  6919, 80.00000, -4.93750, -42.30200
  6920, 80.00000, -5.71875, -43.65517
  6921, 80.00000, -6.50000, -45.00833
  6922, 80.00000, -0.17101, -34.21985
  6923, 80.00000, -0.70542, -35.68812
  6924, 80.00000, -1.23982, -37.15639
  6925, 80.00000, -1.77423, -38.62466
  6926, 80.00000, -2.30864, -40.09293
  6927, 80.00000, -2.84304, -41.56119
  6928, 80.00000, -3.37745, -43.02946
  6929, 80.00000, -3.91186, -44.49773
  6930, 80.00000, -4.44626, -45.96600
  6931, 80.00000, -0.08682, -34.24240
  6932, 80.00000, -0.35815, -35.78117
  6933, 80.00000, -0.62947, -37.31993
  6934, 80.00000, -0.90080, -38.85869
  6935, 80.00000, -1.17213, -40.39745
  6936, 80.00000, -1.44345, -41.93621
  6937, 80.00000, -1.71478, -43.47498
  6938, 80.00000, -1.98610, -45.01374
  6939, 80.00000, -2.25743, -46.55250
  6940, 80.00000, -0.00000, -34.25000
  6941, 80.00000, -0.00000, -35.81250
  6942, 80.00000, -0.00000, -37.37500
  6943, 80.00000, -0.00000, -38.93750
  6944, 80.00000, -0.00000, -40.50000
  6945, 80.00000, -0.00000, -42.06250
  6946, 80.00000, -0.00000, -43.62500
  6947, 80.00000, -0.00000, -45.18750
  6948, 80.00000, -0.00000, -46.75000
  6949, 80.00000, 0.08682, -34.24240
  6950, 80.00000, 0.35815, -35.78117
  6951, 80.00000, 0.62947, -37.31993
  6952, 80.00000, 0.90080, -38.85869
  6953, 80.00000, 1.17213, -40.39745
  6954, 80.00000, 1.44345, -41.93621
  6955, 80.00000, 1.71478, -43.47498
  6956, 80.00000, 1.98610, -45.01374
  6957, 80.00000, 2.25743, -46.55250
  6958, 80.00000, 0.17101, -34.21985
  6959, 80.00000, 0.70542, -35.68812
  6960, 80.00000, 1.23982, -37.15639
  6961, 80.00000, 1.77423, -38.62466
  6962, 80.00000, 2.30864, -40.09293
  6963, 80.00000, 2.84304, -41.56119
  6964, 80.00000, 3.37745, -43.02946
  6965, 80.00000, 3.91186, -44.49773
  6966, 80.00000, 4.44626, -45.96600
  6967, 80.00000, 0.25000, -34.18301
  6968, 80.00000, 1.03125, -35.53618
  6969, 80.00000, 1.81250, -36.88934
  6970, 80.00000, 2.59375, -38.24251
  6971, 80.00000, 3.37500, -39.59567
  6972, 80.00000, 4.15625, -40.94884
  6973, 80.00000, 4.93750, -42.30200
  6974, 80.00000, 5.71875, -43.65517
  6975, 80.00000, 6.50000, -45.00833
  6976, 80.00000, 0.32139, -34.13302
  6977, 80.00000, 1.32575, -35.32997
  6978, 80.00000, 2.33011, -36.52691
  6979, 80.00000, 3.33446, -37.72386
  6980, 80.00000, 4.33882, -38.92080
  6981, 80.00000, 5.34317, -40.11774
  6982, 80.00000, 6.34753, -41.31469
  6983, 80.00000, 7.35188, -42.51163
  6984, 80.00000, 8.35624, -43.70858
  6985, 80.00000, 0.38302, -34.07139
  6986, 80.00000, 1.57997, -35.07575
  6987, 80.00000, 2.77691, -36.08011
  6988, 80.00000, 3.97386, -37.08446
  6989, 80.00000, 5.17080, -38.08882
  6990, 80.00000, 6.36774, -39.09317
  6991, 80.00000, 7.56469, -40.09753
  6992, 80.00000, 8.76163, -41.10188
  6993, 80.00000, 9.95858, -42.10624
  6994, 80.00000, 0.43301, -34.00000
  6995, 80.00000, 1.78618, -34.78125
  6996, 80.00000, 3.13934, -35.56250
  6997, 80.00000, 4.49251, -36.34375
  6998, 80.00000, 5.84567, -37.12500
  6999, 80.00000, 7.19884, -37.90625
  7000, 80.00000, 8.55200, -38.68750
  7001, 80.00000, 9.90517, -39.46875
  7002, 80.00000, 11.25833, -40.25000
  7003, 80.00000, 0.46985, -33.92101
  7004, 80.00000, 1.93812, -34.45542
  7005, 80.00000, 3.40639, -34.98982
  7006, 80.00000, 4.87466, -35.52423
  7007, 80.00000, 6.34293, -36.05864
  7008, 80.00000, 7.81119, -36.59304
  7009, 80.00000, 9.27946, -37.12745
  7010, 80.00000, 10.74773, -37.66186
  7011, 80.00000, 12.21600, -38.19626
  7012, 80.00000, 0.49240, -33.83682
  7013, 80.00000, 2.03117, -34.10815
  7014, 80.00000, 3.56993, -34.37947
  7015, 80.00000, 5.10869, -34.65080
  7016, 80.00000, 6.64745, -34.92213
  7017, 80.00000, 8.18621, -35.19345
  7018, 80.00000, 9.72498, -35.46478
  7019, 80.00000, 11.26374, -35.73610
  7020, 80.00000, 12.80250, -36.00743
  7021, 80.00000, 0.50000, -33.75000
  7022, 80.00000, 2.06250, -33.75000
  7023, 80.00000, 3.62500, -33.75000
  7024, 80.00000, 5.18750, -33.75000
  7025, 80.00000, 6.75000, -33.75000
  7026, 80.00000, 8.31250, -33.75000
  7027, 80.00000, 9.87500, -33.75000
  7028, 80.00000, 11.43750, -33.75000
  7029, 80.00000, 13.00000, -33.75000
  7030, 85.00000, 0.50000, -33.75000
  7031, 85.00000, 2.06250, -33.75000
  7032, 85.00000, 3.62500, -33.75000
  7033, 85.00000, 5.18750, -33.75000
  7034, 85.00000, 6.75000, -33.75000
  7035, 85.00000, 8.31250, -33.75000
  7036, 85.00000, 9.87500, -33.75000
  7037, 85.00000, 11.43750, -33.75000
  7038, 85.00000, 13.00000, -33.75000
  7039, 85.00000, 0.49240, -33.66318
  7040, 85.00000, 2.03117, -33.39185
  7041, 85.00000, 3.56993, -33.12053
  7042, 85.00000, 5.10869, -32.84920
  7043, 85.00000, 6.64745, -32.57787
  7044, 85.00000, 8.18621, -32.30655
  7045, 85.00000, 9.72498, -32.03522
  7046, 85.00000, 11.26374, -31.76390
  7047, 85.00000, 12.80250, -31.49257
  7048, 85.00000, 0.46985, -33.57899
  7049, 85.00000, 1.93812, -33.04458
  7050, 85.00000, 3.40639, -32.51018
  7051, 85.00000, 4.87466, -31.97577
  7052, 85.00000, 6.34293, -31.44136
  7053, 85.00000, 7.81119, -30.90696
  7054, 85.00000, 9.27946, -30.37255
  7055, 85.00000, 10.74773, -29.83814
  7056, 85.00000, 12.21600, -29.30374
  7057, 85.00000, 0.43301, -33.50000
  7058, 85.00000, 1.78618, -32.71875
  7059, 85.00000, 3.13934, -31.93750
  7060, 85.00000, 4.49251, -31.15625
  7061, 85.00000, 5.84567, -30.37500
  7062, 85.00000, 7.19884, -29.59375
  7063, 85.00000, 8.55200, -28.81250
  7064, 85.00000, 9.90517, -28.03125
  7065, 85.00000, 11.25833, -27.25000
  7066, 85.00000, 0.38302, -33.42861
  7067, 85.00000, 1.57997, -32.42425
  7068, 85.00000, 2.77691, -31.41989
  7069, 85.00000, 3.97386, -30.41554
  7070, 85.00000, 5.17080, -29.41118
  7071, 85.00000, 6.36774, -28.40683
  7072, 85.00000, 7.56469, -27.40247
  7073, 85.00000, 8.76163, -26.39812
  7074, 85.00000, 9.95858, -25.39376
  7075, 85.00000, 0.32139, -33.36698
  7076, 85.00000, 1.32575, -32.17003
  7077, 85.00000, 2.33011, -30.97309
  7078, 85.00000, 3.33446, -29.77614
  7079, 85.00000, 4.33882, -28.57920
  7080, 85.00000, 5.34317, -27.38226
  7081, 85.00000, 6.34753, -26.18531
  7082, 85.00000, 7.35188, -24.98837
  7083, 85.00000, 8.35624, -23.79142
  7084, 85.00000, 0.25000, -33.31699
  7085, 85.00000, 1.03125, -31.96382
  7086, 85.00000, 1.81250, -30.61066
  7087, 85.00000, 2.59375, -29.25749
  7088, 85.00000, 3.37500, -27.90433
  7089, 85.00000, 4.15625, -26.55116
  7090, 85.00000, 4.93750, -25.19800
  7091, 85.00000, 5.71875, -23.84483
  7092, 85.00000, 6.50000, -22.49167
  7093, 85.00000, 0.17101, -33.28015
  7094, 85.00000, 0.70542, -31.81188
  7095, 85.00000, 1.23982, -30.34361
  7096, 85.00000, 1.77423, -28.87534
  7097, 85.00000, 2.30864, -27.40707
  7098, 85.00000, 2.84304, -25.93881
  7099, 85.00000, 3.37745, -24.47054
  7100, 85.00000, 3.91186, -23.00227
  7101, 85.00000, 4.44626, -21.53400
  7102, 85.00000, 0.08682, -33.25760
  7103, 85.00000, 0.35815, -31.71883
  7104, 85.00000, 0.62947, -30.18007
  7105, 85.00000, 0.90080, -28.64131
  7106, 85.00000, 1.17213, -27.10255
  7107, 85.00000, 1.44345, -25.56379
  7108, 85.00000, 1.71478, -24.02502
  7109, 85.00000, 1.98610, -22.48626
  7110, 85.00000, 2.25743, -20.94750
  7111, 85.00000, 0.00000, -33.25000
  7112, 85.00000, 0.00000, -31.68750
  7113, 85.00000, 0.00000, -30.12500
  7114, 85.00000, 0.00000, -28.56250
  7115, 85.00000, 0.00000, -27.00000
  7116, 85.00000, 0.00000, -25.43750
  7117, 85.00000, 0.00000, -23.87500
  7118, 85.00000, 0.00000, -22.31250
  7119, 85.00000, 0.00000, -20.75000
  7120, 85.00000, -0.08682, -33.25760
  7121, 85.00000, -0.35815, -31.71883
  7122, 85.00000, -0.62947, -30.18007
  7123, 85.00000, -0.90080, -28.64131
  7124, 85.00000, -1.17213, -27.10255
  7125, 85.00000, -1.44345, -25.56379
  7126, 85.00000, -1.71478, -24.02502
  7127, 85.00000, -1.98610, -22.48626
  7128, 85.00000, -2.25743, -20.94750
  7129, 85.00000, -0.17101, -33.28015
  7130, 85.00000, -0.70542, -31.81188
  7131, 85.00000, -1.23982, -30.34361
  7132, 85.00000, -1.77423, -28.87534
  7133, 85.00000, -2.30864, -27.40707
  7134, 85.00000, -2.84304, -25.93881
  7135, 85.00000, -3.37745, -24.47054
  7136, 85.00000, -3.91186, -23.00227
  7137, 85.00000, -4.44626, -21.53400
  7138, 85.00000, -0.25000, -33.31699
  7139, 85.00000, -1.03125, -31.96382
  7140, 85.00000, -1.81250, -30.61066
  7141, 85.00000, -2.59375, -29.25749
  7142, 85.00000, -3.37500, -27.90433
  7143, 85.00000, -4.15625, -26.55116
  7144, 85.00000, -4.93750, -25.19800
  7145, 85.00000, -5.71875, -23.84483
  7146, 85.00000, -6.50000, -22.49167
  7147, 85.00000, -0.32139, -33.36698
  7148, 85.00000, -1.32575, -32.17003
  7149, 85.00000, -2.33011, -30.97309
  7150, 85.00000, -3.33446, -29.77614
  7151, 85.00000, -4.33882, -28.57920
  7152, 85.00000, -5.34317, -27.38226
  7153, 85.00000, -6.34753, -26.18531
  7154, 85.00000, -7.35188, -24.98837
  7155, 85.00000, -8.35624, -23.79142
  7156, 85.00000, -0.38302, -33.42861
  7157, 85.00000, -1.57997, -32.42425
  7158, 85.00000, -2.77691, -31.41989
  7159, 85.00000, -3.97386, -30.41554
  7160, 85.00000, -5.17080, -29.41118
  7161, 85.00000, -6.36774, -28.40683
  7162, 85.00000, -7.56469, -27.40247
  7163, 85.00000, -8.76163, -26.39812
  7164, 85.00000, -9.95858, -25.39376
  7165, 85.00000, -0.43301, -33.50000
  7166, 85.00000, -1.78618, -32.71875
  7167, 85.00000, -3.13934, -31.93750
  7168, 85.00000, -4.49251, -31.15625
  7169, 85.00000, -5.84567, -30.37500
  7170, 85.00000, -7.19884, -29.59375
  7171, 85.00000, -8.55200, -28.81250
  7172, 85.00000, -9.90517, -28.03125
  7173, 85.00000, -11.25833, -27.25000
  7174, 85.00000, -0.46985, -33.57899
  7175, 85.00000, -1.93812, -33.04458
  7176, 85.00000, -3.40639, -32.51018
  7177, 85.00000, -4.87466, -31.97577
  7178, 85.00000, -6.34293, -31.44136
  7179, 85.00000, -7.81119, -30.90696
  7180, 85.00000, -9.27946, -30.37255
  7181, 85.00000, -10.74773, -29.83814
  7182, 85.00000, -12.21600, -29.30374
  7183, 85.00000, -0.49240, -33.66318
  7184, 85.00000, -2.03117, -33.39185
  7185, 85.00000, -3.56993, -33.12053
  7186, 85.00000, -5.10869, -32.84920
  7187, 85.00000, -6.64745, -32.57787
  7188, 85.00000, -8.18621, -32.30655
  7189, 85.00000, -9.72498, -32.03522
  7190, 85.00000, -11.26374, -31.76390
  7191, 85.00000, -12.80250, -31.49257
  7192, 85.00000, -0.50000, -33.75000
  7193, 85.00000, -2.06250, -33.75000
  7194, 85.00000, -3.62500, -33.75000
  7195, 85.00000, -5.18750, -33.75000
  7196, 85.00000, -6.75000, -33.75000
  7197, 85.00000, -8.31250, -33.75000
  7198, 85.00000, -9.87500, -33.75000
  7199, 85.00000, -11.43750, -33.75000
  7200, 85.00000, -13.00000, -33.75000
  7201, 85.00000, -0.49240, -33.83682
  7202, 85.00000, -2.03117, -34.10815
  7203, 85.00000, -3.56993, -34.37947
  7204, 85.00000, -5.10869, -34.65080
  7205, 85.00000, -6.64745, -34.92213
  7206, 85.00000, -8.18621, -35.19345
  7207, 85.00000, -9.72498, -35.46478
  7208, 85.00000, -11.26374, -35.73610
  7209, 85.00000, -12.80250, -36.00743
  7210, 85.00000, -0.46985, -33.92101
  7211, 85.00000, -1.93812, -34.45542
  7212, 85.00000, -3.40639, -34.98982
  7213, 85.00000, -4.87466, -35.52423
  7214, 85.00000, -6.34293, -36.05864
  7215, 85.00000, -7.81119, -36.59304
  7216, 85.00000, -9.27946, -37.12745
  7217, 85.00000, -10.74773, -37.66186
  7218, 85.00000, -12.21600, -38.19626
  7219, 85.00000, -0.43301, -34.00000
  7220, 85.00000, -1.78618, -34.78125
  7221, 85.00000, -3.13934, -35.56250
  7222, 85.00000, -4.49251, -36.34375
  7223, 85.00000, -5.84567, -37.12500
  7224, 85.00000, -7.19884, -37.90625
  7225, 85.00000, -8.55200, -38.68750
  7226, 85.00000, -9.90517, -39.46875
  7227, 85.00000, -11.25833, -40.25000
  7228, 85.00000, -0.38302, -34.07139
  7229, 85.00000, -1.57997, -35.07575
  7230, 85.00000, -2.77691, -36.08011
  7231, 85.00000, -3.97386, -37.08446
  7232, 85.00000, -5.17080, -38.08882
  7233, 85.00000, -6.36774, -39.09317
  7234, 85.00000, -7.56469, -40.09753
  7235, 85.00000, -8.76163, -41.10188
  7236, 85.00000, -9.95858, -42.10624
  7237, 85.00000, -0.32139, -34.13302
  7238, 85.00000, -1.32575, -35.32997
  7239, 85.00000, -2.33011, -36.52691
  7240, 85.00000, -3.33446, -37.72386
  7241, 85.00000, -4.33882, -38.92080
  7242, 85.00000, -5.34317, -40.11774
  7243, 85.00000, -6.34753, -41.31469
  7244, 85.00000, -7.35188, -42.51163
  7245, 85.00000, -8.35624, -43.70858
  7246, 85.00000, -0.25000, -34.18301
  7247, 85.00000, -1.03125, -35.53618
  7248, 85.00000, -1.81250, -36.88934
  7249, 85.00000, -2.59375, -38.24251
  7250, 85.00000, -3.37500, -39.59567
  7251, 85.00000, -4.15625, -40.94884
  7252, 85.00000, -4.93750, -42.30200
  7253, 85.00000, -5.71875, -43.65517
  7254, 85.00000, -6.50000, -45.00833
  7255, 85.00000, -0.17101, -34.21985
  7256, 85.00000, -0.70542, -35.68812
  7257, 85.00000, -1.23982, -37.15639
  7258, 85.00000, -1.77423, -38.62466
  7259, 85.00000, -2.30864, -40.09293
  7260, 85.00000, -2.84304, -41.56119
  7261, 85.00000, -3.37745, -43.02946
  7262, 85.00000, -3.91186, -44.49773
  7263, 85.00000, -4.44626, -45.96600
  7264, 85.00000, -0.08682, -34.24240
  7265, 85.00000, -0.35815, -35.78117
  7266, 85.00000, -0.62947, -37.31993
  7267, 85.00000, -0.90080, -38.85869
  7268, 85.00000, -1.17213, -40.39745
  7269, 85.00000, -1.44345, -41.93621
  7270, 85.00000, -1.71478, -43.47498
  7271, 85.00000, -1.98610, -45.01374
  7272, 85.00000, -2.25743, -46.55250
  7273, 85.00000, -0.00000, -34.25000
  7274, 85.00000, -0.00000, -35.81250
  7275, 85.00000, -0.00000, -37.37500
  7276, 85.00000, -0.00000, -38.93750
  7277, 85.00000, -0.00000, -40.50000
  7278, 85.00000, -0.00000, -42.06250
  7279, 85.00000, -0.00000, -43.62500
  7280, 85.00000, -0.00000, -45.18750
  7281, 85.00000, -0.00000, -46.75000
  7282, 85.00000, 0.08682, -34.24240
  7283, 85.00000, 0.35815, -35.78117
  7284, 85.00000, 0.62947, -37.31993
  7285, 85.00000, 0.90080, -38.85869
  7286, 85.00000, 1.17213, -40.39745
  7287, 85.00000, 1.44345, -41.93621
  7288, 85.00000, 1.71478, -43.47498
  7289, 85.00000, 1.98610, -45.01374
  7290, 85.00000, 2.25743, -46.55250
  7291, 85.00000, 0.17101, -34.21985
  7292, 85.00000, 0.70542, -35.68812
  7293, 85.00000, 1.23982, -37.15639
  7294, 85.00000, 1.77423, -38.62466
  7295, 85.00000, 2.30864, -40.09293
  7296, 85.00000, 2.84304, -41.56119
  7297, 85.00000, 3.37745, -43.02946
  7298, 85.00000, 3.91186, -44.49773
  7299, 85.00000, 4.44626, -45.96600
  7300, 85.00000, 0.25000, -34.18301
  7301, 85.00000, 1.03125, -35.53618
  7302, 85.00000, 1.81250, -36.88934
  7303, 85.00000, 2.59375, -38.24251
  7304, 85.00000, 3.37500, -39.59567
  7305, 85.00000, 4.15625, -40.94884
  7306, 85.00000, 4.93750, -42.30200
  7307, 85.00000, 5.71875, -43.65517
  7308, 85.00000, 6.50000, -45.00833
  7309, 85.00000, 0.32139, -34.13302
  7310, 85.00000, 1.32575, -35.32997
  7311, 85.00000, 2.33011, -36.52691
  7312, 85.00000, 3.33446, -37.72386
  7313, 85.00000, 4.33882, -38.92080
  7314, 85.00000, 5.34317, -40.11774
  7315, 85.00000, 6.34753, -41.31469
  7316, 85.00000, 7.35188, -42.51163
  7317, 85.00000, 8.35624, -43.70858
  7318, 85.00000, 0.38302, -34.07139
  7319, 85.00000, 1.57997, -35.07575
  7320, 85.00000, 2.77691, -36.08011
  7321, 85.00000, 3.97386, -37.08446
  7322, 85.00000, 5.17080, -38.08882
  7323, 85.00000, 6.36774, -39.09317
  7324, 85.00000, 7.56469, -40.09753
  7325, 85.00000, 8.76163, -41.10188
  7326, 85.00000, 9.95858, -42.10624
  7327, 85.00000, 0.43301, -34.00000
  7328, 85.00000, 1.78618, -34.78125
  7329, 85.00000, 3.13934, -35.56250
  7330, 85.00000, 4.49251, -36.34375
  7331, 85.00000, 5.84567, -37.12500
  7332, 85.00000, 7.19884, -37.90625
  7333, 85.00000, 8.55200, -38.68750
  7334, 85.00000, 9.90517, -39.46875
  7335, 85.00000, 11.25833, -40.25000
  7336, 85.00000, 0.46985, -33.92101
  7337, 85.00000, 1.93812, -34.45542
  7338, 85.00000, 3.40639, -34.98982
  7339, 85.00000, 4.87466, -35.52423
  7340, 85.00000, 6.34293, -36.05864
  7341, 85.00000, 7.81119, -36.59304
  7342, 85.00000, 9.27946, -37.12745
  7343, 85.00000, 10.74773, -37.66186
  7344, 85.00000, 12.21600, -38.19626
  7345, 85.00000, 0.49240, -33.83682
  7346, 85.00000, 2.03117, -34.10815
  7347, 85.00000, 3.56993, -34.37947
  7348, 85.00000, 5.10869, -34.65080
  7349, 85.00000, 6.64745, -34.92213
  7350, 85.00000, 8.18621, -35.19345
  7351, 85.00000, 9.72498, -35.46478
  7352, 85.00000, 11.26374, -35.73610
  7353, 85.00000, 12.80250, -36.00743
  7354, 85.00000, 0.50000, -33.75000
  7355, 85.00000, 2.06250, -33.75000
  7356, 85.00000, 3.62500, -33.75000
  7357, 85.00000, 5.18750, -33.75000
  7358, 85.00000, 6.75000, -33.75000
  7359, 85.00000, 8.31250, -33.75000
  7360, 85.00000, 9.87500, -33.75000
  7361, 85.00000, 11.43750, -33.75000
  7362, 85.00000, 13.00000, -33.75000
  7363, 90.00000, 0.50000, -33.75000
  7364, 90.00000, 2.06250, -33.75000
  7365, 90.00000, 3.62500, -33.75000
  7366, 90.00000, 5.18750, -33.75000
  7367, 90.00000, 6.75000, -33.75000
  7368, 90.00000, 8.31250, -33.75000
  7369, 90.00000, 9.87500, -33.75000
  7370, 90.00000, 11.43750, -33.75000
  7371, 90.00000, 13.00000, -33.75000
  7372, 90.00000, 0.49240, -33.66318
  7373, 90.00000, 2.03117, -33.39185
  7374, 90.00000, 3.56993, -33.12053
  7375, 90.00000, 5.10869, -32.84920
  7376, 90.00000, 6.64745, -32.57787
  7377, 90.00000, 8.18621, -32.30655
  7378, 90.00000, 9.72498, -32.03522
  7379, 90.00000, 11.26374, -31.76390
  7380, 90.00000, 12.80250, -31.49257
  7381, 90.00000, 0.46985, -33.57899
  7382, 90.00000, 1.93812, -33.04458
  7383, 90.00000, 3.40639, -32.51018
  7384, 90.00000, 4.87466, -31.97577
  7385, 90.00000, 6.34293, -31.44136
  7386, 90.00000, 7.81119, -30.90696
  7387, 90.00000, 9.27946, -30.37255
  7388, 90.00000, 10.74773, -29.83814
  7389, 90.00000, 12.21600, -29.30374
  7390, 90.00000, 0.43301, -33.50000
  7391, 90.00000, 1.78618, -32.71875
  7392, 90.00000, 3.13934, -31.93750
  7393, 90.00000, 4.49251, -31.15625
  7394, 90.00000, 5.84567, -30.37500
  7395, 90.00000, 7.19884, -29.59375
  7396, 90.00000, 8.55200, -28.81250
  7397, 90.00000, 9.90517, -28.03125
  7398, 90.00000, 11.25833, -27.25000
  7399, 90.00000, 0.38302, -33.42861
  7400, 90.00000, 1.57997, -32.42425
  7401, 90.00000, 2.77691, -31.41989
  7402, 90.00000, 3.97386, -30.41554
  7403, 90.00000, 5.17080, -29.41118
  7404, 90.00000, 6.36774, -28.40683
  7405, 90.00000, 7.56469, -27.40247
  7406, 90.00000, 8.76163, -26.39812
  7407, 90.00000, 9.95858, -25.39376
  7408, 90.00000, 0.32139, -33.36698
  7409, 90.00000, 1.32575, -32.17003
  7410, 90.00000, 2.33011, -30.97309
  7411, 90.00000, 3.33446, -29.77614
  7412, 90.00000, 4.33882, -28.57920
  7413, 90.00000, 5.34317, -27.38226
  7414, 90.00000, 6.34753, -26.18531
  7415, 90.00000, 7.35188, -24.98837
  7416, 90.00000, 8.35624, -23.79142
  7417, 90.00000, 0.25000, -33.31699
  7418, 90.00000, 1.03125, -31.96382
  7419, 90.00000, 1.81250, -30.61066
  7420, 90.00000, 2.59375, -29.25749
  7421, 90.00000, 3.37500, -27.90433
  7422, 90.00000, 4.15625, -26.55116
  7423, 90.00000, 4.93750, -25.19800
  7424, 90.00000, 5.71875, -23.84483
  7425, 90.00000, 6.50000, -22.49167
  7426, 90.00000, 0.17101, -33.28015
  7427, 90.00000, 0.70542, -31.81188
  7428, 90.00000, 1.23982, -30.34361
  7429, 90.00000, 1.77423, -28.87534
  7430, 90.00000, 2.30864, -27.40707
  7431, 90.00000, 2.84304, -25.93881
  7432, 90.00000, 3.37745, -24.47054
  7433, 90.00000, 3.91186, -23.00227
  7434, 90.00000, 4.44626, -21.53400
  7435, 90.00000, 0.08682, -33.25760
  7436, 90.00000, 0.35815, -31.71883
  7437, 90.00000, 0.62947, -30.18007
  7438, 90.00000, 0.90080, -28.64131
  7439, 90.00000, 1.17213, -27.10255
  7440, 90.00000, 1.44345, -25.56379
  7441, 90.00000, 1.71478, -24.02502
  7442, 90.00000, 1.98610, -22.48626
  7443, 90.00000, 2.25743, -20.94750
  7444, 90.00000, 0.00000, -33.25000
  7445, 90.00000, 0.00000, -31.68750
  7446, 90.00000, 0.00000, -30.12500
  7447, 90.00000, 0.00000, -28.56250
  7448, 90.00000, 0.00000, -27.00000
  7449, 90.00000, 0.00000, -25.43750
  7450, 90.00000, 0.00000, -23.87500
  7451, 90.00000, 0.00000, -22.31250
  7452, 90.00000, 0.00000, -20.75000
  7453, 90.00000, -0.08682, -33.25760
  7454, 90.00000, -0.35815, -31.71883
  7455, 90.00000, -0.62947, -30.18007
  7456, 90.00000, -0.90080, -28.64131
  7457, 90.00000, -1.17213, -27.10255
  7458, 90.00000, -1.44345, -25.56379
  7459, 90.00000, -1.71478, -24.02502
  7460, 90.00000, -1.98610, -22.48626
  7461, 90.00000, -2.25743, -20.94750
  7462, 90.00000, -0.17101, -33.28015
  7463, 90.00000, -0.70542, -31.81188
  7464, 90.00000, -1.23982, -30.34361
  7465, 90.00000, -1.77423, -28.87534
  7466, 90.00000, -2.30864, -27.40707
  7467, 90.00000, -2.84304, -25.93881
  7468, 90.00000, -3.37745, -24.47054
  7469, 90.00000, -3.91186, -23.00227
  7470, 90.00000, -4.44626, -21.53400
  7471, 90.00000, -0.25000, -33.31699
  7472, 90.00000, -1.03125, -31.96382
  7473, 90.00000, -1.81250, -30.61066
  7474, 90.00000, -2.59375, -29.25749
  7475, 90.00000, -3.37500, -27.90433
  7476, 90.00000, -4.15625, -26.55116
  7477, 90.00000, -4.93750, -25.19800
  7478, 90.00000, -5.71875, -23.84483
  7479, 90.00000, -6.50000, -22.49167
  7480, 90.00000, -0.32139, -33.36698
  7481, 90.00000, -1.32575, -32.17003
  7482, 90.00000, -2.33011, -30.97309
  7483, 90.00000, -3.33446, -29.77614
  7484, 90.00000, -4.33882, -28.57920
  7485, 90.00000, -5.34317, -27.38226
  7486, 90.00000, -6.34753, -26.18531
  7487, 90.00000, -7.35188, -24.98837
  7488, 90.00000, -8.35624, -23.79142
  7489, 90.00000, -0.38302, -33.42861
  7490, 90.00000, -1.57997, -32.42425
  7491, 90.00000, -2.77691, -31.41989
  7492, 90.00000, -3.97386, -30.41554
  7493, 90.00000, -5.17080, -29.41118
  7494, 90.00000, -6.36774, -28.40683
  7495, 90.00000, -7.56469, -27.40247
  7496, 90.00000, -8.76163, -26.39812
  7497, 90.00000, -9.95858, -25.39376
  7498, 90.00000, -0.43301, -33.50000
  7499, 90.00000, -1.78618, -32.71875
  7500, 90.00000, -3.13934, -31.93750
  7501, 90.00000, -4.49251, -31.15625
  7502, 90.00000, -5.84567, -30.37500
  7503, 90.00000, -7.19884, -29.59375
  7504, 90.00000, -8.55200, -28.81250
  7505, 90.00000, -9.90517, -28.03125
  7506, 90.00000, -11.25833, -27.25000
  7507, 90.00000, -0.46985, -33.57899
  7508, 90.00000, -1.93812, -33.04458
  7509, 90.00000, -3.40639, -32.51018
  7510, 90.00000, -4.87466, -31.97577
  7511, 90.00000, -6.34293, -31.44136
  7512, 90.00000, -7.81119, -30.90696
  7513, 90.00000, -9.27946, -30.37255
  7514, 90.00000, -10.74773, -29.83814
  7515, 90.00000, -12.21600, -29.30374
  7516, 90.00000, -0.49240, -33.66318
  7517, 90.00000, -2.03117, -33.39185
  7518, 90.00000, -3.56993, -33.12053
  7519, 90.00000, -5.10869, -32.84920
  7520, 90.00000, -6.64745, -32.57787
  7521, 90.00000, -8.18621, -32.30655
  7522, 90.00000, -9.72498, -32.03522
  7523, 90.00000, -11.26374, -31.76390
  7524, 90.00000, -12.80250, -31.49257
  7525, 90.00000, -0.50000, -33.75000
  7526, 90.00000, -2.06250, -33.75000
  7527, 90.00000, -3.62500, -33.75000
  7528, 90.00000, -5.18750, -33.75000
  7529, 90.00000, -6.75000, -33.75000
  7530, 90.00000, -8.31250, -33.75000
  7531, 90.00000, -9.87500, -33.75000
  7532, 90.00000, -11.43750, -33.75000
  7533, 90.00000, -13.00000, -33.75000
  7534, 90.00000, -0.49240, -33.83682
  7535, 90.00000, -2.03117, -34.10815
  7536, 90.00000, -3.56993, -34.37947
  7537, 90.00000, -5.10869, -34.65080
  7538, 90.00000, -6.64745, -34.92213
  7539, 90.00000, -8.18621, -35.19345
  7540, 90.00000, -9.72498, -35.46478
  7541, 90.00000, -11.26374, -35.73610
  7542, 90.00000, -12.80250, -36.00743
  7543, 90.00000, -0.46985, -33.92101
  7544, 90.00000, -1.93812, -34.45542
  7545, 90.00000, -3.40639, -34.98982
  7546, 90.00000, -4.87466, -35.52423
  7547, 90.00000, -6.34293, -36.05864
  7548, 90.00000, -7.81119, -36.59304
  7549, 90.00000, -9.27946, -37.12745
  7550, 90.00000, -10.74773, -37.66186
  7551, 90.00000, -12.21600, -38.19626
  7552, 90.00000, -0.43301, -34.00000
  7553, 90.00000, -1.78618, -34.78125
  7554, 90.00000, -3.13934, -35.56250
  7555, 90.00000, -4.49251, -36.34375
  7556, 90.00000, -5.84567, -37.12500
  7557, 90.00000, -7.19884, -37.90625
  7558, 90.00000, -8.55200, -38.68750
  7559, 90.00000, -9.90517, -39.46875
  7560, 90.00000, -11.25833, -40.25000
  7561, 90.00000, -0.38302, -34.07139
  7562, 90.00000, -1.57997, -35.07575
  7563, 90.00000, -2.77691, -36.08011
  7564, 90.00000, -3.97386, -37.08446
  7565, 90.00000, -5.17080, -38.08882
  7566, 90.00000, -6.36774, -39.09317
  7567, 90.00000, -7.56469, -40.09753
  7568, 90.00000, -8.76163, -41.10188
  7569, 90.00000, -9.95858, -42.10624
  7570, 90.00000, -0.32139, -34.13302
  7571, 90.00000, -1.32575, -35.32997
  7572, 90.00000, -2.33011, -36.52691
  7573, 90.00000, -3.33446, -37.72386
  7574, 90.00000, -4.33882, -38.92080
  7575, 90.00000, -5.34317, -40.11774
  7576, 90.00000, -6.34753, -41.31469
  7577, 90.00000, -7.35188, -42.51163
  7578, 90.00000, -8.35624, -43.70858
  7579, 90.00000, -0.25000, -34.18301
  7580, 90.00000, -1.03125, -35.53618
  7581, 90.00000, -1.81250, -36.88934
  7582, 90.00000, -2.59375, -38.24251
  7583, 90.00000, -3.37500, -39.59567
  7584, 90.00000, -4.15625, -40.94884
  7585, 90.00000, -4.93750, -42.30200
  7586, 90.00000, -5.71875, -43.65517
  7587, 90.00000, -6.50000, -45.00833
  7588, 90.00000, -0.17101, -34.21985
  7589, 90.00000, -0.70542, -35.68812
  7590, 90.00000, -1.23982, -37.15639
  7591, 90.00000, -1.77423, -38.62466
  7592, 90.00000, -2.30864, -40.09293
  7593, 90.00000, -2.84304, -41.56119
  7594, 90.00000, -3.37745, -43.02946
  7595, 90.00000, -3.91186, -44.49773
  7596, 90.00000, -4.44626, -45.96600
  7597, 90.00000, -0.08682, -34.24240
  7598, 90.00000, -0.35815, -35.78117
  7599, 90.00000, -0.62947, -37.31993
  7600, 90.00000, -0.90080, -38.85869
  7601, 90.00000, -1.17213, -40.39745
  7602, 90.00000, -1.44345, -41.93621
  7603, 90.00000, -1.71478, -43.47498
  7604, 90.00000, -1.98610, -45.01374
  7605, 90.00000, -2.25743, -46.55250
  7606, 90.00000, -0.00000, -34.25000
  7607, 90.00000, -0.00000, -35.81250
  7608, 90.00000, -0.00000, -37.37500
  7609, 90.00000, -0.00000, -38.93750
  7610, 90.00000, -0.00000, -40.50000
  7611, 90.00000, -0.00000, -42.06250
  7612, 90.00000, -0.00000, -43.62500
  7613, 90.00000, -0.00000, -45.18750
  7614, 90.00000, -0.00000, -46.75000
  7615, 90.00000, 0.08682, -34.24240
  7616, 90.00000, 0.35815, -35.78117
  7617, 90.00000, 0.62947, -37.31993
  7618, 90.00000, 0.90080, -38.85869
  7619, 90.00000, 1.17213, -40.39745
  7620, 90.00000, 1.44345, -41.93621
  7621, 90.00000, 1.71478, -43.47498
  7622, 90.00000, 1.98610, -45.01374
  7623, 90.00000, 2.25743, -46.55250
  7624, 90.00000, 0.17101, -34.21985
  7625, 90.00000, 0.70542, -35.68812
  7626, 90.00000, 1.23982, -37.15639
  7627, 90.00000, 1.77423, -38.62466
  7628, 90.00000, 2.30864, -40.09293
  7629, 90.00000, 2.84304, -41.56119
  7630, 90.00000, 3.37745, -43.02946
  7631, 90.00000, 3.91186, -44.49773
  7632, 90.00000, 4.44626, -45.96600
  7633, 90.00000, 0.25000, -34.18301
  7634, 90.00000, 1.03125, -35.53618
  7635, 90.00000, 1.81250, -36.88934
  7636, 90.00000, 2.59375, -38.24251
  7637, 90.00000, 3.37500, -39.59567
  7638, 90.00000, 4.15625, -40.94884
  7639, 90.00000, 4.93750, -42.30200
  7640, 90.00000, 5.71875, -43.65517
  7641, 90.00000, 6.50000, -45.00833
  7642, 90.00000, 0.32139, -34.13302
  7643, 90.00000, 1.32575, -35.32997
  7644, 90.00000, 2.33011, -36.52691
  7645, 90.00000, 3.33446, -37.72386
  7646, 90.00000, 4.33882, -38.92080
  7647, 90.00000, 5.34317, -40.11774
  7648, 90.00000, 6.34753, -41.31469
  7649, 90.00000, 7.35188, -42.51163
  7650, 90.00000, 8.35624, -43.70858
  7651, 90.00000, 0.38302, -34.07139
  7652, 90.00000, 1.57997, -35.07575
  7653, 90.00000, 2.77691, -36.08011
  7654, 90.00000, 3.97386, -37.08446
  7655, 90.00000, 5.17080, -38.08882
  7656, 90.00000, 6.36774, -39.09317
  7657, 90.00000, 7.56469, -40.09753
  7658, 90.00000, 8.76163, -41.10188
  7659, 90.00000, 9.95858, -42.10624
  7660, 90.00000, 0.43301, -34.00000
  7661, 90.00000, 1.78618, -34.78125
  7662, 90.00000, 3.13934, -35.56250
  7663, 90.00000, 4.49251, -36.34375
  7664, 90.00000, 5.84567, -37.12500
  7665, 90.00000, 7.19884, -37.90625
  7666, 90.00000, 8.55200, -38.68750
  7667, 90.00000, 9.90517, -39.46875
  7668, 90.00000, 11.25833, -40.25000
  7669, 90.00000, 0.46985, -33.92101
  7670, 90.00000, 1.93812, -34.45542
  7671, 90.00000, 3.40639, -34.98982
  7672, 90.00000, 4.87466, -35.52423
  7673, 90.00000, 6.34293, -36.05864
  7674, 90.00000, 7.81119, -36.59304
  7675, 90.00000, 9.27946, -37.12745
  7676, 90.00000, 10.74773, -37.66186
  7677, 90.00000, 12.21600, -38.19626
  7678, 90.00000, 0.49240, -33.83682
  7679, 90.00000, 2.03117, -34.10815
  7680, 90.00000, 3.56993, -34.37947
  7681, 90.00000, 5.10869, -34.65080
  7682, 90.00000, 6.64745, -34.92213
  7683, 90.00000, 8.18621, -35.19345
  7684, 90.00000, 9.72498, -35.46478
  7685, 90.00000, 11.26374, -35.73610
  7686, 90.00000, 12.80250, -36.00743
  7687, 90.00000, 0.50000, -33.75000
  7688, 90.00000, 2.06250, -33.75000
  7689, 90.00000, 3.62500, -33.75000
  7690, 90.00000, 5.18750, -33.75000
  7691, 90.00000, 6.75000, -33.75000
  7692, 90.00000, 8.31250, -33.75000
  7693, 90.00000, 9.87500, -33.75000
  7694, 90.00000, 11.43750, -33.75000
  7695, 90.00000, 13.00000, -33.75000
  7696, 95.00000, 0.50000, -33.75000
  7697, 95.00000, 2.06250, -33.75000
  7698, 95.00000, 3.62500, -33.75000
  7699, 95.00000, 5.18750, -33.75000
  7700, 95.00000, 6.75000, -33.75000
  7701, 95.00000, 8.31250, -33.75000
  7702, 95.00000, 9.87500, -33.75000
  7703, 95.00000, 11.43750, -33.75000
  7704, 95.00000, 13.00000, -33.75000
  7705, 95.00000, 0.49240, -33.66318
  7706, 95.00000, 2.03117, -33.39185
  7707, 95.00000, 3.56993, -33.12053
  7708, 95.00000, 5.10869, -32.84920
  7709, 95.00000, 6.64745, -32.57787
  7710, 95.00000, 8.18621, -32.30655
  7711, 95.00000, 9.72498, -32.03522
  7712, 95.00000, 11.26374, -31.76390
  7713, 95.00000, 12.80250, -31.49257
  7714, 95.00000, 0.46985, -33.57899
  7715, 95.00000, 1.93812, -33.04458
  7716, 95.00000, 3.40639, -32.51018
  7717, 95.00000, 4.87466, -31.97577
  7718, 95.00000, 6.34293, -31.44136
  7719, 95.00000, 7.81119, -30.90696
  7720, 95.00000, 9.27946, -30.37255
  7721, 95.00000, 10.74773, -29.83814
  7722, 95.00000, 12.21600, -29.30374
  7723, 95.00000, 0.43301, -33.50000
  7724, 95.00000, 1.78618, -32.71875
  7725, 95.00000, 3.13934, -31.93750
  7726, 95.00000, 4.49251, -31.15625
  7727, 95.00000, 5.84567, -30.37500
  7728, 95.00000, 7.19884, -29.59375
  7729, 95.00000, 8.55200, -28.81250
  7730, 95.00000, 9.90517, -28.03125
  7731, 95.00000, 11.25833, -27.25000
  7732, 95.00000, 0.38302, -33.42861
  7733, 95.00000, 1.57997, -32.42425
  7734, 95.00000, 2.77691, -31.41989
  7735, 95.00000, 3.97386, -30.41554
  7736, 95.00000, 5.17080, -29.41118
  7737, 95.00000, 6.36774, -28.40683
  7738, 95.00000, 7.56469, -27.40247
  7739, 95.00000, 8.76163, -26.39812
  7740, 95.00000, 9.95858, -25.39376
  7741, 95.00000, 0.32139, -33.36698
  7742, 95.00000, 1.32575, -32.17003
  7743, 95.00000, 2.33011, -30.97309
  7744, 95.00000, 3.33446, -29.77614
  7745, 95.00000, 4.33882, -28.57920
  7746, 95.00000, 5.34317, -27.38226
  7747, 95.00000, 6.34753, -26.18531
  7748, 95.00000, 7.35188, -24.98837
  7749, 95.00000, 8.35624, -23.79142
  7750, 95.00000, 0.25000, -33.31699
  7751, 95.00000, 1.03125, -31.96382
  7752, 95.00000, 1.81250, -30.61066
  7753, 95.00000, 2.59375, -29.25749
  7754, 95.00000, 3.37500, -27.90433
  7755, 95.00000, 4.15625, -26.55116
  7756, 95.00000, 4.93750, -25.19800
  7757, 95.00000, 5.71875, -23.84483
  7758, 95.00000, 6.50000, -22.49167
  7759, 95.00000, 0.17101, -33.28015
  7760, 95.00000, 0.70542, -31.81188
  7761, 95.00000, 1.23982, -30.34361
  7762, 95.00000, 1.77423, -28.87534
  7763, 95.00000, 2.30864, -27.40707
  7764, 95.00000, 2.84304, -25.93881
  7765, 95.00000, 3.37745, -24.47054
  7766, 95.00000, 3.91186, -23.00227
  7767, 95.00000, 4.44626, -21.53400
  7768, 95.00000, 0.08682, -33.25760
  7769, 95.00000, 0.35815, -31.71883
  7770, 95.00000, 0.62947, -30.18007
  7771, 95.00000, 0.90080, -28.64131
  7772, 95.00000, 1.17213, -27.10255
  7773, 95.00000, 1.44345, -25.56379
  7774, 95.00000, 1.71478, -24.02502
  7775, 95.00000, 1.98610, -22.48626
  7776, 95.00000, 2.25743, -20.94750
  7777, 95.00000, 0.00000, -33.25000
  7778, 95.00000, 0.00000, -31.68750
  7779, 95.00000, 0.00000, -30.12500
  7780, 95.00000, 0.00000, -28.56250
  7781, 95.00000, 0.00000, -27.00000
  7782, 95.00000, 0.00000, -25.43750
  7783, 95.00000, 0.00000, -23.87500
  7784, 95.00000, 0.00000, -22.31250
  7785, 95.00000, 0.00000, -20.75000
  7786, 95.00000, -0.08682, -33.25760
  7787, 95.00000, -0.35815, -31.71883
  7788, 95.00000, -0.62947, -30.18007
  7789, 95.00000, -0.90080, -28.64131
  7790, 95.00000, -1.17213, -27.10255
  7791, 95.00000, -1.44345, -25.56379
  7792, 95.00000, -1.71478, -24.02502
  7793, 95.00000, -1.98610, -22.48626
  7794, 95.00000, -2.25743, -20.94750
  7795, 95.00000, -0.17101, -33.28015
  7796, 95.00000, -0.70542, -31.81188
  7797, 95.00000, -1.23982, -30.34361
  7798, 95.00000, -1.77423, -28.87534
  7799, 95.00000, -2.30864, -27.40707
  7800, 95.00000, -2.84304, -25.93881
  7801, 95.00000, -3.37745, -24.47054
  7802, 95.00000, -3.91186, -23.00227
  7803, 95.00000, -4.44626, -21.53400
  7804, 95.00000, -0.25000, -33.31699
  7805, 95.00000, -1.03125, -31.96382
  7806, 95.00000, -1.81250, -30.61066
  7807, 95.00000, -2.59375, -29.25749
  7808, 95.00000, -3.37500, -27.90433
  7809, 95.00000, -4.15625, -26.55116
  7810, 95.00000, -4.93750, -25.19800
  7811, 95.00000, -5.71875, -23.84483
  7812, 95.00000, -6.50000, -22.49167
  7813, 95.00000, -0.32139, -33.36698
  7814, 95.00000, -1.32575, -32.17003
  7815, 95.00000, -2.33011, -30.97309
  7816, 95.00000, -3.33446, -29.77614
  7817, 95.00000, -4.33882, -28.57920
  7818, 95.00000, -5.34317, -27.38226
  7819, 95.00000, -6.34753, -26.18531
  7820, 95.00000, -7.35188, -24.98837
  7821, 95.00000, -8.35624, -23.79142
  7822, 95.00000, -0.38302, -33.42861
  7823, 95.00000, -1.57997, -32.42425
  7824, 95.00000, -2.77691, -31.41989
  7825, 95.00000, -3.97386, -30.41554
  7826, 95.00000, -5.17080, -29.41118
  7827, 95.00000, -6.36774, -28.40683
  7828, 95.00000, -7.56469, -27.40247
  7829, 95.00000, -8.76163, -26.39812
  7830, 95.00000, -9.95858, -25.39376
  7831, 95.00000, -0.43301, -33.50000
  7832, 95.00000, -1.78618, -32.71875
  7833, 95.00000, -3.13934, -31.93750
  7834, 95.00000, -4.49251, -31.15625
  7835, 95.00000, -5.84567, -30.37500
  7836, 95.00000, -7.19884, -29.59375
  7837, 95.00000, -8.55200, -28.81250
  7838, 95.00000, -9.90517, -28.03125
  7839, 95.00000, -11.25833, -27.25000
  7840, 95.00000, -0.46985, -33.57899
  7841, 95.00000, -1.93812, -33.04458
  7842, 95.00000, -3.40639, -32.51018
  7843, 95.00000, -4.87466, -31.97577
  7844, 95.00000, -6.34293, -31.44136
  7845, 95.00000, -7.81119, -30.90696
  7846, 95.00000, -9.27946, -30.37255
  7847, 95.00000, -10.74773, -29.83814
  7848, 95.00000, -12.21600, -29.30374
  7849, 95.00000, -0.49240, -33.66318
  7850, 95.00000, -2.03117, -33.39185
  7851, 95.00000, -3.56993, -33.12053
  7852, 95.00000, -5.10869, -32.84920
  7853, 95.00000, -6.64745, -32.57787
  7854, 95.00000, -8.18621, -32.30655
  7855, 95.00000, -9.72498, -32.03522
  7856, 95.00000, -11.26374, -31.76390
  7857, 95.00000, -12.80250, -31.49257
  7858, 95.00000, -0.50000, -33.75000
  7859, 95.00000, -2.06250, -33.75000
  7860, 95.00000, -3.62500, -33.75000
  7861, 95.00000, -5.18750, -33.75000
  7862, 95.00000, -6.75000, -33.75000
  7863, 95.00000, -8.31250, -33.75000
  7864, 95.00000, -9.87500, -33.75000
  7865, 95.00000, -11.43750, -33.75000
  7866, 95.00000, -13.00000, -33.75000
  7867, 95.00000, -0.49240, -33.83682
  7868, 95.00000, -2.03117, -34.10815
  7869, 95.00000, -3.56993, -34.37947
  7870, 95.00000, -5.10869, -34.65080
  7871, 95.00000, -6.64745, -34.92213
  7872, 95.00000, -8.18621, -35.19345
  7873, 95.00000, -9.72498, -35.46478
  7874, 95.00000, -11.26374, -35.73610
  7875, 95.00000, -12.80250, -36.00743
  7876, 95.00000, -0.46985, -33.92101
  7877, 95.00000, -1.93812, -34.45542
  7878, 95.00000, -3.40639, -34.98982
  7879, 95.00000, -4.87466, -35.52423
  7880, 95.00000, -6.34293, -36.05864
  7881, 95.00000, -7.81119, -36.59304
  7882, 95.00000, -9.27946, -37.12745
  7883, 95.00000, -10.74773, -37.66186
  7884, 95.00000, -12.21600, -38.19626
  7885, 95.00000, -0.43301, -34.00000
  7886, 95.00000, -1.78618, -34.78125
  7887, 95.00000, -3.13934, -35.56250
  7888, 95.00000, -4.49251, -36.34375
  7889, 95.00000, -5.84567, -37.12500
  7890, 95.00000, -7.19884, -37.90625
  7891, 95.00000, -8.55200, -38.68750
  7892, 95.00000, -9.90517, -39.46875
  7893, 95.00000, -11.25833, -40.25000
  7894, 95.00000, -0.38302, -34.07139
  7895, 95.00000, -1.57997, -35.07575
  7896, 95.00000, -2.77691, -36.08011
  7897, 95.00000, -3.97386, -37.08446
  7898, 95.00000, -5.17080, -38.08882
  7899, 95.00000, -6.36774, -39.09317
  7900, 95.00000, -7.56469, -40.09753
  7901, 95.00000, -8.76163, -41.10188
  7902, 95.00000, -9.95858, -42.10624
  7903, 95.00000, -0.32139, -34.13302
  7904, 95.00000, -1.32575, -35.32997
  7905, 95.00000, -2.33011, -36.52691
  7906, 95.00000, -3.33446, -37.72386
  7907, 95.00000, -4.33882, -38.92080
  7908, 95.00000, -5.34317, -40.11774
  7909, 95.00000, -6.34753, -41.31469
  7910, 95.00000, -7.35188, -42.51163
  7911, 95.00000, -8.35624, -43.70858
  7912, 95.00000, -0.25000, -34.18301
  7913, 95.00000, -1.03125, -35.53618
  7914, 95.00000, -1.81250, -36.88934
  7915, 95.00000, -2.59375, -38.24251
  7916, 95.00000, -3.37500, -39.59567
  7917, 95.00000, -4.15625, -40.94884
  7918, 95.00000, -4.93750, -42.30200
  7919, 95.00000, -5.71875, -43.65517
  7920, 95.00000, -6.50000, -45.00833
  7921, 95.00000, -0.17101, -34.21985
  7922, 95.00000, -0.70542, -35.68812
  7923, 95.00000, -1.23982, -37.15639
  7924, 95.00000, -1.77423, -38.62466
  7925, 95.00000, -2.30864, -40.09293
  7926, 95.00000, -2.84304, -41.56119
  7927, 95.00000, -3.37745, -43.02946
  7928, 95.00000, -3.91186, -44.49773
  7929, 95.00000, -4.44626, -45.96600
  7930, 95.00000, -0.08682, -34.24240
  7931, 95.00000, -0.35815, -35.78117
  7932, 95.00000, -0.62947, -37.31993
  7933, 95.00000, -0.90080, -38.85869
  7934, 95.00000, -1.17213, -40.39745
  7935, 95.00000, -1.44345, -41.93621
  7936, 95.00000, -1.71478, -43.47498
  7937, 95.00000, -1.98610, -45.01374
  7938, 95.00000, -2.25743, -46.55250
  7939, 95.00000, -0.00000, -34.25000
  7940, 95.00000, -0.00000, -35.81250
  7941, 95.00000, -0.00000, -37.37500
  7942, 95.00000, -0.00000, -38.93750
  7943, 95.00000, -0.00000, -40.50000
  7944, 95.00000, -0.00000, -42.06250
  7945, 95.00000, -0.00000, -43.62500
  7946, 95.00000, -0.00000, -45.18750
  7947, 95.00000, -0.00000, -46.75000
  7948, 95.00000, 0.08682, -34.24240
  7949, 95.00000, 0.35815, -35.78117
  7950, 95.00000, 0.62947, -37.31993
  7951, 95.00000, 0.90080, -38.85869
  7952, 95.00000, 1.17213, -40.39745
  7953, 95.00000, 1.44345, -41.93621
  7954, 95.00000, 1.71478, -43.47498
  7955, 95.00000, 1.98610, -45.01374
  7956, 95.00000, 2.25743, -46.55250
  7957, 95.00000, 0.17101, -34.21985
  7958, 95.00000, 0.70542, -35.68812
  7959, 95.00000, 1.23982, -37.15639
  7960, 95.00000, 1.77423, -38.62466
  7961, 95.00000, 2.30864, -40.09293
  7962, 95.00000, 2.84304, -41.56119
  7963, 95.00000, 3.37745, -43.02946
  7964, 95.00000, 3.91186, -44.49773
  7965, 95.00000, 4.44626, -45.96600
  7966, 95.00000, 0.25000, -34.18301
  7967, 95.00000, 1.03125, -35.53618
  7968, 95.00000, 1.81250, -36.88934
  7969, 95.00000, 2.59375, -38.24251
  7970, 95.00000, 3.37500, -39.59567
  7971, 95.00000, 4.15625, -40.94884
  7972, 95.00000, 4.93750, -42.30200
  7973, 95.00000, 5.71875, -43.65517
  7974, 95.00000, 6.50000, -45.00833
  7975, 95.00000, 0.32139, -34.13302
  7976, 95.00000, 1.32575, -35.32997
  7977, 95.00000, 2.33011, -36.52691
  7978, 95.00000, 3.33446, -37.72386
  7979, 95.00000, 4.33882, -38.92080
  7980, 95.00000, 5.34317, -40.11774
  7981, 95.00000, 6.34753, -41.31469
  7982, 95.00000, 7.35188, -42.51163
  7983, 95.00000, 8.35624, -43.70858
  7984, 95.00000, 0.38302, -34.07139
  7985, 95.00000, 1.57997, -35.07575
  7986, 95.00000, 2.77691, -36.08011
  7987, 95.00000, 3.97386, -37.08446
  7988, 95.00000, 5.17080, -38.08882
  7989, 95.00000, 6.36774, -39.09317
  7990, 95.00000, 7.56469, -40.09753
  7991, 95.00000, 8.76163, -41.10188
  7992, 95.00000, 9.95858, -42.10624
  7993, 95.00000, 0.43301, -34.00000
  7994, 95.00000, 1.78618, -34.78125
  7995, 95.00000, 3.13934, -35.56250
  7996, 95.00000, 4.49251, -36.34375
  7997, 95.00000, 5.84567, -37.12500
  7998, 95.00000, 7.19884, -37.90625
  7999, 95.00000, 8.55200, -38.68750
  8000, 95.00000, 9.90517, -39.46875
  8001, 95.00000, 11.25833, -40.25000
  8002, 95.00000, 0.46985, -33.92101
  8003, 95.00000, 1.93812, -34.45542
  8004, 95.00000, 3.40639, -34.98982
  8005, 95.00000, 4.87466, -35.52423
  8006, 95.00000, 6.34293, -36.05864
  8007, 95.00000, 7.81119, -36.59304
  8008, 95.00000, 9.27946, -37.12745
  8009, 95.00000, 10.74773, -37.66186
  8010, 95.00000, 12.21600, -38.19626
  8011, 95.00000, 0.49240, -33.83682
  8012, 95.00000, 2.03117, -34.10815
  8013, 95.00000, 3.56993, -34.37947
  8014, 95.00000, 5.10869, -34.65080
  8015, 95.00000, 6.64745, -34.92213
  8016, 95.00000, 8.18621, -35.19345
  8017, 95.00000, 9.72498, -35.46478
  8018, 95.00000, 11.26374, -35.73610
  8019, 95.00000, 12.80250, -36.00743
  8020, 95.00000, 0.50000, -33.75000
  8021, 95.00000, 2.06250, -33.75000
  8022, 95.00000, 3.62500, -33.75000
  8023, 95.00000, 5.18750, -33.75000
  8024, 95.00000, 6.75000, -33.75000
  8025, 95.00000, 8.31250, -33.75000
  8026, 95.00000, 9.87500, -33.75000
  8027, 95.00000, 11.43750, -33.75000
  8028, 95.00000, 13.00000, -33.75000
  8029, 100.00000, 0.50000, -33.75000
  8030, 100.00000, 2.06250, -33.75000
  8031, 100.00000, 3.62500, -33.75000
  8032, 100.00000, 5.18750, -33.75000
  8033, 100.00000, 6.75000, -33.75000
  8034, 100.00000, 8.31250, -33.75000
  8035, 100.00000, 9.87500, -33.75000
  8036, 100.00000, 11.43750, -33.75000
  8037, 100.00000, 13.00000, -33.75000
  8038, 100.00000, 0.49240, -33.66318
  8039, 100.00000, 2.03117, -33.39185
  8040, 100.00000, 3.56993, -33.12053
  8041, 100.00000, 5.10869, -32.84920
  8042, 100.00000, 6.64745, -32.57787
  8043, 100.00000, 8.18621, -32.30655
  8044, 100.00000, 9.72498, -32.03522
  8045, 100.00000, 11.26374, -31.76390
  8046, 100.00000, 12.80250, -31.49257
  8047, 100.00000, 0.46985, -33.57899
  8048, 100.00000, 1.93812, -33.04458
  8049, 100.00000, 3.40639, -32.51018
  8050, 100.00000, 4.87466, -31.97577
  8051, 100.00000, 6.34293, -31.44136
  8052, 100.00000, 7.81119, -30.90696
  8053, 100.00000, 9.27946, -30.37255
  8054, 100.00000, 10.74773, -29.83814
  8055, 100.00000, 12.21600, -29.30374
  8056, 100.00000, 0.43301, -33.50000
  8057, 100.00000, 1.78618, -32.71875
  8058, 100.00000, 3.13934, -31.93750
  8059, 100.00000, 4.49251, -31.15625
  8060, 100.00000, 5.84567, -30.37500
  8061, 100.00000, 7.19884, -29.59375
  8062, 100.00000, 8.55200, -28.81250
  8063, 100.00000, 9.90517, -28.03125
  8064, 100.00000, 11.25833, -27.25000
  8065, 100.00000, 0.38302, -33.42861
  8066, 100.00000, 1.57997, -32.42425
  8067, 100.00000, 2.77691, -31.41989
  8068, 100.00000, 3.97386, -30.41554
  8069, 100.00000, 5.17080, -29.41118
  8070, 100.00000, 6.36774, -28.40683
  8071, 100.00000, 7.56469, -27.40247
  8072, 100.00000, 8.76163, -26.39812
  8073, 100.00000, 9.95858, -25.39376
  8074, 100.00000, 0.32139, -33.36698
  8075, 100.00000, 1.32575, -32.17003
  8076, 100.00000, 2.33011, -30.97309
  8077, 100.00000, 3.33446, -29.77614
  8078, 100.00000, 4.33882, -28.57920
  8079, 100.00000, 5.34317, -27.38226
  8080, 100.00000, 6.34753, -26.18531
  8081, 100.00000, 7.35188, -24.98837
  8082, 100.00000, 8.35624, -23.79142
  8083, 100.00000, 0.25000, -33.31699
  8084, 100.00000, 1.03125, -31.96382
  8085, 100.00000, 1.81250, -30.61066
  8086, 100.00000, 2.59375, -29.25749
  8087, 100.00000, 3.37500, -27.90433
  8088, 100.00000, 4.15625, -26.55116
  8089, 100.00000, 4.93750, -25.19800
  8090, 100.00000, 5.71875, -23.84483
  8091, 100.00000, 6.50000, -22.49167
  8092, 100.00000, 0.17101, -33.28015
  8093, 100.00000, 0.70542, -31.81188
  8094, 100.00000, 1.23982, -30.34361
  8095, 100.00000, 1.77423, -28.87534
  8096, 100.00000, 2.30864, -27.40707
  8097, 100.00000, 2.84304, -25.93881
  8098, 100.00000, 3.37745, -24.47054
  8099, 100.00000, 3.91186, -23.00227
  8100, 100.00000, 4.44626, -21.53400
  8101, 100.00000, 0.08682, -33.25760
  8102, 100.00000, 0.35815, -31.71883
  8103, 100.00000, 0.62947, -30.18007
  8104, 100.00000, 0.90080, -28.64131
  8105, 100.00000, 1.17213, -27.10255
  8106, 100.00000, 1.44345, -25.56379
  8107, 100.00000, 1.71478, -24.02502
  8108, 100.00000, 1.98610, -22.48626
  8109, 100.00000, 2.25743, -20.94750
  8110, 100.00000, 0.00000, -33.25000
  8111, 100.00000, 0.00000, -31.68750
  8112, 100.00000, 0.00000, -30.12500
  8113, 100.00000, 0.00000, -28.56250
  8114, 100.00000, 0.00000, -27.00000
  8115, 100.00000, 0.00000, -25.43750
  8116, 100.00000, 0.00000, -23.87500
  8117, 100.00000, 0.00000, -22.31250
  8118, 100.00000, 0.00000, -20.75000
  8119, 100.00000, -0.08682, -33.25760
  8120, 100.00000, -0.35815, -31.71883
  8121, 100.00000, -0.62947, -30.18007
  8122, 100.00000, -0.90080, -28.64131
  8123, 100.00000, -1.17213, -27.10255
  8124, 100.00000, -1.44345, -25.56379
  8125, 100.00000, -1.71478, -24.02502
  8126, 100.00000, -1.98610, -22.48626
  8127, 100.00000, -2.25743, -20.94750
  8128, 100.00000, -0.17101, -33.28015
  8129, 100.00000, -0.70542, -31.81188
  8130, 100.00000, -1.23982, -30.34361
  8131, 100.00000, -1.77423, -28.87534
  8132, 100.00000, -2.30864, -27.40707
  8133, 100.00000, -2.84304, -25.93881
  8134, 100.00000, -3.37745, -24.47054
  8135, 100.00000, -3.91186, -23.00227
  8136, 100.00000, -4.44626, -21.53400
  8137, 100.00000, -0.25000, -33.31699
  8138, 100.00000, -1.03125, -31.96382
  8139, 100.00000, -1.81250, -30.61066
  8140, 100.00000, -2.59375, -29.25749
  8141, 100.00000, -3.37500, -27.90433
  8142, 100.00000, -4.15625, -26.55116
  8143, 100.00000, -4.93750, -25.19800
  8144, 100.00000, -5.71875, -23.84483
  8145, 100.00000, -6.50000, -22.49167
  8146, 100.00000, -0.32139, -33.36698
  8147, 100.00000, -1.32575, -32.17003
  8148, 100.00000, -2.33011, -30.97309
  8149, 100.00000, -3.33446, -29.77614
  8150, 100.00000, -4.33882, -28.57920
  8151, 100.00000, -5.34317, -27.38226
  8152, 100.00000, -6.34753, -26.18531
  8153, 100.00000, -7.35188, -24.98837
  8154, 100.00000, -8.35624, -23.79142
  8155, 100.00000, -0.38302, -33.42861
  8156, 100.00000, -1.57997, -32.42425
  8157, 100.00000, -2.77691, -31.41989
  8158, 100.00000, -3.97386, -30.41554
  8159, 100.00000, -5.17080, -29.41118
  8160, 100.00000, -6.36774, -28.40683
  8161, 100.00000, -7.56469, -27.40247
  8162, 100.00000, -8.76163, -26.39812
  8163, 100.00000, -9.95858, -25.39376
  8164, 100.00000, -0.43301, -33.50000
  8165, 100.00000, -1.78618, -32.71875
  8166, 100.00000, -3.13934, -31.93750
  8167, 100.00000, -4.49251, -31.15625
  8168, 100.00000, -5.84567, -30.37500
  8169, 100.00000, -7.19884, -29.59375
  8170, 100.00000, -8.55200, -28.81250
  8171, 100.00000, -9.90517, -28.03125
  8172, 100.00000, -11.25833, -27.25000
  8173, 100.00000, -0.46985, -33.57899
  8174, 100.00000, -1.93812, -33.04458
  8175, 100.00000, -3.40639, -32.51018
  8176, 100.00000, -4.87466, -31.97577
  8177, 100.00000, -6.34293, -31.44136
  8178, 100.00000, -7.81119, -30.90696
  8179, 100.00000, -9.27946, -30.37255
  8180, 100.00000, -10.74773, -29.83814
  8181, 100.00000, -12.21600, -29.30374
  8182, 100.00000, -0.49240, -33.66318
  8183, 100.00000, -2.03117, -33.39185
  8184, 100.00000, -3.56993, -33.12053
  8185, 100.00000, -5.10869, -32.84920
  8186, 100.00000, -6.64745, -32.57787
  8187, 100.00000, -8.18621, -32.30655
  8188, 100.00000, -9.72498, -32.03522
  8189, 100.00000, -11.26374, -31.76390
  8190, 100.00000, -12.80250, -31.49257
  8191, 100.00000, -0.50000, -33.75000
  8192, 100.00000, -2.06250, -33.75000
  8193, 100.00000, -3.62500, -33.75000
  8194, 100.00000, -5.18750, -33.75000
  8195, 100.00000, -6.75000, -33.75000
  8196, 100.00000, -8.31250, -33.75000
  8197, 100.00000, -9.87500, -33.75000
  8198, 100.00000, -11.43750, -33.75000
  8199, 100.00000, -13.00000, -33.75000
  8200, 100.00000, -0.49240, -33.83682
  8201, 100.00000, -2.03117, -34.10815
  8202, 100.00000, -3.56993, -34.37947
  8203, 100.00000, -5.10869, -34.65080
  8204, 100.00000, -6.64745, -34.92213
  8205, 100.00000, -8.18621, -35.19345
  8206, 100.00000, -9.72498, -35.46478
  8207, 100.00000, -11.26374, -35.73610
  8208, 100.00000, -12.80250, -36.00743
  8209, 100.00000, -0.46985, -33.92101
  8210, 100.00000, -1.93812, -34.45542
  8211, 100.00000, -3.40639, -34.98982
  8212, 100.00000, -4.87466, -35.52423
  8213, 100.00000, -6.34293, -36.05864
  8214, 100.00000, -7.81119, -36.59304
  8215, 100.00000, -9.27946, -37.12745
  8216, 100.00000, -10.74773, -37.66186
  8217, 100.00000, -12.21600, -38.19626
  8218, 100.00000, -0.43301, -34.00000
  8219, 100.00000, -1.78618, -34.78125
  8220, 100.00000, -3.13934, -35.56250
  8221, 100.00000, -4.49251, -36.34375
  8222, 100.00000, -5.84567, -37.12500
  8223, 100.00000, -7.19884, -37.90625
  8224, 100.00000, -8.55200, -38.68750
  8225, 100.00000, -9.90517, -39.46875
  8226, 100.00000, -11.25833, -40.25000
  8227, 100.00000, -0.38302, -34.07139
  8228, 100.00000, -1.57997, -35.07575
  8229, 100.00000, -2.77691, -36.08011
  8230, 100.00000, -3.97386, -37.08446
  8231, 100.00000, -5.17080, -38.08882
  8232, 100.00000, -6.36774, -39.09317
  8233, 100.00000, -7.56469, -40.09753
  8234, 100.00000, -8.76163, -41.10188
  8235, 100.00000, -9.95858, -42.10624
  8236, 100.00000, -0.32139, -34.13302
  8237, 100.00000, -1.32575, -35.32997
  8238, 100.00000, -2.33011, -36.52691
  8239, 100.00000, -3.33446, -37.72386
  8240, 100.00000, -4.33882, -38.92080
  8241, 100.00000, -5.34317, -40.11774
  8242, 100.00000, -6.34753, -41.31469
  8243, 100.00000, -7.35188, -42.51163
  8244, 100.00000, -8.35624, -43.70858
  8245, 100.00000, -0.25000, -34.18301
  8246, 100.00000, -1.03125, -35.53618
  8247, 100.00000, -1.81250, -36.88934
  8248, 100.00000, -2.59375, -38.24251
  8249, 100.00000, -3.37500, -39.59567
  8250, 100.00000, -4.15625, -40.94884
  8251, 100.00000, -4.93750, -42.30200
  8252, 100.00000, -5.71875, -43.65517
  8253, 100.00000, -6.50000, -45.00833
  8254, 100.00000, -0.17101, -34.21985
  8255, 100.00000, -0.70542, -35.68812
  8256, 100.00000, -1.23982, -37.15639
  8257, 100.00000, -1.77423, -38.62466
  8258, 100.00000, -2.30864, -40.09293
  8259, 100.00000, -2.84304, -41.56119
  8260, 100.00000, -3.37745, -43.02946
  8261, 100.00000, -3.91186, -44.49773
  8262, 100.00000, -4.44626, -45.96600
  8263, 100.00000, -0.08682, -34.24240
  8264, 100.00000, -0.35815, -35.78117
  8265, 100.00000, -0.62947, -37.31993
  8266, 100.00000, -0.90080, -38.85869
  8267, 100.00000, -1.17213, -40.39745
  8268, 100.00000, -1.44345, -41.93621
  8269, 100.00000, -1.71478, -43.47498
  8270, 100.00000, -1.98610, -45.01374
  8271, 100.00000, -2.25743, -46.55250
  8272, 100.00000, -0.00000, -34.25000
  8273, 100.00000, -0.00000, -35.81250
  8274, 100.00000, -0.00000, -37.37500
  8275, 100.00000, -0.00000, -38.93750
  8276, 100.00000, -0.00000, -40.50000
  8277, 100.00000, -0.00000, -42.06250
  8278, 100.00000, -0.00000, -43.62500
  8279, 100.00000, -0.00000, -45.18750
  8280, 100.00000, -0.00000, -46.75000
  8281, 100.00000, 0.08682, -34.24240
  8282, 100.00000, 0.35815, -35.78117
  8283, 100.00000, 0.62947, -37.31993
  8284, 100.00000, 0.90080, -38.85869
  8285, 100.00000, 1.17213, -40.39745
  8286, 100.00000, 1.44345, -41.93621
  8287, 100.00000, 1.71478, -43.47498
  8288, 100.00000, 1.98610, -45.01374
  8289, 100.00000, 2.25743, -46.55250
  8290, 100.00000, 0.17101, -34.21985
  8291, 100.00000, 0.70542, -35.68812
  8292, 100.00000, 1.23982, -37.15639
  8293, 100.00000, 1.77423, -38.62466
  8294, 100.00000, 2.30864, -40.09293
  8295, 100.00000, 2.84304, -41.56119
  8296, 100.00000, 3.37745, -43.02946
  8297, 100.00000, 3.91186, -44.49773
  8298, 100.00000, 4.44626, -45.96600
  8299, 100.00000, 0.25000, -34.18301
  8300, 100.00000, 1.03125, -35.53618
  8301, 100.00000, 1.81250, -36.88934
  8302, 100.00000, 2.59375, -38.24251
  8303, 100.00000, 3.37500, -39.59567
  8304, 100.00000, 4.15625, -40.94884
  8305, 100.00000, 4.93750, -42.30200
  8306, 100.00000, 5.71875, -43.65517
  8307, 100.00000, 6.50000, -45.00833
  8308, 100.00000, 0.32139, -34.13302
  8309, 100.00000, 1.32575, -35.32997
  8310, 100.00000, 2.33011, -36.52691
  8311, 100.00000, 3.33446, -37.72386
  8312, 100.00000, 4.33882, -38.92080
  8313, 100.00000, 5.34317, -40.11774
  8314, 100.00000, 6.34753, -41.31469
  8315, 100.00000, 7.35188, -42.51163
  8316, 100.00000, 8.35624, -43.70858
  8317, 100.00000, 0.38302, -34.07139
  8318, 100.00000, 1.57997, -35.07575
  8319, 100.00000, 2.77691, -36.08011
  8320, 100.00000, 3.97386, -37.08446
  8321, 100.00000, 5.17080, -38.08882
  8322, 100.00000, 6.36774, -39.09317
  8323, 100.00000, 7.56469, -40.09753
  8324, 100.00000, 8.76163, -41.10188
  8325, 100.00000, 9.95858, -42.10624
  8326, 100.00000, 0.43301, -34.00000
  8327, 100.00000, 1.78618, -34.78125
  8328, 100.00000, 3.13934, -35.56250
  8329, 100.00000, 4.49251, -36.34375
  8330, 100.00000, 5.84567, -37.12500
  8331, 100.00000, 7.19884, -37.90625
  8332, 100.00000, 8.55200, -38.68750
  8333, 100.00000, 9.90517, -39.46875
  8334, 100.00000, 11.25833, -40.25000
  8335, 100.00000, 0.46985, -33.92101
  8336, 100.00000, 1.93812, -34.45542
  8337, 100.00000, 3.40639, -34.98982
  8338, 100.00000, 4.87466, -35.52423
  8339, 100.00000, 6.34293, -36.05864
  8340, 100.00000, 7.81119, -36.59304
  8341, 100.00000, 9.27946, -37.12745
  8342, 100.00000, 10.74773, -37.66186
  8343, 100.00000, 12.21600, -38.19626
  8344, 100.00000, 0.49240, -33.83682
  8345, 100.00000, 2.03117, -34.10815
  8346, 100.00000, 3.56993, -34.37947
  8347, 100.00000, 5.10869, -34.65080
  8348, 100.00000, 6.64745, -34.92213
  8349, 100.00000, 8.18621, -35.19345
  8350, 100.00000, 9.72498, -35.46478
  8351, 100.00000, 11.26374, -35.73610
  8352, 100.00000, 12.80250, -36.00743
  8353, 100.00000, 0.50000, -33.75000
  8354, 100.00000, 2.06250, -33.75000
  8355, 100.00000, 3.62500, -33.75000
  8356, 100.00000, 5.18750, -33.75000
  8357, 100.00000, 6.75000, -33.75000
  8358, 100.00000, 8.31250, -33.75000
  8359, 100.00000, 9.87500, -33.75000
  8360, 100.00000, 11.43750, -33.75000
  8361, 100.00000, 13.00000, -33.75000
  8362, 105.00000, 0.50000, -33.75000
  8363, 105.00000, 2.06250, -33.75000
  8364, 105.00000, 3.62500, -33.75000
  8365, 105.00000, 5.18750, -33.75000
  8366, 105.00000, 6.75000, -33.75000
  8367, 105.00000, 8.31250, -33.75000
  8368, 105.00000, 9.87500, -33.75000
  8369, 105.00000, 11.43750, -33.75000
  8370, 105.00000, 13.00000, -33.75000
  8371, 105.00000, 0.49240, -33.66318
  8372, 105.00000, 2.03117, -33.39185
  8373, 105.00000, 3.56993, -33.12053
  8374, 105.00000, 5.10869, -32.84920
  8375, 105.00000, 6.64745, -32.57787
  8376, 105.00000, 8.18621, -32.30655
  8377, 105.00000, 9.72498, -32.03522
  8378, 105.00000, 11.26374, -31.76390
  8379, 105.00000, 12.80250, -31.49257
  8380, 105.00000, 0.46985, -33.57899
  8381, 105.00000, 1.93812, -33.04458
  8382, 105.00000, 3.40639, -32.51018
  8383, 105.00000, 4.87466, -31.97577
  8384, 105.00000, 6.34293, -31.44136
  8385, 105.00000, 7.81119, -30.90696
  8386, 105.00000, 9.27946, -30.37255
  8387, 105.00000, 10.74773, -29.83814
  8388, 105.00000, 12.21600, -29.30374
  8389, 105.00000, 0.43301, -33.50000
  8390, 105.00000, 1.78618, -32.71875
  8391, 105.00000, 3.13934, -31.93750
  8392, 105.00000, 4.49251, -31.15625
  8393, 105.00000, 5.84567, -30.37500
  8394, 105.00000, 7.19884, -29.59375
  8395, 105.00000, 8.55200, -28.81250
  8396, 105.00000, 9.90517, -28.03125
  8397, 105.00000, 11.25833, -27.25000
  8398, 105.00000, 0.38302, -33.42861
  8399, 105.00000, 1.57997, -32.42425
  8400, 105.00000, 2.77691, -31.41989
  8401, 105.00000, 3.97386, -30.41554
  8402, 105.00000, 5.17080, -29.41118
  8403, 105.00000, 6.36774, -28.40683
  8404, 105.00000, 7.56469, -27.40247
  8405, 105.00000, 8.76163, -26.39812
  8406, 105.00000, 9.95858, -25.39376
  8407, 105.00000, 0.32139, -33.36698
  8408, 105.00000, 1.32575, -32.17003
  8409, 105.00000, 2.33011, -30.97309
  8410, 105.00000, 3.33446, -29.77614
  8411, 105.00000, 4.33882, -28.57920
  8412, 105.00000, 5.34317, -27.38226
  8413, 105.00000, 6.34753, -26.18531
  8414, 105.00000, 7.35188, -24.98837
  8415, 105.00000, 8.35624, -23.79142
  8416, 105.00000, 0.25000, -33.31699
  8417, 105.00000, 1.03125, -31.96382
  8418, 105.00000, 1.81250, -30.61066
  8419, 105.00000, 2.59375, -29.25749
  8420, 105.00000, 3.37500, -27.90433
  8421, 105.00000, 4.15625, -26.55116
  8422, 105.00000, 4.93750, -25.19800
  8423, 105.00000, 5.71875, -23.84483
  8424, 105.00000, 6.50000, -22.49167
  8425, 105.00000, 0.17101, -33.28015
  8426, 105.00000, 0.70542, -31.81188
  8427, 105.00000, 1.23982, -30.34361
  8428, 105.00000, 1.77423, -28.87534
  8429, 105.00000, 2.30864, -27.40707
  8430, 105.00000, 2.84304, -25.93881
  8431, 105.00000, 3.37745, -24.47054
  8432, 105.00000, 3.91186, -23.00227
  8433, 105.00000, 4.44626, -21.53400
  8434, 105.00000, 0.08682, -33.25760
  8435, 105.00000, 0.35815, -31.71883
  8436, 105.00000, 0.62947, -30.18007
  8437, 105.00000, 0.90080, -28.64131
  8438, 105.00000, 1.17213, -27.10255
  8439, 105.00000, 1.44345, -25.56379
  8440, 105.00000, 1.71478, -24.02502
  8441, 105.00000, 1.98610, -22.48626
  8442, 105.00000, 2.25743, -20.94750
  8443, 105.00000, 0.00000, -33.25000
  8444, 105.00000, 0.00000, -31.68750
  8445, 105.00000, 0.00000, -30.12500
  8446, 105.00000, 0.00000, -28.56250
  8447, 105.00000, 0.00000, -27.00000
  8448, 105.00000, 0.00000, -25.43750
  8449, 105.00000, 0.00000, -23.87500
  8450, 105.00000, 0.00000, -22.31250
  8451, 105.00000, 0.00000, -20.75000
  8452, 105.00000, -0.08682, -33.25760
  8453, 105.00000, -0.35815, -31.71883
  8454, 105.00000, -0.62947, -30.18007
  8455, 105.00000, -0.90080, -28.64131
  8456, 105.00000, -1.17213, -27.10255
  8457, 105.00000, -1.44345, -25.56379
  8458, 105.00000, -1.71478, -24.02502
  8459, 105.00000, -1.98610, -22.48626
  8460, 105.00000, -2.25743, -20.94750
  8461, 105.00000, -0.17101, -33.28015
  8462, 105.00000, -0.70542, -31.81188
  8463, 105.00000, -1.23982, -30.34361
  8464, 105.00000, -1.77423, -28.87534
  8465, 105.00000, -2.30864, -27.40707
  8466, 105.00000, -2.84304, -25.93881
  8467, 105.00000, -3.37745, -24.47054
  8468, 105.00000, -3.91186, -23.00227
  8469, 105.00000, -4.44626, -21.53400
  8470, 105.00000, -0.25000, -33.31699
  8471, 105.00000, -1.03125, -31.96382
  8472, 105.00000, -1.81250, -30.61066
  8473, 105.00000, -2.59375, -29.25749
  8474, 105.00000, -3.37500, -27.90433
  8475, 105.00000, -4.15625, -26.55116
  8476, 105.00000, -4.93750, -25.19800
  8477, 105.00000, -5.71875, -23.84483
  8478, 105.00000, -6.50000, -22.49167
  8479, 105.00000, -0.32139, -33.36698
  8480, 105.00000, -1.32575, -32.17003
  8481, 105.00000, -2.33011, -30.97309
  8482, 105.00000, -3.33446, -29.77614
  8483, 105.00000, -4.33882, -28.57920
  8484, 105.00000, -5.34317, -27.38226
  8485, 105.00000, -6.34753, -26.18531
  8486, 105.00000, -7.35188, -24.98837
  8487, 105.00000, -8.35624, -23.79142
  8488, 105.00000, -0.38302, -33.42861
  8489, 105.00000, -1.57997, -32.42425
  8490, 105.00000, -2.77691, -31.41989
  8491, 105.00000, -3.97386, -30.41554
  8492, 105.00000, -5.17080, -29.41118
  8493, 105.00000, -6.36774, -28.40683
  8494, 105.00000, -7.56469, -27.40247
  8495, 105.00000, -8.76163, -26.39812
  8496, 105.00000, -9.95858, -25.39376
  8497, 105.00000, -0.43301, -33.50000
  8498, 105.00000, -1.78618, -32.71875
  8499, 105.00000, -3.13934, -31.93750
  8500, 105.00000, -4.49251, -31.15625
  8501, 105.00000, -5.84567, -30.37500
  8502, 105.00000, -7.19884, -29.59375
  8503, 105.00000, -8.55200, -28.81250
  8504, 105.00000, -9.90517, -28.03125
  8505, 105.00000, -11.25833, -27.25000
  8506, 105.00000, -0.46985, -33.57899
  8507, 105.00000, -1.93812, -33.04458
  8508, 105.00000, -3.40639, -32.51018
  8509, 105.00000, -4.87466, -31.97577
  8510, 105.00000, -6.34293, -31.44136
  8511, 105.00000, -7.81119, -30.90696
  8512, 105.00000, -9.27946, -30.37255
  8513, 105.00000, -10.74773, -29.83814
  8514, 105.00000, -12.21600, -29.30374
  8515, 105.00000, -0.49240, -33.66318
  8516, 105.00000, -2.03117, -33.39185
  8517, 105.00000, -3.56993, -33.12053
  8518, 105.00000, -5.10869, -32.84920
  8519, 105.00000, -6.64745, -32.57787
  8520, 105.00000, -8.18621, -32.30655
  8521, 105.00000, -9.72498, -32.03522
  8522, 105.00000, -11.26374, -31.76390
  8523, 105.00000, -12.80250, -31.49257
  8524, 105.00000, -0.50000, -33.75000
  8525, 105.00000, -2.06250, -33.75000
  8526, 105.00000, -3.62500, -33.75000
  8527, 105.00000, -5.18750, -33.75000
  8528, 105.00000, -6.75000, -33.75000
  8529, 105.00000, -8.31250, -33.75000
  8530, 105.00000, -9.87500, -33.75000
  8531, 105.00000, -11.43750, -33.75000
  8532, 105.00000, -13.00000, -33.75000
  8533, 105.00000, -0.49240, -33.83682
  8534, 105.00000, -2.03117, -34.10815
  8535, 105.00000, -3.56993, -34.37947
  8536, 105.00000, -5.10869, -34.65080
  8537, 105.00000, -6.64745, -34.92213
  8538, 105.00000, -8.18621, -35.19345
  8539, 105.00000, -9.72498, -35.46478
  8540, 105.00000, -11.26374, -35.73610
  8541, 105.00000, -12.80250, -36.00743
  8542, 105.00000, -0.46985, -33.92101
  8543, 105.00000, -1.93812, -34.45542
  8544, 105.00000, -3.40639, -34.98982
  8545, 105.00000, -4.87466, -35.52423
  8546, 105.00000, -6.34293, -36.05864
  8547, 105.00000, -7.81119, -36.59304
  8548, 105.00000, -9.27946, -37.12745
  8549, 105.00000, -10.74773, -37.66186
  8550, 105.00000, -12.21600, -38.19626
  8551, 105.00000, -0.43301, -34.00000
  8552, 105.00000, -1.78618, -34.78125
  8553, 105.00000, -3.13934, -35.56250
  8554, 105.00000, -4.49251, -36.34375
  8555, 105.00000, -5.84567, -37.12500
  8556, 105.00000, -7.19884, -37.90625
  8557, 105.00000, -8.55200, -38.68750
  8558, 105.00000, -9.90517, -39.46875
  8559, 105.00000, -11.25833, -40.25000
  8560, 105.00000, -0.38302, -34.07139
  8561, 105.00000, -1.57997, -35.07575
  8562, 105.00000, -2.77691, -36.08011
  8563, 105.00000, -3.97386, -37.08446
  8564, 105.00000, -5.17080, -38.08882
  8565, 105.00000, -6.36774, -39.09317
  8566, 105.00000, -7.56469, -40.09753
  8567, 105.00000, -8.76163, -41.10188
  8568, 105.00000, -9.95858, -42.10624
  8569, 105.00000, -0.32139, -34.13302
  8570, 105.00000, -1.32575, -35.32997
  8571, 105.00000, -2.33011, -36.52691
  8572, 105.00000, -3.33446, -37.72386
  8573, 105.00000, -4.33882, -38.92080
  8574, 105.00000, -5.34317, -40.11774
  8575, 105.00000, -6.34753, -41.31469
  8576, 105.00000, -7.35188, -42.51163
  8577, 105.00000, -8.35624, -43.70858
  8578, 105.00000, -0.25000, -34.18301
  8579, 105.00000, -1.03125, -35.53618
  8580, 105.00000, -1.81250, -36.88934
  8581, 105.00000, -2.59375, -38.24251
  8582, 105.00000, -3.37500, -39.59567
  8583, 105.00000, -4.15625, -40.94884
  8584, 105.00000, -4.93750, -42.30200
  8585, 105.00000, -5.71875, -43.65517
  8586, 105.00000, -6.50000, -45.00833
  8587, 105.00000, -0.17101, -34.21985
  8588, 105.00000, -0.70542, -35.68812
  8589, 105.00000, -1.23982, -37.15639
  8590, 105.00000, -1.77423, -38.62466
  8591, 105.00000, -2.30864, -40.09293
  8592, 105.00000, -2.84304, -41.56119
  8593, 105.00000, -3.37745, -43.02946
  8594, 105.00000, -3.91186, -44.49773
  8595, 105.00000, -4.44626, -45.96600
  8596, 105.00000, -0.08682, -34.24240
  8597, 105.00000, -0.35815, -35.78117
  8598, 105.00000, -0.62947, -37.31993
  8599, 105.00000, -0.90080, -38.85869
  8600, 105.00000, -1.17213, -40.39745
  8601, 105.00000, -1.44345, -41.93621
  8602, 105.00000, -1.71478, -43.47498
  8603, 105.00000, -1.98610, -45.01374
  8604, 105.00000, -2.25743, -46.55250
  8605, 105.00000, -0.00000, -34.25000
  8606, 105.00000, -0.00000, -35.81250
  8607, 105.00000, -0.00000, -37.37500
  8608, 105.00000, -0.00000, -38.93750
  8609, 105.00000, -0.00000, -40.50000
  8610, 105.00000, -0.00000, -42.06250
  8611, 105.00000, -0.00000, -43.62500
  8612, 105.00000, -0.00000, -45.18750
  8613, 105.00000, -0.00000, -46.75000
  8614, 105.00000, 0.08682, -34.24240
  8615, 105.00000, 0.35815, -35.78117
  8616, 105.00000, 0.62947, -37.31993
  8617, 105.00000, 0.90080, -38.85869
  8618, 105.00000, 1.17213, -40.39745
  8619, 105.00000, 1.44345, -41.93621
  8620, 105.00000, 1.71478, -43.47498
  8621, 105.00000, 1.98610, -45.01374
  8622, 105.00000, 2.25743, -46.55250
  8623, 105.00000, 0.17101, -34.21985
  8624, 105.00000, 0.70542, -35.68812
  8625, 105.00000, 1.23982, -37.15639
  8626, 105.00000, 1.77423, -38.62466
  8627, 105.00000, 2.30864, -40.09293
  8628, 105.00000, 2.84304, -41.56119
  8629, 105.00000, 3.37745, -43.02946
  8630, 105.00000, 3.91186, -44.49773
  8631, 105.00000, 4.44626, -45.96600
  8632, 105.00000, 0.25000, -34.18301
  8633, 105.00000, 1.03125, -35.53618
  8634, 105.00000, 1.81250, -36.88934
  8635, 105.00000, 2.59375, -38.24251
  8636, 105.00000, 3.37500, -39.59567
  8637, 105.00000, 4.15625, -40.94884
  8638, 105.00000, 4.93750, -42.30200
  8639, 105.00000, 5.71875, -43.65517
  8640, 105.00000, 6.50000, -45.00833
  8641, 105.00000, 0.32139, -34.13302
  8642, 105.00000, 1.32575, -35.32997
  8643, 105.00000, 2.33011, -36.52691
  8644, 105.00000, 3.33446, -37.72386
  8645, 105.00000, 4.33882, -38.92080
  8646, 105.00000, 5.34317, -40.11774
  8647, 105.00000, 6.34753, -41.31469
  8648, 105.00000, 7.35188, -42.51163
  8649, 105.00000, 8.35624, -43.70858
  8650, 105.00000, 0.38302, -34.07139
  8651, 105.00000, 1.57997, -35.07575
  8652, 105.00000, 2.77691, -36.08011
  8653, 105.00000, 3.97386, -37.08446
  8654, 105.00000, 5.17080, -38.08882
  8655, 105.00000, 6.36774, -39.09317
  8656, 105.00000, 7.56469, -40.09753
  8657, 105.00000, 8.76163, -41.10188
  8658, 105.00000, 9.95858, -42.10624
  8659, 105.00000, 0.43301, -34.00000
  8660, 105.00000, 1.78618, -34.78125
  8661, 105.00000, 3.13934, -35.56250
  8662, 105.00000, 4.49251, -36.34375
  8663, 105.00000, 5.84567, -37.12500
  8664, 105.00000, 7.19884, -37.90625
  8665, 105.00000, 8.55200, -38.68750
  8666, 105.00000, 9.90517, -39.46875
  8667, 105.00000, 11.25833, -40.25000
  8668, 105.00000, 0.46985, -33.92101
  8669, 105.00000, 1.93812, -34.45542
  8670, 105.00000, 3.40639, -34.98982
  8671, 105.00000, 4.87466, -35.52423
  8672, 105.00000, 6.34293, -36.05864
  8673, 105.00000, 7.81119, -36.59304
  8674, 105.00000, 9.27946, -37.12745
  8675, 105.00000, 10.74773, -37.66186
  8676, 105.00000, 12.21600, -38.19626
  8677, 105.00000, 0.49240, -33.83682
  8678, 105.00000, 2.03117, -34.10815
  8679, 105.00000, 3.56993, -34.37947
  8680, 105.00000, 5.10869, -34.65080
  8681, 105.00000, 6.64745, -34.92213
  8682, 105.00000, 8.18621, -35.19345
  8683, 105.00000, 9.72498, -35.46478
  8684, 105.00000, 11.26374, -35.73610
  8685, 105.00000, 12.80250, -36.00743
  8686, 105.00000, 0.50000, -33.75000
  8687, 105.00000, 2.06250, -33.75000
  8688, 105.00000, 3.62500, -33.75000
  8689, 105.00000, 5.18750, -33.75000
  8690, 105.00000, 6.75000, -33.75000
  8691, 105.00000, 8.31250, -33.75000
  8692, 105.00000, 9.87500, -33.75000
  8693, 105.00000, 11.43750, -33.75000
  8694, 105.00000, 13.00000, -33.75000
  8695, 110.00000, 0.50000, -33.75000
  8696, 110.00000, 2.06250, -33.75000
  8697, 110.00000, 3.62500, -33.75000
  8698, 110.00000, 5.18750, -33.75000
  8699, 110.00000, 6.75000, -33.75000
  8700, 110.00000, 8.31250, -33.75000
  8701, 110.00000, 9.87500, -33.75000
  8702, 110.00000, 11.43750, -33.75000
  8703, 110.00000, 13.00000, -33.75000
  8704, 110.00000, 0.49240, -33.66318
  8705, 110.00000, 2.03117, -33.39185
  8706, 110.00000, 3.56993, -33.12053
  8707, 110.00000, 5.10869, -32.84920
  8708, 110.00000, 6.64745, -32.57787
  8709, 110.00000, 8.18621, -32.30655
  8710, 110.00000, 9.72498, -32.03522
  8711, 110.00000, 11.26374, -31.76390
  8712, 110.00000, 12.80250, -31.49257
  8713, 110.00000, 0.46985, -33.57899
  8714, 110.00000, 1.93812, -33.04458
  8715, 110.00000, 3.40639, -32.51018
  8716, 110.00000, 4.87466, -31.97577
  8717, 110.00000, 6.34293, -31.44136
  8718, 110.00000, 7.81119, -30.90696
  8719, 110.00000, 9.27946, -30.37255
  8720, 110.00000, 10.74773, -29.83814
  8721, 110.00000, 12.21600, -29.30374
  8722, 110.00000, 0.43301, -33.50000
  8723, 110.00000, 1.78618, -32.71875
  8724, 110.00000, 3.13934, -31.93750
  8725, 110.00000, 4.49251, -31.15625
  8726, 110.00000, 5.84567, -30.37500
  8727, 110.00000, 7.19884, -29.59375
  8728, 110.00000, 8.55200, -28.81250
  8729, 110.00000, 9.90517, -28.03125
  8730, 110.00000, 11.25833, -27.25000
  8731, 110.00000, 0.38302, -33.42861
  8732, 110.00000, 1.57997, -32.42425
  8733, 110.00000, 2.77691, -31.41989
  8734, 110.00000, 3.97386, -30.41554
  8735, 110.00000, 5.17080, -29.41118
  8736, 110.00000, 6.36774, -28.40683
  8737, 110.00000, 7.56469, -27.40247
  8738, 110.00000, 8.76163, -26.39812
  8739, 110.00000, 9.95858, -25.39376
  8740, 110.00000, 0.32139, -33.36698
  8741, 110.00000, 1.32575, -32.17003
  8742, 110.00000, 2.33011, -30.97309
  8743, 110.00000, 3.33446, -29.77614
  8744, 110.00000, 4.33882, -28.57920
  8745, 110.00000, 5.34317, -27.38226
  8746, 110.00000, 6.34753, -26.18531
  8747, 110.00000, 7.35188, -24.98837
  8748, 110.00000, 8.35624, -23.79142
  8749, 110.00000, 0.25000, -33.31699
  8750, 110.00000, 1.03125, -31.96382
  8751, 110.00000, 1.81250, -30.61066
  8752, 110.00000, 2.59375, -29.25749
  8753, 110.00000, 3.37500, -27.90433
  8754, 110.00000, 4.15625, -26.55116
  8755, 110.00000, 4.93750, -25.19800
  8756, 110.00000, 5.71875, -23.84483
  8757, 110.00000, 6.50000, -22.49167
  8758, 110.00000, 0.17101, -33.28015
  8759, 110.00000, 0.70542, -31.81188
  8760, 110.00000, 1.23982, -30.34361
  8761, 110.00000, 1.77423, -28.87534
  8762, 110.00000, 2.30864, -27.40707
  8763, 110.00000, 2.84304, -25.93881
  8764, 110.00000, 3.37745, -24.47054
  8765, 110.00000, 3.91186, -23.00227
  8766, 110.00000, 4.44626, -21.53400
  8767, 110.00000, 0.08682, -33.25760
  8768, 110.00000, 0.35815, -31.71883
  8769, 110.00000, 0.62947, -30.18007
  8770, 110.00000, 0.90080, -28.64131
  8771, 110.00000, 1.17213, -27.10255
  8772, 110.00000, 1.44345, -25.56379
  8773, 110.00000, 1.71478, -24.02502
  8774, 110.00000, 1.98610, -22.48626
  8775, 110.00000, 2.25743, -20.94750
  8776, 110.00000, 0.00000, -33.25000
  8777, 110.00000, 0.00000, -31.68750
  8778, 110.00000, 0.00000, -30.12500
  8779, 110.00000, 0.00000, -28.56250
  8780, 110.00000, 0.00000, -27.00000
  8781, 110.00000, 0.00000, -25.43750
  8782, 110.00000, 0.00000, -23.87500
  8783, 110.00000, 0.00000, -22.31250
  8784, 110.00000, 0.00000, -20.75000
  8785, 110.00000, -0.08682, -33.25760
  8786, 110.00000, -0.35815, -31.71883
  8787, 110.00000, -0.62947, -30.18007
  8788, 110.00000, -0.90080, -28.64131
  8789, 110.00000, -1.17213, -27.10255
  8790, 110.00000, -1.44345, -25.56379
  8791, 110.00000, -1.71478, -24.02502
  8792, 110.00000, -1.98610, -22.48626
  8793, 110.00000, -2.25743, -20.94750
  8794, 110.00000, -0.17101, -33.28015
  8795, 110.00000, -0.70542, -31.81188
  8796, 110.00000, -1.23982, -30.34361
  8797, 110.00000, -1.77423, -28.87534
  8798, 110.00000, -2.30864, -27.40707
  8799, 110.00000, -2.84304, -25.93881
  8800, 110.00000, -3.37745, -24.47054
  8801, 110.00000, -3.91186, -23.00227
  8802, 110.00000, -4.44626, -21.53400
  8803, 110.00000, -0.25000, -33.31699
  8804, 110.00000, -1.03125, -31.96382
  8805, 110.00000, -1.81250, -30.61066
  8806, 110.00000, -2.59375, -29.25749
  8807, 110.00000, -3.37500, -27.90433
  8808, 110.00000, -4.15625, -26.55116
  8809, 110.00000, -4.93750, -25.19800
  8810, 110.00000, -5.71875, -23.84483
  8811, 110.00000, -6.50000, -22.49167
  8812, 110.00000, -0.32139, -33.36698
  8813, 110.00000, -1.32575, -32.17003
  8814, 110.00000, -2.33011, -30.97309
  8815, 110.00000, -3.33446, -29.77614
  8816, 110.00000, -4.33882, -28.57920
  8817, 110.00000, -5.34317, -27.38226
  8818, 110.00000, -6.34753, -26.18531
  8819, 110.00000, -7.35188, -24.98837
  8820, 110.00000, -8.35624, -23.79142
  8821, 110.00000, -0.38302, -33.42861
  8822, 110.00000, -1.57997, -32.42425
  8823, 110.00000, -2.77691, -31.41989
  8824, 110.00000, -3.97386, -30.41554
  8825, 110.00000, -5.17080, -29.41118
  8826, 110.00000, -6.36774, -28.40683
  8827, 110.00000, -7.56469, -27.40247
  8828, 110.00000, -8.76163, -26.39812
  8829, 110.00000, -9.95858, -25.39376
  8830, 110.00000, -0.43301, -33.50000
  8831, 110.00000, -1.78618, -32.71875
  8832, 110.00000, -3.13934, -31.93750
  8833, 110.00000, -4.49251, -31.15625
  8834, 110.00000, -5.84567, -30.37500
  8835, 110.00000, -7.19884, -29.59375
  8836, 110.00000, -8.55200, -28.81250
  8837, 110.00000, -9.90517, -28.03125
  8838, 110.00000, -11.25833, -27.25000
  8839, 110.00000, -0.46985, -33.57899
  8840, 110.00000, -1.93812, -33.04458
  8841, 110.00000, -3.40639, -32.51018
  8842, 110.00000, -4.87466, -31.97577
  8843, 110.00000, -6.34293, -31.44136
  8844, 110.00000, -7.81119, -30.90696
  8845, 110.00000, -9.27946, -30.37255
  8846, 110.00000, -10.74773, -29.83814
  8847, 110.00000, -12.21600, -29.30374
  8848, 110.00000, -0.49240, -33.66318
  8849, 110.00000, -2.03117, -33.39185
  8850, 110.00000, -3.56993, -33.12053
  8851, 110.00000, -5.10869, -32.84920
  8852, 110.00000, -6.64745, -32.57787
  8853, 110.00000, -8.18621, -32.30655
  8854, 110.00000, -9.72498, -32.03522
  8855, 110.00000, -11.26374, -31.76390
  8856, 110.00000, -12.80250, -31.49257
  8857, 110.00000, -0.50000, -33.75000
  8858, 110.00000, -2.06250, -33.75000
  8859, 110.00000, -3.62500, -33.75000
  8860, 110.00000, -5.18750, -33.75000
  8861, 110.00000, -6.75000, -33.75000
  8862, 110.00000, -8.31250, -33.75000
  8863, 110.00000, -9.87500, -33.75000
  8864, 110.00000, -11.43750, -33.75000
  8865, 110.00000, -13.00000, -33.75000
  8866, 110.00000, -0.49240, -33.83682
  8867, 110.00000, -2.03117, -34.10815
  8868, 110.00000, -3.56993, -34.37947
  8869, 110.00000, -5.10869, -34.65080
  8870, 110.00000, -6.64745, -34.92213
  8871, 110.00000, -8.18621, -35.19345
  8872, 110.00000, -9.72498, -35.46478
  8873, 110.00000, -11.26374, -35.73610
  8874, 110.00000, -12.80250, -36.00743
  8875, 110.00000, -0.46985, -33.92101
  8876, 110.00000, -1.93812, -34.45542
  8877, 110.00000, -3.40639, -34.98982
  8878, 110.00000, -4.87466, -35.52423
  8879, 110.00000, -6.34293, -36.05864
  8880, 110.00000, -7.81119, -36.59304
  8881, 110.00000, -9.27946, -37.12745
  8882, 110.00000, -10.74773, -37.66186
  8883, 110.00000, -12.21600, -38.19626
  8884, 110.00000, -0.43301, -34.00000
  8885, 110.00000, -1.78618, -34.78125
  8886, 110.00000, -3.13934, -35.56250
  8887, 110.00000, -4.49251, -36.34375
  8888, 110.00000, -5.84567, -37.12500
  8889, 110.00000, -7.19884, -37.90625
  8890, 110.00000, -8.55200, -38.68750
  8891, 110.00000, -9.90517, -39.46875
  8892, 110.00000, -11.25833, -40.25000
  8893, 110.00000, -0.38302, -34.07139
  8894, 110.00000, -1.57997, -35.07575
  8895, 110.00000, -2.77691, -36.08011
  8896, 110.00000, -3.97386, -37.08446
  8897, 110.00000, -5.17080, -38.08882
  8898, 110.00000, -6.36774, -39.09317
  8899, 110.00000, -7.56469, -40.09753
  8900, 110.00000, -8.76163, -41.10188
  8901, 110.00000, -9.95858, -42.10624
  8902, 110.00000, -0.32139, -34.13302
  8903, 110.00000, -1.32575, -35.32997
  8904, 110.00000, -2.33011, -36.52691
  8905, 110.00000, -3.33446, -37.72386
  8906, 110.00000, -4.33882, -38.92080
  8907, 110.00000, -5.34317, -40.11774
  8908, 110.00000, -6.34753, -41.31469
  8909, 110.00000, -7.35188, -42.51163
  8910, 110.00000, -8.35624, -43.70858
  8911, 110.00000, -0.25000, -34.18301
  8912, 110.00000, -1.03125, -35.53618
  8913, 110.00000, -1.81250, -36.88934
  8914, 110.00000, -2.59375, -38.24251
  8915, 110.00000, -3.37500, -39.59567
  8916, 110.00000, -4.15625, -40.94884
  8917, 110.00000, -4.93750, -42.30200
  8918, 110.00000, -5.71875, -43.65517
  8919, 110.00000, -6.50000, -45.00833
  8920, 110.00000, -0.17101, -34.21985
  8921, 110.00000, -0.70542, -35.68812
  8922, 110.00000, -1.23982, -37.15639
  8923, 110.00000, -1.77423, -38.62466
  8924, 110.00000, -2.30864, -40.09293
  8925, 110.00000, -2.84304, -41.56119
  8926, 110.00000, -3.37745, -43.02946
  8927, 110.00000, -3.91186, -44.49773
  8928, 110.00000, -4.44626, -45.96600
  8929, 110.00000, -0.08682, -34.24240
  8930, 110.00000, -0.35815, -35.78117
  8931, 110.00000, -0.62947, -37.31993
  8932, 110.00000, -0.90080, -38.85869
  8933, 110.00000, -1.17213, -40.39745
  8934, 110.00000, -1.44345, -41.93621
  8935, 110.00000, -1.71478, -43.47498
  8936, 110.00000, -1.98610, -45.01374
  8937, 110.00000, -2.25743, -46.55250
  8938, 110.00000, -0.00000, -34.25000
  8939, 110.00000, -0.00000, -35.81250
  8940, 110.00000, -0.00000, -37.37500
  8941, 110.00000, -0.00000, -38.93750
  8942, 110.00000, -0.00000, -40.50000
  8943, 110.00000, -0.00000, -42.06250
  8944, 110.00000, -0.00000, -43.62500
  8945, 110.00000, -0.00000, -45.18750
  8946, 110.00000, -0.00000, -46.75000
  8947, 110.00000, 0.08682, -34.24240
  8948, 110.00000, 0.35815, -35.78117
  8949, 110.00000, 0.62947, -37.31993
  8950, 110.00000, 0.90080, -38.85869
  8951, 110.00000, 1.17213, -40.39745
  8952, 110.00000, 1.44345, -41.93621
  8953, 110.00000, 1.71478, -43.47498
  8954, 110.00000, 1.98610, -45.01374
  8955, 110.00000, 2.25743, -46.55250
  8956, 110.00000, 0.17101, -34.21985
  8957, 110.00000, 0.70542, -35.68812
  8958, 110.00000, 1.23982, -37.15639
  8959, 110.00000, 1.77423, -38.62466
  8960, 110.00000, 2.30864, -40.09293
  8961, 110.00000, 2.84304, -41.56119
  8962, 110.00000, 3.37745, -43.02946
  8963, 110.00000, 3.91186, -44.49773
  8964, 110.00000, 4.44626, -45.96600
  8965, 110.00000, 0.25000, -34.18301
  8966, 110.00000, 1.03125, -35.53618
  8967, 110.00000, 1.81250, -36.88934
  8968, 110.00000, 2.59375, -38.24251
  8969, 110.00000, 3.37500, -39.59567
  8970, 110.00000, 4.15625, -40.94884
  8971, 110.00000, 4.93750, -42.30200
  8972, 110.00000, 5.71875, -43.65517
  8973, 110.00000, 6.50000, -45.00833
  8974, 110.00000, 0.32139, -34.13302
  8975, 110.00000, 1.32575, -35.32997
  8976, 110.00000, 2.33011, -36.52691
  8977, 110.00000, 3.33446, -37.72386
  8978, 110.00000, 4.33882, -38.92080
  8979, 110.00000, 5.34317, -40.11774
  8980, 110.00000, 6.34753, -41.31469
  8981, 110.00000, 7.35188, -42.51163
  8982, 110.00000, 8.35624, -43.70858
  8983, 110.00000, 0.38302, -34.07139
  8984, 110.00000, 1.57997, -35.07575
  8985, 110.00000, 2.77691, -36.08011
  8986, 110.00000, 3.97386, -37.08446
  8987, 110.00000, 5.17080, -38.08882
  8988, 110.00000, 6.36774, -39.09317
  8989, 110.00000, 7.56469, -40.09753
  8990, 110.00000, 8.76163, -41.10188
  8991, 110.00000, 9.95858, -42.10624
  8992, 110.00000, 0.43301, -34.00000
  8993, 110.00000, 1.78618, -34.78125
  8994, 110.00000, 3.13934, -35.56250
  8995, 110.00000, 4.49251, -36.34375
  8996, 110.00000, 5.84567, -37.12500
  8997, 110.00000, 7.19884, -37.90625
  8998, 110.00000, 8.55200, -38.68750
  8999, 110.00000, 9.90517, -39.46875
  9000, 110.00000, 11.25833, -40.25000
  9001, 110.00000, 0.46985, -33.92101
  9002, 110.00000, 1.93812, -34.45542
  9003, 110.00000, 3.40639, -34.98982
  9004, 110.00000, 4.87466, -35.52423
  9005, 110.00000, 6.34293, -36.05864
  9006, 110.00000, 7.81119, -36.59304
  9007, 110.00000, 9.27946, -37.12745
  9008, 110.00000, 10.74773, -37.66186
  9009, 110.00000, 12.21600, -38.19626
  9010, 110.00000, 0.49240, -33.83682
  9011, 110.00000, 2.03117, -34.10815
  9012, 110.00000, 3.56993, -34.37947
  9013, 110.00000, 5.10869, -34.65080
  9014, 110.00000, 6.64745, -34.92213
  9015, 110.00000, 8.18621, -35.19345
  9016, 110.00000, 9.72498, -35.46478
  9017, 110.00000, 11.26374, -35.73610
  9018, 110.00000, 12.80250, -36.00743
  9019, 110.00000, 0.50000, -33.75000
  9020, 110.00000, 2.06250, -33.75000
  9021, 110.00000, 3.62500, -33.75000
  9022, 110.00000, 5.18750, -33.75000
  9023, 110.00000, 6.75000, -33.75000
  9024, 110.00000, 8.31250, -33.75000
  9025, 110.00000, 9.87500, -33.75000
  9026, 110.00000, 11.43750, -33.75000
  9027, 110.00000, 13.00000, -33.75000
  9028, 115.00000, 0.50000, -33.75000
  9029, 115.00000, 2.06250, -33.75000
  9030, 115.00000, 3.62500, -33.75000
  9031, 115.00000, 5.18750, -33.75000
  9032, 115.00000, 6.75000, -33.75000
  9033, 115.00000, 8.31250, -33.75000
  9034, 115.00000, 9.87500, -33.75000
  9035, 115.00000, 11.43750, -33.75000
  9036, 115.00000, 13.00000, -33.75000
  9037, 115.00000, 0.49240, -33.66318
  9038, 115.00000, 2.03117, -33.39185
  9039, 115.00000, 3.56993, -33.12053
  9040, 115.00000, 5.10869, -32.84920
  9041, 115.00000, 6.64745, -32.57787
  9042, 115.00000, 8.18621, -32.30655
  9043, 115.00000, 9.72498, -32.03522
  9044, 115.00000, 11.26374, -31.76390
  9045, 115.00000, 12.80250, -31.49257
  9046, 115.00000, 0.46985, -33.57899
  9047, 115.00000, 1.93812, -33.04458
  9048, 115.00000, 3.40639, -32.51018
  9049, 115.00000, 4.87466, -31.97577
  9050, 115.00000, 6.34293, -31.44136
  9051, 115.00000, 7.81119, -30.90696
  9052, 115.00000, 9.27946, -30.37255
  9053, 115.00000, 10.74773, -29.83814
  9054, 115.00000, 12.21600, -29.30374
  9055, 115.00000, 0.43301, -33.50000
  9056, 115.00000, 1.78618, -32.71875
  9057, 115.00000, 3.13934, -31.93750
  9058, 115.00000, 4.49251, -31.15625
  9059, 115.00000, 5.84567, -30.37500
  9060, 115.00000, 7.19884, -29.59375
  9061, 115.00000, 8.55200, -28.81250
  9062, 115.00000, 9.90517, -28.03125
  9063, 115.00000, 11.25833, -27.25000
  9064, 115.00000, 0.38302, -33.42861
  9065, 115.00000, 1.57997, -32.42425
  9066, 115.00000, 2.77691, -31.41989
  9067, 115.00000, 3.97386, -30.41554
  9068, 115.00000, 5.17080, -29.41118
  9069, 115.00000, 6.36774, -28.40683
  9070, 115.00000, 7.56469, -27.40247
  9071, 115.00000, 8.76163, -26.39812
  9072, 115.00000, 9.95858, -25.39376
  9073, 115.00000, 0.32139, -33.36698
  9074, 115.00000, 1.32575, -32.17003
  9075, 115.00000, 2.33011, -30.97309
  9076, 115.00000, 3.33446, -29.77614
  9077, 115.00000, 4.33882, -28.57920
  9078, 115.00000, 5.34317, -27.38226
  9079, 115.00000, 6.34753, -26.18531
  9080, 115.00000, 7.35188, -24.98837
  9081, 115.00000, 8.35624, -23.79142
  9082, 115.00000, 0.25000, -33.31699
  9083, 115.00000, 1.03125, -31.96382
  9084, 115.00000, 1.81250, -30.61066
  9085, 115.00000, 2.59375, -29.25749
  9086, 115.00000, 3.37500, -27.90433
  9087, 115.00000, 4.15625, -26.55116
  9088, 115.00000, 4.93750, -25.19800
  9089, 115.00000, 5.71875, -23.84483
  9090, 115.00000, 6.50000, -22.49167
  9091, 115.00000, 0.17101, -33.28015
  9092, 115.00000, 0.70542, -31.81188
  9093, 115.00000, 1.23982, -30.34361
  9094, 115.00000, 1.77423, -28.87534
  9095, 115.00000, 2.30864, -27.40707
  9096, 115.00000, 2.84304, -25.93881
  9097, 115.00000, 3.37745, -24.47054
  9098, 115.00000, 3.91186, -23.00227
  9099, 115.00000, 4.44626, -21.53400
  9100, 115.00000, 0.08682, -33.25760
  9101, 115.00000, 0.35815, -31.71883
  9102, 115.00000, 0.62947, -30.18007
  9103, 115.00000, 0.90080, -28.64131
  9104, 115.00000, 1.17213, -27.10255
  9105, 115.00000, 1.44345, -25.56379
  9106, 115.00000, 1.71478, -24.02502
  9107, 115.00000, 1.98610, -22.48626
  9108, 115.00000, 2.25743, -20.94750
  9109, 115.00000, 0.00000, -33.25000
  9110, 115.00000, 0.00000, -31.68750
  9111, 115.00000, 0.00000, -30.12500
  9112, 115.00000, 0.00000, -28.56250
  9113, 115.00000, 0.00000, -27.00000
  9114, 115.00000, 0.00000, -25.43750
  9115, 115.00000, 0.00000, -23.87500
  9116, 115.00000, 0.00000, -22.31250
  9117, 115.00000, 0.00000, -20.75000
  9118, 115.00000, -0.08682, -33.25760
  9119, 115.00000, -0.35815, -31.71883
  9120, 115.00000, -0.62947, -30.18007
  9121, 115.00000, -0.90080, -28.64131
  9122, 115.00000, -1.17213, -27.10255
  9123, 115.00000, -1.44345, -25.56379
  9124, 115.00000, -1.71478, -24.02502
  9125, 115.00000, -1.98610, -22.48626
  9126, 115.00000, -2.25743, -20.94750
  9127, 115.00000, -0.17101, -33.28015
  9128, 115.00000, -0.70542, -31.81188
  9129, 115.00000, -1.23982, -30.34361
  9130, 115.00000, -1.77423, -28.87534
  9131, 115.00000, -2.30864, -27.40707
  9132, 115.00000, -2.84304, -25.93881
  9133, 115.00000, -3.37745, -24.47054
  9134, 115.00000, -3.91186, -23.00227
  9135, 115.00000, -4.44626, -21.53400
  9136, 115.00000, -0.25000, -33.31699
  9137, 115.00000, -1.03125, -31.96382
  9138, 115.00000, -1.81250, -30.61066
  9139, 115.00000, -2.59375, -29.25749
  9140, 115.00000, -3.37500, -27.90433
  9141, 115.00000, -4.15625, -26.55116
  9142, 115.00000, -4.93750, -25.19800
  9143, 115.00000, -5.71875, -23.84483
  9144, 115.00000, -6.50000, -22.49167
  9145, 115.00000, -0.32139, -33.36698
  9146, 115.00000, -1.32575, -32.17003
  9147, 115.00000, -2.33011, -30.97309
  9148, 115.00000, -3.33446, -29.77614
  9149, 115.00000, -4.33882, -28.57920
  9150, 115.00000, -5.34317, -27.38226
  9151, 115.00000, -6.34753, -26.18531
  9152, 115.00000, -7.35188, -24.98837
  9153, 115.00000, -8.35624, -23.79142
  9154, 115.00000, -0.38302, -33.42861
  9155, 115.00000, -1.57997, -32.42425
  9156, 115.00000, -2.77691, -31.41989
  9157, 115.00000, -3.97386, -30.41554
  9158, 115.00000, -5.17080, -29.41118
  9159, 115.00000, -6.36774, -28.40683
  9160, 115.00000, -7.56469, -27.40247
  9161, 115.00000, -8.76163, -26.39812
  9162, 115.00000, -9.95858, -25.39376
  9163, 115.00000, -0.43301, -33.50000
  9164, 115.00000, -1.78618, -32.71875
  9165, 115.00000, -3.13934, -31.93750
  9166, 115.00000, -4.49251, -31.15625
  9167, 115.00000, -5.84567, -30.37500
  9168, 115.00000, -7.19884, -29.59375
  9169, 115.00000, -8.55200, -28.81250
  9170, 115.00000, -9.90517, -28.03125
  9171, 115.00000, -11.25833, -27.25000
  9172, 115.00000, -0.46985, -33.57899
  9173, 115.00000, -1.93812, -33.04458
  9174, 115.00000, -3.40639, -32.51018
  9175, 115.00000, -4.87466, -31.97577
  9176, 115.00000, -6.34293, -31.44136
  9177, 115.00000, -7.81119, -30.90696
  9178, 115.00000, -9.27946, -30.37255
  9179, 115.00000, -10.74773, -29.83814
  9180, 115.00000, -12.21600, -29.30374
  9181, 115.00000, -0.49240, -33.66318
  9182, 115.00000, -2.03117, -33.39185
  9183, 115.00000, -3.56993, -33.12053
  9184, 115.00000, -5.10869, -32.84920
  9185, 115.00000, -6.64745, -32.57787
  9186, 115.00000, -8.18621, -32.30655
  9187, 115.00000, -9.72498, -32.03522
  9188, 115.00000, -11.26374, -31.76390
  9189, 115.00000, -12.80250, -31.49257
  9190, 115.00000, -0.50000, -33.75000
  9191, 115.00000, -2.06250, -33.75000
  9192, 115.00000, -3.62500, -33.75000
  9193, 115.00000, -5.18750, -33.75000
  9194, 115.00000, -6.75000, -33.75000
  9195, 115.00000, -8.31250, -33.75000
  9196, 115.00000, -9.87500, -33.75000
  9197, 115.00000, -11.43750, -33.75000
  9198, 115.00000, -13.00000, -33.75000
  9199, 115.00000, -0.49240, -33.83682
  9200, 115.00000, -2.03117, -34.10815
  9201, 115.00000, -3.56993, -34.37947
  9202, 115.00000, -5.10869, -34.65080
  9203, 115.00000, -6.64745, -34.92213
  9204, 115.00000, -8.18621, -35.19345
  9205, 115.00000, -9.72498, -35.46478
  9206, 115.00000, -11.26374, -35.73610
  9207, 115.00000, -12.80250, -36.00743
  9208, 115.00000, -0.46985, -33.92101
  9209, 115.00000, -1.93812, -34.45542
  9210, 115.00000, -3.40639, -34.98982
  9211, 115.00000, -4.87466, -35.52423
  9212, 115.00000, -6.34293, -36.05864
  9213, 115.00000, -7.81119, -36.59304
  9214, 115.00000, -9.27946, -37.12745
  9215, 115.00000, -10.74773, -37.66186
  9216, 115.00000, -12.21600, -38.19626
  9217, 115.00000, -0.43301, -34.00000
  9218, 115.00000, -1.78618, -34.78125
  9219, 115.00000, -3.13934, -35.56250
  9220, 115.00000, -4.49251, -36.34375
  9221, 115.00000, -5.84567, -37.12500
  9222, 115.00000, -7.19884, -37.90625
  9223, 115.00000, -8.55200, -38.68750
  9224, 115.00000, -9.90517, -39.46875
  9225, 115.00000, -11.25833, -40.25000
  9226, 115.00000, -0.38302, -34.07139
  9227, 115.00000, -1.57997, -35.07575
  9228, 115.00000, -2.77691, -36.08011
  9229, 115.00000, -3.97386, -37.08446
  9230, 115.00000, -5.17080, -38.08882
  9231, 115.00000, -6.36774, -39.09317
  9232, 115.00000, -7.56469, -40.09753
  9233, 115.00000, -8.76163, -41.10188
  9234, 115.00000, -9.95858, -42.10624
  9235, 115.00000, -0.32139, -34.13302
  9236, 115.00000, -1.32575, -35.32997
  9237, 115.00000, -2.33011, -36.52691
  9238, 115.00000, -3.33446, -37.72386
  9239, 115.00000, -4.33882, -38.92080
  9240, 115.00000, -5.34317, -40.11774
  9241, 115.00000, -6.34753, -41.31469
  9242, 115.00000, -7.35188, -42.51163
  9243, 115.00000, -8.35624, -43.70858
  9244, 115.00000, -0.25000, -34.18301
  9245, 115.00000, -1.03125, -35.53618
  9246, 115.00000, -1.81250, -36.88934
  9247, 115.00000, -2.59375, -38.24251
  9248, 115.00000, -3.37500, -39.59567
  9249, 115.00000, -4.15625, -40.94884
  9250, 115.00000, -4.93750, -42.30200
  9251, 115.00000, -5.71875, -43.65517
  9252, 115.00000, -6.50000, -45.00833
  9253, 115.00000, -0.17101, -34.21985
  9254, 115.00000, -0.70542, -35.68812
  9255, 115.00000, -1.23982, -37.15639
  9256, 115.00000, -1.77423, -38.62466
  9257, 115.00000, -2.30864, -40.09293
  9258, 115.00000, -2.84304, -41.56119
  9259, 115.00000, -3.37745, -43.02946
  9260, 115.00000, -3.91186, -44.49773
  9261, 115.00000, -4.44626, -45.96600
  9262, 115.00000, -0.08682, -34.24240
  9263, 115.00000, -0.35815, -35.78117
  9264, 115.00000, -0.62947, -37.31993
  9265, 115.00000, -0.90080, -38.85869
  9266, 115.00000, -1.17213, -40.39745
  9267, 115.00000, -1.44345, -41.93621
  9268, 115.00000, -1.71478, -43.47498
  9269, 115.00000, -1.98610, -45.01374
  9270, 115.00000, -2.25743, -46.55250
  9271, 115.00000, -0.00000, -34.25000
  9272, 115.00000, -0.00000, -35.81250
  9273, 115.00000, -0.00000, -37.37500
  9274, 115.00000, -0.00000, -38.93750
  9275, 115.00000, -0.00000, -40.50000
  9276, 115.00000, -0.00000, -42.06250
  9277, 115.00000, -0.00000, -43.62500
  9278, 115.00000, -0.00000, -45.18750
  9279, 115.00000, -0.00000, -46.75000
  9280, 115.00000, 0.08682, -34.24240
  9281, 115.00000, 0.35815, -35.78117
  9282, 115.00000, 0.62947, -37.31993
  9283, 115.00000, 0.90080, -38.85869
  9284, 115.00000, 1.17213, -40.39745
  9285, 115.00000, 1.44345, -41.93621
  9286, 115.00000, 1.71478, -43.47498
  9287, 115.00000, 1.98610, -45.01374
  9288, 115.00000, 2.25743, -46.55250
  9289, 115.00000, 0.17101, -34.21985
  9290, 115.00000, 0.70542, -35.68812
  9291, 115.00000, 1.23982, -37.15639
  9292, 115.00000, 1.77423, -38.62466
  9293, 115.00000, 2.30864, -40.09293
  9294, 115.00000, 2.84304, -41.56119
  9295, 115.00000, 3.37745, -43.02946
  9296, 115.00000, 3.91186, -44.49773
  9297, 115.00000, 4.44626, -45.96600
  9298, 115.00000, 0.25000, -34.18301
  9299, 115.00000, 1.03125, -35.53618
  9300, 115.00000, 1.81250, -36.88934
  9301, 115.00000, 2.59375, -38.24251
  9302, 115.00000, 3.37500, -39.59567
  9303, 115.00000, 4.15625, -40.94884
  9304, 115.00000, 4.93750, -42.30200
  9305, 115.00000, 5.71875, -43.65517
  9306, 115.00000, 6.50000, -45.00833
  9307, 115.00000, 0.32139, -34.13302
  9308, 115.00000, 1.32575, -35.32997
  9309, 115.00000, 2.33011, -36.52691
  9310, 115.00000, 3.33446, -37.72386
  9311, 115.00000, 4.33882, -38.92080
  9312, 115.00000, 5.34317, -40.11774
  9313, 115.00000, 6.34753, -41.31469
  9314, 115.00000, 7.35188, -42.51163
  9315, 115.00000, 8.35624, -43.70858
  9316, 115.00000, 0.38302, -34.07139
  9317, 115.00000, 1.57997, -35.07575
  9318, 115.00000, 2.77691, -36.08011
  9319, 115.00000, 3.97386, -37.08446
  9320, 115.00000, 5.17080, -38.08882
  9321, 115.00000, 6.36774, -39.09317
  9322, 115.00000, 7.56469, -40.09753
  9323, 115.00000, 8.76163, -41.10188
  9324, 115.00000, 9.95858, -42.10624
  9325, 115.00000, 0.43301, -34.00000
  9326, 115.00000, 1.78618, -34.78125
  9327, 115.00000, 3.13934, -35.56250
  9328, 115.00000, 4.49251, -36.34375
  9329, 115.00000, 5.84567, -37.12500
  9330, 115.00000, 7.19884, -37.90625
  9331, 115.00000, 8.55200, -38.68750
  9332, 115.00000, 9.90517, -39.46875
  9333, 115.00000, 11.25833, -40.25000
  9334, 115.00000, 0.46985, -33.92101
  9335, 115.00000, 1.93812, -34.45542
  9336, 115.00000, 3.40639, -34.98982
  9337, 115.00000, 4.87466, -35.52423
  9338, 115.00000, 6.34293, -36.05864
  9339, 115.00000, 7.81119, -36.59304
  9340, 115.00000, 9.27946, -37.12745
  9341, 115.00000, 10.74773, -37.66186
  9342, 115.00000, 12.21600, -38.19626
  9343, 115.00000, 0.49240, -33.83682
  9344, 115.00000, 2.03117, -34.10815
  9345, 115.00000, 3.56993, -34.37947
  9346, 115.00000, 5.10869, -34.65080
  9347, 115.00000, 6.64745, -34.92213
  9348, 115.00000, 8.18621, -35.19345
  9349, 115.00000, 9.72498, -35.46478
  9350, 115.00000, 11.26374, -35.73610
  9351, 115.00000, 12.80250, -36.00743
  9352, 115.00000, 0.50000, -33.75000
  9353, 115.00000, 2.06250, -33.75000
  9354, 115.00000, 3.62500, -33.75000
  9355, 115.00000, 5.18750, -33.75000
  9356, 115.00000, 6.75000, -33.75000
  9357, 115.00000, 8.31250, -33.75000
  9358, 115.00000, 9.87500, -33.75000
  9359, 115.00000, 11.43750, -33.75000
  9360, 115.00000, 13.00000, -33.75000
  9361, 120.00000, 0.50000, -33.75000
  9362, 120.00000, 2.06250, -33.75000
  9363, 120.00000, 3.62500, -33.75000
  9364, 120.00000, 5.18750, -33.75000
  9365, 120.00000, 6.75000, -33.75000
  9366, 120.00000, 8.31250, -33.75000
  9367, 120.00000, 9.87500, -33.75000
  9368, 120.00000, 11.43750, -33.75000
  9369, 120.00000, 13.00000, -33.75000
  9370, 120.00000, 0.49240, -33.66318
  9371, 120.00000, 2.03117, -33.39185
  9372, 120.00000, 3.56993, -33.12053
  9373, 120.00000, 5.10869, -32.84920
  9374, 120.00000, 6.64745, -32.57787
  9375, 120.00000, 8.18621, -32.30655
  9376, 120.00000, 9.72498, -32.03522
  9377, 120.00000, 11.26374, -31.76390
  9378, 120.00000, 12.80250, -31.49257
  9379, 120.00000, 0.46985, -33.57899
  9380, 120.00000, 1.93812, -33.04458
  9381, 120.00000, 3.40639, -32.51018
  9382, 120.00000, 4.87466, -31.97577
  9383, 120.00000, 6.34293, -31.44136
  9384, 120.00000, 7.81119, -30.90696
  9385, 120.00000, 9.27946, -30.37255
  9386, 120.00000, 10.74773, -29.83814
  9387, 120.00000, 12.21600, -29.30374
  9388, 120.00000, 0.43301, -33.50000
  9389, 120.00000, 1.78618, -32.71875
  9390, 120.00000, 3.13934, -31.93750
  9391, 120.00000, 4.49251, -31.15625
  9392, 120.00000, 5.84567, -30.37500
  9393, 120.00000, 7.19884, -29.59375
  9394, 120.00000, 8.55200, -28.81250
  9395, 120.00000, 9.90517, -28.03125
  9396, 120.00000, 11.25833, -27.25000
  9397, 120.00000, 0.38302, -33.42861
  9398, 120.00000, 1.57997, -32.42425
  9399, 120.00000, 2.77691, -31.41989
  9400, 120.00000, 3.97386, -30.41554
  9401, 120.00000, 5.17080, -29.41118
  9402, 120.00000, 6.36774, -28.40683
  9403, 120.00000, 7.56469, -27.40247
  9404, 120.00000, 8.76163, -26.39812
  9405, 120.00000, 9.95858, -25.39376
  9406, 120.00000, 0.32139, -33.36698
  9407, 120.00000, 1.32575, -32.17003
  9408, 120.00000, 2.33011, -30.97309
  9409, 120.00000, 3.33446, -29.77614
  9410, 120.00000, 4.33882, -28.57920
  9411, 120.00000, 5.34317, -27.38226
  9412, 120.00000, 6.34753, -26.18531
  9413, 120.00000, 7.35188, -24.98837
  9414, 120.00000, 8.35624, -23.79142
  9415, 120.00000, 0.25000, -33.31699
  9416, 120.00000, 1.03125, -31.96382
  9417, 120.00000, 1.81250, -30.61066
  9418, 120.00000, 2.59375, -29.25749
  9419, 120.00000, 3.37500, -27.90433
  9420, 120.00000, 4.15625, -26.55116
  9421, 120.00000, 4.93750, -25.19800
  9422, 120.00000, 5.71875, -23.84483
  9423, 120.00000, 6.50000, -22.49167
  9424, 120.00000, 0.17101, -33.28015
  9425, 120.00000, 0.70542, -31.81188
  9426, 120.00000, 1.23982, -30.34361
  9427, 120.00000, 1.77423, -28.87534
  9428, 120.00000, 2.30864, -27.40707
  9429, 120.00000, 2.84304, -25.93881
  9430, 120.00000, 3.37745, -24.47054
  9431, 120.00000, 3.91186, -23.00227
  9432, 120.00000, 4.44626, -21.53400
  9433, 120.00000, 0.08682, -33.25760
  9434, 120.00000, 0.35815, -31.71883
  9435, 120.00000, 0.62947, -30.18007
  9436, 120.00000, 0.90080, -28.64131
  9437, 120.00000, 1.17213, -27.10255
  9438, 120.00000, 1.44345, -25.56379
  9439, 120.00000, 1.71478, -24.02502
  9440, 120.00000, 1.98610, -22.48626
  9441, 120.00000, 2.25743, -20.94750
  9442, 120.00000, 0.00000, -33.25000
  9443, 120.00000, 0.00000, -31.68750
  9444, 120.00000, 0.00000, -30.12500
  9445, 120.00000, 0.00000, -28.56250
  9446, 120.00000, 0.00000, -27.00000
  9447, 120.00000, 0.00000, -25.43750
  9448, 120.00000, 0.00000, -23.87500
  9449, 120.00000, 0.00000, -22.31250
  9450, 120.00000, 0.00000, -20.75000
  9451, 120.00000, -0.08682, -33.25760
  9452, 120.00000, -0.35815, -31.71883
  9453, 120.00000, -0.62947, -30.18007
  9454, 120.00000, -0.90080, -28.64131
  9455, 120.00000, -1.17213, -27.10255
  9456, 120.00000, -1.44345, -25.56379
  9457, 120.00000, -1.71478, -24.02502
  9458, 120.00000, -1.98610, -22.48626
  9459, 120.00000, -2.25743, -20.94750
  9460, 120.00000, -0.17101, -33.28015
  9461, 120.00000, -0.70542, -31.81188
  9462, 120.00000, -1.23982, -30.34361
  9463, 120.00000, -1.77423, -28.87534
  9464, 120.00000, -2.30864, -27.40707
  9465, 120.00000, -2.84304, -25.93881
  9466, 120.00000, -3.37745, -24.47054
  9467, 120.00000, -3.91186, -23.00227
  9468, 120.00000, -4.44626, -21.53400
  9469, 120.00000, -0.25000, -33.31699
  9470, 120.00000, -1.03125, -31.96382
  9471, 120.00000, -1.81250, -30.61066
  9472, 120.00000, -2.59375, -29.25749
  9473, 120.00000, -3.37500, -27.90433
  9474, 120.00000, -4.15625, -26.55116
  9475, 120.00000, -4.93750, -25.19800
  9476, 120.00000, -5.71875, -23.84483
  9477, 120.00000, -6.50000, -22.49167
  9478, 120.00000, -0.32139, -33.36698
  9479, 120.00000, -1.32575, -32.17003
  9480, 120.00000, -2.33011, -30.97309
  9481, 120.00000, -3.33446, -29.77614
  9482, 120.00000, -4.33882, -28.57920
  9483, 120.00000, -5.34317, -27.38226
  9484, 120.00000, -6.34753, -26.18531
  9485, 120.00000, -7.35188, -24.98837
  9486, 120.00000, -8.35624, -23.79142
  9487, 120.00000, -0.38302, -33.42861
  9488, 120.00000, -1.57997, -32.42425
  9489, 120.00000, -2.77691, -31.41989
  9490, 120.00000, -3.97386, -30.41554
  9491, 120.00000, -5.17080, -29.41118
  9492, 120.00000, -6.36774, -28.40683
  9493, 120.00000, -7.56469, -27.40247
  9494, 120.00000, -8.76163, -26.39812
  9495, 120.00000, -9.95858, -25.39376
  9496, 120.00000, -0.43301, -33.50000
  9497, 120.00000, -1.78618, -32.71875
  9498, 120.00000, -3.13934, -31.93750
  9499, 120.00000, -4.49251, -31.15625
  9500, 120.00000, -5.84567, -30.37500
  9501, 120.00000, -7.19884, -29.59375
  9502, 120.00000, -8.55200, -28.81250
  9503, 120.00000, -9.90517, -28.03125
  9504, 120.00000, -11.25833, -27.25000
  9505, 120.00000, -0.46985, -33.57899
  9506, 120.00000, -1.93812, -33.04458
  9507, 120.00000, -3.40639, -32.51018
  9508, 120.00000, -4.87466, -31.97577
  9509, 120.00000, -6.34293, -31.44136
  9510, 120.00000, -7.81119, -30.90696
  9511, 120.00000, -9.27946, -30.37255
  9512, 120.00000, -10.74773, -29.83814
  9513, 120.00000, -12.21600, -29.30374
  9514, 120.00000, -0.49240, -33.66318
  9515, 120.00000, -2.03117, -33.39185
  9516, 120.00000, -3.56993, -33.12053
  9517, 120.00000, -5.10869, -32.84920
  9518, 120.00000, -6.64745, -32.57787
  9519, 120.00000, -8.18621, -32.30655
  9520, 120.00000, -9.72498, -32.03522
  9521, 120.00000, -11.26374, -31.76390
  9522, 120.00000, -12.80250, -31.49257
  9523, 120.00000, -0.50000, -33.75000
  9524, 120.00000, -2.06250, -33.75000
  9525, 120.00000, -3.62500, -33.75000
  9526, 120.00000, -5.18750, -33.75000
  9527, 120.00000, -6.75000, -33.75000
  9528, 120.00000, -8.31250, -33.75000
  9529, 120.00000, -9.87500, -33.75000
  9530, 120.00000, -11.43750, -33.75000
  9531, 120.00000, -13.00000, -33.75000
  9532, 120.00000, -0.49240, -33.83682
  9533, 120.00000, -2.03117, -34.10815
  9534, 120.00000, -3.56993, -34.37947
  9535, 120.00000, -5.10869, -34.65080
  9536, 120.00000, -6.64745, -34.92213
  9537, 120.00000, -8.18621, -35.19345
  9538, 120.00000, -9.72498, -35.46478
  9539, 120.00000, -11.26374, -35.73610
  9540, 120.00000, -12.80250, -36.00743
  9541, 120.00000, -0.46985, -33.92101
  9542, 120.00000, -1.93812, -34.45542
  9543, 120.00000, -3.40639, -34.98982
  9544, 120.00000, -4.87466, -35.52423
  9545, 120.00000, -6.34293, -36.05864
  9546, 120.00000, -7.81119, -36.59304
  9547, 120.00000, -9.27946, -37.12745
  9548, 120.00000, -10.74773, -37.66186
  9549, 120.00000, -12.21600, -38.19626
  9550, 120.00000, -0.43301, -34.00000
  9551, 120.00000, -1.78618, -34.78125
  9552, 120.00000, -3.13934, -35.56250
  9553, 120.00000, -4.49251, -36.34375
  9554, 120.00000, -5.84567, -37.12500
  9555, 120.00000, -7.19884, -37.90625
  9556, 120.00000, -8.55200, -38.68750
  9557, 120.00000, -9.90517, -39.46875
  9558, 120.00000, -11.25833, -40.25000
  9559, 120.00000, -0.38302, -34.07139
  9560, 120.00000, -1.57997, -35.07575
  9561, 120.00000, -2.77691, -36.08011
  9562, 120.00000, -3.97386, -37.08446
  9563, 120.00000, -5.17080, -38.08882
  9564, 120.00000, -6.36774, -39.09317
  9565, 120.00000, -7.56469, -40.09753
  9566, 120.00000, -8.76163, -41.10188
  9567, 120.00000, -9.95858, -42.10624
  9568, 120.00000, -0.32139, -34.13302
  9569, 120.00000, -1.32575, -35.32997
  9570, 120.00000, -2.33011, -36.52691
  9571, 120.00000, -3.33446, -37.72386
  9572, 120.00000, -4.33882, -38.92080
  9573, 120.00000, -5.34317, -40.11774
  9574, 120.00000, -6.34753, -41.31469
  9575, 120.00000, -7.35188, -42.51163
  9576, 120.00000, -8.35624, -43.70858
  9577, 120.00000, -0.25000, -34.18301
  9578, 120.00000, -1.03125, -35.53618
  9579, 120.00000, -1.81250, -36.88934
  9580, 120.00000, -2.59375, -38.24251
  9581, 120.00000, -3.37500, -39.59567
  9582, 120.00000, -4.15625, -40.94884
  9583, 120.00000, -4.93750, -42.30200
  9584, 120.00000, -5.71875, -43.65517
  9585, 120.00000, -6.50000, -45.00833
  9586, 120.00000, -0.17101, -34.21985
  9587, 120.00000, -0.70542, -35.68812
  9588, 120.00000, -1.23982, -37.15639
  9589, 120.00000, -1.77423, -38.62466
  9590, 120.00000, -2.30864, -40.09293
  9591, 120.00000, -2.84304, -41.56119
  9592, 120.00000, -3.37745, -43.02946
  9593, 120.00000, -3.91186, -44.49773
  9594, 120.00000, -4.44626, -45.96600
  9595, 120.00000, -0.08682, -34.24240
  9596, 120.00000, -0.35815, -35.78117
  9597, 120.00000, -0.62947, -37.31993
  9598, 120.00000, -0.90080, -38.85869
  9599, 120.00000, -1.17213, -40.39745
  9600, 120.00000, -1.44345, -41.93621
  9601, 120.00000, -1.71478, -43.47498
  9602, 120.00000, -1.98610, -45.01374
  9603, 120.00000, -2.25743, -46.55250
  9604, 120.00000, -0.00000, -34.25000
  9605, 120.00000, -0.00000, -35.81250
  9606, 120.00000, -0.00000, -37.37500
  9607, 120.00000, -0.00000, -38.93750
  9608, 120.00000, -0.00000, -40.50000
  9609, 120.00000, -0.00000, -42.06250
  9610, 120.00000, -0.00000, -43.62500
  9611, 120.00000, -0.00000, -45.18750
  9612, 120.00000, -0.00000, -46.75000
  9613, 120.00000, 0.08682, -34.24240
  9614, 120.00000, 0.35815, -35.78117
  9615, 120.00000, 0.62947, -37.31993
  9616, 120.00000, 0.90080, -38.85869
  9617, 120.00000, 1.17213, -40.39745
  9618, 120.00000, 1.44345, -41.93621
  9619, 120.00000, 1.71478, -43.47498
  9620, 120.00000, 1.98610, -45.01374
  9621, 120.00000, 2.25743, -46.55250
  9622, 120.00000, 0.17101, -34.21985
  9623, 120.00000, 0.70542, -35.68812
  9624, 120.00000, 1.23982, -37.15639
  9625, 120.00000, 1.77423, -38.62466
  9626, 120.00000, 2.30864, -40.09293
  9627, 120.00000, 2.84304, -41.56119
  9628, 120.00000, 3.37745, -43.02946
  9629, 120.00000, 3.91186, -44.49773
  9630, 120.00000, 4.44626, -45.96600
  9631, 120.00000, 0.25000, -34.18301
  9632, 120.00000, 1.03125, -35.53618
  9633, 120.00000, 1.81250, -36.88934
  9634, 120.00000, 2.59375, -38.24251
  9635, 120.00000, 3.37500, -39.59567
  9636, 120.00000, 4.15625, -40.94884
  9637, 120.00000, 4.93750, -42.30200
  9638, 120.00000, 5.71875, -43.65517
  9639, 120.00000, 6.50000, -45.00833
  9640, 120.00000, 0.32139, -34.13302
  9641, 120.00000, 1.32575, -35.32997
  9642, 120.00000, 2.33011, -36.52691
  9643, 120.00000, 3.33446, -37.72386
  9644, 120.00000, 4.33882, -38.92080
  9645, 120.00000, 5.34317, -40.11774
  9646, 120.00000, 6.34753, -41.31469
  9647, 120.00000, 7.35188, -42.51163
  9648, 120.00000, 8.35624, -43.70858
  9649, 120.00000, 0.38302, -34.07139
  9650, 120.00000, 1.57997, -35.07575
  9651, 120.00000, 2.77691, -36.08011
  9652, 120.00000, 3.97386, -37.08446
  9653, 120.00000, 5.17080, -38.08882
  9654, 120.00000, 6.36774, -39.09317
  9655, 120.00000, 7.56469, -40.09753
  9656, 120.00000, 8.76163, -41.10188
  9657, 120.00000, 9.95858, -42.10624
  9658, 120.00000, 0.43301, -34.00000
  9659, 120.00000, 1.78618, -34.78125
  9660, 120.00000, 3.13934, -35.56250
  9661, 120.00000, 4.49251, -36.34375
  9662, 120.00000, 5.84567, -37.12500
  9663, 120.00000, 7.19884, -37.90625
  9664, 120.00000, 8.55200, -38.68750
  9665, 120.00000, 9.90517, -39.46875
  9666, 120.00000, 11.25833, -40.25000
  9667, 120.00000, 0.46985, -33.92101
  9668, 120.00000, 1.93812, -34.45542
  9669, 120.00000, 3.40639, -34.98982
  9670, 120.00000, 4.87466, -35.52423
  9671, 120.00000, 6.34293, -36.05864
  9672, 120.00000, 7.81119, -36.59304
  9673, 120.00000, 9.27946, -37.12745
  9674, 120.00000, 10.74773, -37.66186
  9675, 120.00000, 12.21600, -38.19626
  9676, 120.00000, 0.49240, -33.83682
  9677, 120.00000, 2.03117, -34.10815
  9678, 120.00000, 3.56993, -34.37947
  9679, 120.00000, 5.10869, -34.65080
  9680, 120.00000, 6.64745, -34.92213
  9681, 120.00000, 8.18621, -35.19345
  9682, 120.00000, 9.72498, -35.46478
  9683, 120.00000, 11.26374, -35.73610
  9684, 120.00000, 12.80250, -36.00743
  9685, 120.00000, 0.50000, -33.75000
  9686, 120.00000, 2.06250, -33.75000
  9687, 120.00000, 3.62500, -33.75000
  9688, 120.00000, 5.18750, -33.75000
  9689, 120.00000, 6.75000, -33.75000
  9690, 120.00000, 8.31250, -33.75000
  9691, 120.00000, 9.87500, -33.75000
  9692, 120.00000, 11.43750, -33.75000
  9693, 120.00000, 13.00000, -33.75000
  9694, 125.00000, 0.50000, -33.75000
  9695, 125.00000, 2.06250, -33.75000
  9696, 125.00000, 3.62500, -33.75000
  9697, 125.00000, 5.18750, -33.75000
  9698, 125.00000, 6.75000, -33.75000
  9699, 125.00000, 8.31250, -33.75000
  9700, 125.00000, 9.87500, -33.75000
  9701, 125.00000, 11.43750, -33.75000
  9702, 125.00000, 13.00000, -33.75000
  9703, 125.00000, 0.49240, -33.66318
  9704, 125.00000, 2.03117, -33.39185
  9705, 125.00000, 3.56993, -33.12053
  9706, 125.00000, 5.10869, -32.84920
  9707, 125.00000, 6.64745, -32.57787
  9708, 125.00000, 8.18621, -32.30655
  9709, 125.00000, 9.72498, -32.03522
  9710, 125.00000, 11.26374, -31.76390
  9711, 125.00000, 12.80250, -31.49257
  9712, 125.00000, 0.46985, -33.57899
  9713, 125.00000, 1.93812, -33.04458
  9714, 125.00000, 3.40639, -32.51018
  9715, 125.00000, 4.87466, -31.97577
  9716, 125.00000, 6.34293, -31.44136
  9717, 125.00000, 7.81119, -30.90696
  9718, 125.00000, 9.27946, -30.37255
  9719, 125.00000, 10.74773, -29.83814
  9720, 125.00000, 12.21600, -29.30374
  9721, 125.00000, 0.43301, -33.50000
  9722, 125.00000, 1.78618, -32.71875
  9723, 125.00000, 3.13934, -31.93750
  9724, 125.00000, 4.49251, -31.15625
  9725, 125.00000, 5.84567, -30.37500
  9726, 125.00000, 7.19884, -29.59375
  9727, 125.00000, 8.55200, -28.81250
  9728, 125.00000, 9.90517, -28.03125
  9729, 125.00000, 11.25833, -27.25000
  9730, 125.00000, 0.38302, -33.42861
  9731, 125.00000, 1.57997, -32.42425
  9732, 125.00000, 2.77691, -31.41989
  9733, 125.00000, 3.97386, -30.41554
  9734, 125.00000, 5.17080, -29.41118
  9735, 125.00000, 6.36774, -28.40683
  9736, 125.00000, 7.56469, -27.40247
  9737, 125.00000, 8.76163, -26.39812
  9738, 125.00000, 9.95858, -25.39376
  9739, 125.00000, 0.32139, -33.36698
  9740, 125.00000, 1.32575, -32.17003
  9741, 125.00000, 2.33011, -30.97309
  9742, 125.00000, 3.33446, -29.77614
  9743, 125.00000, 4.33882, -28.57920
  9744, 125.00000, 5.34317, -27.38226
  9745, 125.00000, 6.34753, -26.18531
  9746, 125.00000, 7.35188, -24.98837
  9747, 125.00000, 8.35624, -23.79142
  9748, 125.00000, 0.25000, -33.31699
  9749, 125.00000, 1.03125, -31.96382
  9750, 125.00000, 1.81250, -30.61066
  9751, 125.00000, 2.59375, -29.25749
  9752, 125.00000, 3.37500, -27.90433
  9753, 125.00000, 4.15625, -26.55116
  9754, 125.00000, 4.93750, -25.19800
  9755, 125.00000, 5.71875, -23.84483
  9756, 125.00000, 6.50000, -22.49167
  9757, 125.00000, 0.17101, -33.28015
  9758, 125.00000, 0.70542, -31.81188
  9759, 125.00000, 1.23982, -30.34361
  9760, 125.00000, 1.77423, -28.87534
  9761, 125.00000, 2.30864, -27.40707
  9762, 125.00000, 2.84304, -25.93881
  9763, 125.00000, 3.37745, -24.47054
  9764, 125.00000, 3.91186, -23.00227
  9765, 125.00000, 4.44626, -21.53400
  9766, 125.00000, 0.08682, -33.25760
  9767, 125.00000, 0.35815, -31.71883
  9768, 125.00000, 0.62947, -30.18007
  9769, 125.00000, 0.90080, -28.64131
  9770, 125.00000, 1.17213, -27.10255
  9771, 125.00000, 1.44345, -25.56379
  9772, 125.00000, 1.71478, -24.02502
  9773, 125.00000, 1.98610, -22.48626
  9774, 125.00000, 2.25743, -20.94750
  9775, 125.00000, 0.00000, -33.25000
  9776, 125.00000, 0.00000, -31.68750
  9777, 125.00000, 0.00000, -30.12500
  9778, 125.00000, 0.00000, -28.56250
  9779, 125.00000, 0.00000, -27.00000
  9780, 125.00000, 0.00000, -25.43750
  9781, 125.00000, 0.00000, -23.87500
  9782, 125.00000, 0.00000, -22.31250
  9783, 125.00000, 0.00000, -20.75000
  9784, 125.00000, -0.08682, -33.25760
  9785, 125.00000, -0.35815, -31.71883
  9786, 125.00000, -0.62947, -30.18007
  9787, 125.00000, -0.90080, -28.64131
  9788, 125.00000, -1.17213, -27.10255
  9789, 125.00000, -1.44345, -25.56379
  9790, 125.00000, -1.71478, -24.02502
  9791, 125.00000, -1.98610, -22.48626
  9792, 125.00000, -2.25743, -20.94750
  9793, 125.00000, -0.17101, -33.28015
  9794, 125.00000, -0.70542, -31.81188
  9795, 125.00000, -1.23982, -30.34361
  9796, 125.00000, -1.77423, -28.87534
  9797, 125.00000, -2.30864, -27.40707
  9798, 125.00000, -2.84304, -25.93881
  9799, 125.00000, -3.37745, -24.47054
  9800, 125.00000, -3.91186, -23.00227
  9801, 125.00000, -4.44626, -21.53400
  9802, 125.00000, -0.25000, -33.31699
  9803, 125.00000, -1.03125, -31.96382
  9804, 125.00000, -1.81250, -30.61066
  9805, 125.00000, -2.59375, -29.25749
  9806, 125.00000, -3.37500, -27.90433
  9807, 125.00000, -4.15625, -26.55116
  9808, 125.00000, -4.93750, -25.19800
  9809, 125.00000, -5.71875, -23.84483
  9810, 125.00000, -6.50000, -22.49167
  9811, 125.00000, -0.32139, -33.36698
  9812, 125.00000, -1.32575, -32.17003
  9813, 125.00000, -2.33011, -30.97309
  9814, 125.00000, -3.33446, -29.77614
  9815, 125.00000, -4.33882, -28.57920
  9816, 125.00000, -5.34317, -27.38226
  9817, 125.00000, -6.34753, -26.18531
  9818, 125.00000, -7.35188, -24.98837
  9819, 125.00000, -8.35624, -23.79142
  9820, 125.00000, -0.38302, -33.42861
  9821, 125.00000, -1.57997, -32.42425
  9822, 125.00000, -2.77691, -31.41989
  9823, 125.00000, -3.97386, -30.41554
  9824, 125.00000, -5.17080, -29.41118
  9825, 125.00000, -6.36774, -28.40683
  9826, 125.00000, -7.56469, -27.40247
  9827, 125.00000, -8.76163, -26.39812
  9828, 125.00000, -9.95858, -25.39376
  9829, 125.00000, -0.43301, -33.50000
  9830, 125.00000, -1.78618, -32.71875
  9831, 125.00000, -3.13934, -31.93750
  9832, 125.00000, -4.49251, -31.15625
  9833, 125.00000, -5.84567, -30.37500
  9834, 125.00000, -7.19884, -29.59375
  9835, 125.00000, -8.55200, -28.81250
  9836, 125.00000, -9.90517, -28.03125
  9837, 125.00000, -11.25833, -27.25000
  9838, 125.00000, -0.46985, -33.57899
  9839, 125.00000, -1.93812, -33.04458
  9840, 125.00000, -3.40639, -32.51018
  9841, 125.00000, -4.87466, -31.97577
  9842, 125.00000, -6.34293, -31.44136
  9843, 125.00000, -7.81119, -30.90696
  9844, 125.00000, -9.27946, -30.37255
  9845, 125.00000, -10.74773, -29.83814
  9846, 125.00000, -12.21600, -29.30374
  9847, 125.00000, -0.49240, -33.66318
  9848, 125.00000, -2.03117, -33.39185
  9849, 125.00000, -3.56993, -33.12053
  9850, 125.00000, -5.10869, -32.84920
  9851, 125.00000, -6.64745, -32.57787
  9852, 125.00000, -8.18621, -32.30655
  9853, 125.00000, -9.72498, -32.03522
  9854, 125.00000, -11.26374, -31.76390
  9855, 125.00000, -12.80250, -31.49257
  9856, 125.00000, -0.50000, -33.75000
  9857, 125.00000, -2.06250, -33.75000
  9858, 125.00000, -3.62500, -33.75000
  9859, 125.00000, -5.18750, -33.75000
  9860, 125.00000, -6.75000, -33.75000
  9861, 125.00000, -8.31250, -33.75000
  9862, 125.00000, -9.87500, -33.75000
  9863, 125.00000, -11.43750, -33.75000
  9864, 125.00000, -13.00000, -33.75000
  9865, 125.00000, -0.49240, -33.83682
  9866, 125.00000, -2.03117, -34.10815
  9867, 125.00000, -3.56993, -34.37947
  9868, 125.00000, -5.10869, -34.65080
  9869, 125.00000, -6.64745, -34.92213
  9870, 125.00000, -8.18621, -35.19345
  9871, 125.00000, -9.72498, -35.46478
  9872, 125.00000, -11.26374, -35.73610
  9873, 125.00000, -12.80250, -36.00743
  9874, 125.00000, -0.46985, -33.92101
  9875, 125.00000, -1.93812, -34.45542
  9876, 125.00000, -3.40639, -34.98982
  9877, 125.00000, -4.87466, -35.52423
  9878, 125.00000, -6.34293, -36.05864
  9879, 125.00000, -7.81119, -36.59304
  9880, 125.00000, -9.27946, -37.12745
  9881, 125.00000, -10.74773, -37.66186
  9882, 125.00000, -12.21600, -38.19626
  9883, 125.00000, -0.43301, -34.00000
  9884, 125.00000, -1.78618, -34.78125
  9885, 125.00000, -3.13934, -35.56250
  9886, 125.00000, -4.49251, -36.34375
  9887, 125.00000, -5.84567, -37.12500
  9888, 125.00000, -7.19884, -37.90625
  9889, 125.00000, -8.55200, -38.68750
  9890, 125.00000, -9.90517, -39.46875
  9891, 125.00000, -11.25833, -40.25000
  9892, 125.00000, -0.38302, -34.07139
  9893, 125.00000, -1.57997, -35.07575
  9894, 125.00000, -2.77691, -36.08011
  9895, 125.00000, -3.97386, -37.08446
  9896, 125.00000, -5.17080, -38.08882
  9897, 125.00000, -6.36774, -39.09317
  9898, 125.00000, -7.56469, -40.09753
  9899, 125.00000, -8.76163, -41.10188
  9900, 125.00000, -9.95858, -42.10624
  9901, 125.00000, -0.32139, -34.13302
  9902, 125.00000, -1.32575, -35.32997
  9903, 125.00000, -2.33011, -36.52691
  9904, 125.00000, -3.33446, -37.72386
  9905, 125.00000, -4.33882, -38.92080
  9906, 125.00000, -5.34317, -40.11774
  9907, 125.00000, -6.34753, -41.31469
  9908, 125.00000, -7.35188, -42.51163
  9909, 125.00000, -8.35624, -43.70858
  9910, 125.00000, -0.25000, -34.18301
  9911, 125.00000, -1.03125, -35.53618
  9912, 125.00000, -1.81250, -36.88934
  9913, 125.00000, -2.59375, -38.24251
  9914, 125.00000, -3.37500, -39.59567
  9915, 125.00000, -4.15625, -40.94884
  9916, 125.00000, -4.93750, -42.30200
  9917, 125.00000, -5.71875, -43.65517
  9918, 125.00000, -6.50000, -45.00833
  9919, 125.00000, -0.17101, -34.21985
  9920, 125.00000, -0.70542, -35.68812
  9921, 125.00000, -1.23982, -37.15639
  9922, 125.00000, -1.77423, -38.62466
  9923, 125.00000, -2.30864, -40.09293
  9924, 125.00000, -2.84304, -41.56119
  9925, 125.00000, -3.37745, -43.02946
  9926, 125.00000, -3.91186, -44.49773
  9927, 125.00000, -4.44626, -45.96600
  9928, 125.00000, -0.08682, -34.24240
  9929, 125.00000, -0.35815, -35.78117
  9930, 125.00000, -0.62947, -37.31993
  9931, 125.00000, -0.90080, -38.85869
  9932, 125.00000, -1.17213, -40.39745
  9933, 125.00000, -1.44345, -41.93621
  9934, 125.00000, -1.71478, -43.47498
  9935, 125.00000, -1.98610, -45.01374
  9936, 125.00000, -2.25743, -46.55250
  9937, 125.00000, -0.00000, -34.25000
  9938, 125.00000, -0.00000, -35.81250
  9939, 125.00000, -0.00000, -37.37500
  9940, 125.00000, -0.00000, -38.93750
  9941, 125.00000, -0.00000, -40.50000
  9942, 125.00000, -0.00000, -42.06250
  9943, 125.00000, -0.00000, -43.62500
  9944, 125.00000, -0.00000, -45.18750
  9945, 125.00000, -0.00000, -46.75000
  9946, 125.00000, 0.08682, -34.24240
  9947, 125.00000, 0.35815, -35.78117
  9948, 125.00000, 0.62947, -37.31993
  9949, 125.00000, 0.90080, -38.85869
  9950, 125.00000, 1.17213, -40.39745
  9951, 125.00000, 1.44345, -41.93621
  9952, 125.00000, 1.71478, -43.47498
  9953, 125.00000, 1.98610, -45.01374
  9954, 125.00000, 2.25743, -46.55250
  9955, 125.00000, 0.17101, -34.21985
  9956, 125.00000, 0.70542, -35.68812
  9957, 125.00000, 1.23982, -37.15639
  9958, 125.00000, 1.77423, -38.62466
  9959, 125.00000, 2.30864, -40.09293
  9960, 125.00000, 2.84304, -41.56119
  9961, 125.00000, 3.37745, -43.02946
  9962, 125.00000, 3.91186, -44.49773
  9963, 125.00000, 4.44626, -45.96600
  9964, 125.00000, 0.25000, -34.18301
  9965, 125.00000, 1.03125, -35.53618
  9966, 125.00000, 1.81250, -36.88934
  9967, 125.00000, 2.59375, -38.24251
  9968, 125.00000, 3.37500, -39.59567
  9969, 125.00000, 4.15625, -40.94884
  9970, 125.00000, 4.93750, -42.30200
  9971, 125.00000, 5.71875, -43.65517
  9972, 125.00000, 6.50000, -45.00833
  9973, 125.00000, 0.32139, -34.13302
  9974, 125.00000, 1.32575, -35.32997
  9975, 125.00000, 2.33011, -36.52691
  9976, 125.00000, 3.33446, -37.72386
  9977, 125.00000, 4.33882, -38.92080
  9978, 125.00000, 5.34317, -40.11774
  9979, 125.00000, 6.34753, -41.31469
  9980, 125.00000, 7.35188, -42.51163
  9981, 125.00000, 8.35624, -43.70858
  9982, 125.00000, 0.38302, -34.07139
  9983, 125.00000, 1.57997, -35.07575
  9984, 125.00000, 2.77691, -36.08011
  9985, 125.00000, 3.97386, -37.08446
  9986, 125.00000, 5.17080, -38.08882
  9987, 125.00000, 6.36774, -39.09317
  9988, 125.00000, 7.56469, -40.09753
  9989, 125.00000, 8.76163, -41.10188
  9990, 125.00000, 9.95858, -42.10624
  9991, 125.00000, 0.43301, -34.00000
  9992, 125.00000, 1.78618, -34.78125
  9993, 125.00000, 3.13934, -35.56250
  9994, 125.00000, 4.49251, -36.34375
  9995, 125.00000, 5.84567, -37.12500
  9996, 125.00000, 7.19884, -37.90625
  9997, 125.00000, 8.55200, -38.68750
  9998, 125.00000, 9.90517, -39.46875
  9999, 125.00000, 11.25833, -40.25000
  10000, 125.00000, 0.46985, -33.92101
  10001, 125.00000, 1.93812, -34.45542
  10002, 125.00000, 3.40639, -34.98982
  10003, 125.00000, 4.87466, -35.52423
  10004, 125.00000, 6.34293, -36.05864
  10005, 125.00000, 7.81119, -36.59304
  10006, 125.00000, 9.27946, -37.12745
  10007, 125.00000, 10.74773, -37.66186
  10008, 125.00000, 12.21600, -38.19626
  10009, 125.00000, 0.49240, -33.83682
  10010, 125.00000, 2.03117, -34.10815
  10011, 125.00000, 3.56993, -34.37947
  10012, 125.00000, 5.10869, -34.65080
  10013, 125.00000, 6.64745, -34.92213
  10014, 125.00000, 8.18621, -35.19345
  10015, 125.00000, 9.72498, -35.46478
  10016, 125.00000, 11.26374, -35.73610
  10017, 125.00000, 12.80250, -36.00743
  10018, 125.00000, 0.50000, -33.75000
  10019, 125.00000, 2.06250, -33.75000
  10020, 125.00000, 3.62500, -33.75000
  10021, 125.00000, 5.18750, -33.75000
  10022, 125.00000, 6.75000, -33.75000
  10023, 125.00000, 8.31250, -33.75000
  10024, 125.00000, 9.87500, -33.75000
  10025, 125.00000, 11.43750, -33.75000
  10026, 125.00000, 13.00000, -33.75000
  10027, 130.00000, 0.50000, -33.75000
  10028, 130.00000, 2.06250, -33.75000
  10029, 130.00000, 3.62500, -33.75000
  10030, 130.00000, 5.18750, -33.75000
  10031, 130.00000, 6.75000, -33.75000
  10032, 130.00000, 8.31250, -33.75000
  10033, 130.00000, 9.87500, -33.75000
  10034, 130.00000, 11.43750, -33.75000
  10035, 130.00000, 13.00000, -33.75000
  10036, 130.00000, 0.49240, -33.66318
  10037, 130.00000, 2.03117, -33.39185
  10038, 130.00000, 3.56993, -33.12053
  10039, 130.00000, 5.10869, -32.84920
  10040, 130.00000, 6.64745, -32.57787
  10041, 130.00000, 8.18621, -32.30655
  10042, 130.00000, 9.72498, -32.03522
  10043, 130.00000, 11.26374, -31.76390
  10044, 130.00000, 12.80250, -31.49257
  10045, 130.00000, 0.46985, -33.57899
  10046, 130.00000, 1.93812, -33.04458
  10047, 130.00000, 3.40639, -32.51018
  10048, 130.00000, 4.87466, -31.97577
  10049, 130.00000, 6.34293, -31.44136
  10050, 130.00000, 7.81119, -30.90696
  10051, 130.00000, 9.27946, -30.37255
  10052, 130.00000, 10.74773, -29.83814
  10053, 130.00000, 12.21600, -29.30374
  10054, 130.00000, 0.43301, -33.50000
  10055, 130.00000, 1.78618, -32.71875
  10056, 130.00000, 3.13934, -31.93750
  10057, 130.00000, 4.49251, -31.15625
  10058, 130.00000, 5.84567, -30.37500
  10059, 130.00000, 7.19884, -29.59375
  10060, 130.00000, 8.55200, -28.81250
  10061, 130.00000, 9.90517, -28.03125
  10062, 130.00000, 11.25833, -27.25000
  10063, 130.00000, 0.38302, -33.42861
  10064, 130.00000, 1.57997, -32.42425
  10065, 130.00000, 2.77691, -31.41989
  10066, 130.00000, 3.97386, -30.41554
  10067, 130.00000, 5.17080, -29.41118
  10068, 130.00000, 6.36774, -28.40683
  10069, 130.00000, 7.56469, -27.40247
  10070, 130.00000, 8.76163, -26.39812
  10071, 130.00000, 9.95858, -25.39376
  10072, 130.00000, 0.32139, -33.36698
  10073, 130.00000, 1.32575, -32.17003
  10074, 130.00000, 2.33011, -30.97309
  10075, 130.00000, 3.33446, -29.77614
  10076, 130.00000, 4.33882, -28.57920
  10077, 130.00000, 5.34317, -27.38226
  10078, 130.00000, 6.34753, -26.18531
  10079, 130.00000, 7.35188, -24.98837
  10080, 130.00000, 8.35624, -23.79142
  10081, 130.00000, 0.25000, -33.31699
  10082, 130.00000, 1.03125, -31.96382
  10083, 130.00000, 1.81250, -30.61066
  10084, 130.00000, 2.59375, -29.25749
  10085, 130.00000, 3.37500, -27.90433
  10086, 130.00000, 4.15625, -26.55116
  10087, 130.00000, 4.93750, -25.19800
  10088, 130.00000, 5.71875, -23.84483
  10089, 130.00000, 6.50000, -22.49167
  10090, 130.00000, 0.17101, -33.28015
  10091, 130.00000, 0.70542, -31.81188
  10092, 130.00000, 1.23982, -30.34361
  10093, 130.00000, 1.77423, -28.87534
  10094, 130.00000, 2.30864, -27.40707
  10095, 130.00000, 2.84304, -25.93881
  10096, 130.00000, 3.37745, -24.47054
  10097, 130.00000, 3.91186, -23.00227
  10098, 130.00000, 4.44626, -21.53400
  10099, 130.00000, 0.08682, -33.25760
  10100, 130.00000, 0.35815, -31.71883
  10101, 130.00000, 0.62947, -30.18007
  10102, 130.00000, 0.90080, -28.64131
  10103, 130.00000, 1.17213, -27.10255
  10104, 130.00000, 1.44345, -25.56379
  10105, 130.00000, 1.71478, -24.02502
  10106, 130.00000, 1.98610, -22.48626
  10107, 130.00000, 2.25743, -20.94750
  10108, 130.00000, 0.00000, -33.25000
  10109, 130.00000, 0.00000, -31.68750
  10110, 130.00000, 0.00000, -30.12500
  10111, 130.00000, 0.00000, -28.56250
  10112, 130.00000, 0.00000, -27.00000
  10113, 130.00000, 0.00000, -25.43750
  10114, 130.00000, 0.00000, -23.87500
  10115, 130.00000, 0.00000, -22.31250
  10116, 130.00000, 0.00000, -20.75000
  10117, 130.00000, -0.08682, -33.25760
  10118, 130.00000, -0.35815, -31.71883
  10119, 130.00000, -0.62947, -30.18007
  10120, 130.00000, -0.90080, -28.64131
  10121, 130.00000, -1.17213, -27.10255
  10122, 130.00000, -1.44345, -25.56379
  10123, 130.00000, -1.71478, -24.02502
  10124, 130.00000, -1.98610, -22.48626
  10125, 130.00000, -2.25743, -20.94750
  10126, 130.00000, -0.17101, -33.28015
  10127, 130.00000, -0.70542, -31.81188
  10128, 130.00000, -1.23982, -30.34361
  10129, 130.00000, -1.77423, -28.87534
  10130, 130.00000, -2.30864, -27.40707
  10131, 130.00000, -2.84304, -25.93881
  10132, 130.00000, -3.37745, -24.47054
  10133, 130.00000, -3.91186, -23.00227
  10134, 130.00000, -4.44626, -21.53400
  10135, 130.00000, -0.25000, -33.31699
  10136, 130.00000, -1.03125, -31.96382
  10137, 130.00000, -1.81250, -30.61066
  10138, 130.00000, -2.59375, -29.25749
  10139, 130.00000, -3.37500, -27.90433
  10140, 130.00000, -4.15625, -26.55116
  10141, 130.00000, -4.93750, -25.19800
  10142, 130.00000, -5.71875, -23.84483
  10143, 130.00000, -6.50000, -22.49167
  10144, 130.00000, -0.32139, -33.36698
  10145, 130.00000, -1.32575, -32.17003
  10146, 130.00000, -2.33011, -30.97309
  10147, 130.00000, -3.33446, -29.77614
  10148, 130.00000, -4.33882, -28.57920
  10149, 130.00000, -5.34317, -27.38226
  10150, 130.00000, -6.34753, -26.18531
  10151, 130.00000, -7.35188, -24.98837
  10152, 130.00000, -8.35624, -23.79142
  10153, 130.00000, -0.38302, -33.42861
  10154, 130.00000, -1.57997, -32.42425
  10155, 130.00000, -2.77691, -31.41989
  10156, 130.00000, -3.97386, -30.41554
  10157, 130.00000, -5.17080, -29.41118
  10158, 130.00000, -6.36774, -28.40683
  10159, 130.00000, -7.56469, -27.40247
  10160, 130.00000, -8.76163, -26.39812
  10161, 130.00000, -9.95858, -25.39376
  10162, 130.00000, -0.43301, -33.50000
  10163, 130.00000, -1.78618, -32.71875
  10164, 130.00000, -3.13934, -31.93750
  10165, 130.00000, -4.49251, -31.15625
  10166, 130.00000, -5.84567, -30.37500
  10167, 130.00000, -7.19884, -29.59375
  10168, 130.00000, -8.55200, -28.81250
  10169, 130.00000, -9.90517, -28.03125
  10170, 130.00000, -11.25833, -27.25000
  10171, 130.00000, -0.46985, -33.57899
  10172, 130.00000, -1.93812, -33.04458
  10173, 130.00000, -3.40639, -32.51018
  10174, 130.00000, -4.87466, -31.97577
  10175, 130.00000, -6.34293, -31.44136
  10176, 130.00000, -7.81119, -30.90696
  10177, 130.00000, -9.27946, -30.37255
  10178, 130.00000, -10.74773, -29.83814
  10179, 130.00000, -12.21600, -29.30374
  10180, 130.00000, -0.49240, -33.66318
  10181, 130.00000, -2.03117, -33.39185
  10182, 130.00000, -3.56993, -33.12053
  10183, 130.00000, -5.10869, -32.84920
  10184, 130.00000, -6.64745, -32.57787
  10185, 130.00000, -8.18621, -32.30655
  10186, 130.00000, -9.72498, -32.03522
  10187, 130.00000, -11.26374, -31.76390
  10188, 130.00000, -12.80250, -31.49257
  10189, 130.00000, -0.50000, -33.75000
  10190, 130.00000, -2.06250, -33.75000
  10191, 130.00000, -3.62500, -33.75000
  10192, 130.00000, -5.18750, -33.75000
  10193, 130.00000, -6.75000, -33.75000
  10194, 130.00000, -8.31250, -33.75000
  10195, 130.00000, -9.87500, -33.75000
  10196, 130.00000, -11.43750, -33.75000
  10197, 130.00000, -13.00000, -33.75000
  10198, 130.00000, -0.49240, -33.83682
  10199, 130.00000, -2.03117, -34.10815
  10200, 130.00000, -3.56993, -34.37947
  10201, 130.00000, -5.10869, -34.65080
  10202, 130.00000, -6.64745, -34.92213
  10203, 130.00000, -8.18621, -35.19345
  10204, 130.00000, -9.72498, -35.46478
  10205, 130.00000, -11.26374, -35.73610
  10206, 130.00000, -12.80250, -36.00743
  10207, 130.00000, -0.46985, -33.92101
  10208, 130.00000, -1.93812, -34.45542
  10209, 130.00000, -3.40639, -34.98982
  10210, 130.00000, -4.87466, -35.52423
  10211, 130.00000, -6.34293, -36.05864
  10212, 130.00000, -7.81119, -36.59304
  10213, 130.00000, -9.27946, -37.12745
  10214, 130.00000, -10.74773, -37.66186
  10215, 130.00000, -12.21600, -38.19626
  10216, 130.00000, -0.43301, -34.00000
  10217, 130.00000, -1.78618, -34.78125
  10218, 130.00000, -3.13934, -35.56250
  10219, 130.00000, -4.49251, -36.34375
  10220, 130.00000, -5.84567, -37.12500
  10221, 130.00000, -7.19884, -37.90625
  10222, 130.00000, -8.55200, -38.68750
  10223, 130.00000, -9.90517, -39.46875
  10224, 130.00000, -11.25833, -40.25000
  10225, 130.00000, -0.38302, -34.07139
  10226, 130.00000, -1.57997, -35.07575
  10227, 130.00000, -2.77691, -36.08011
  10228, 130.00000, -3.97386, -37.08446
  10229, 130.00000, -5.17080, -38.08882
  10230, 130.00000, -6.36774, -39.09317
  10231, 130.00000, -7.56469, -40.09753
  10232, 130.00000, -8.76163, -41.10188
  10233, 130.00000, -9.95858, -42.10624
  10234, 130.00000, -0.32139, -34.13302
  10235, 130.00000, -1.32575, -35.32997
  10236, 130.00000, -2.33011, -36.52691
  10237, 130.00000, -3.33446, -37.72386
  10238, 130.00000, -4.33882, -38.92080
  10239, 130.00000, -5.34317, -40.11774
  10240, 130.00000, -6.34753, -41.31469
  10241, 130.00000, -7.35188, -42.51163
  10242, 130.00000, -8.35624, -43.70858
  10243, 130.00000, -0.25000, -34.18301
  10244, 130.00000, -1.03125, -35.53618
  10245, 130.00000, -1.81250, -36.88934
  10246, 130.00000, -2.59375, -38.24251
  10247, 130.00000, -3.37500, -39.59567
  10248, 130.00000, -4.15625, -40.94884
  10249, 130.00000, -4.93750, -42.30200
  10250, 130.00000, -5.71875, -43.65517
  10251, 130.00000, -6.50000, -45.00833
  10252, 130.00000, -0.17101, -34.21985
  10253, 130.00000, -0.70542, -35.68812
  10254, 130.00000, -1.23982, -37.15639
  10255, 130.00000, -1.77423, -38.62466
  10256, 130.00000, -2.30864, -40.09293
  10257, 130.00000, -2.84304, -41.56119
  10258, 130.00000, -3.37745, -43.02946
  10259, 130.00000, -3.91186, -44.49773
  10260, 130.00000, -4.44626, -45.96600
  10261, 130.00000, -0.08682, -34.24240
  10262, 130.00000, -0.35815, -35.78117
  10263, 130.00000, -0.62947, -37.31993
  10264, 130.00000, -0.90080, -38.85869
  10265, 130.00000, -1.17213, -40.39745
  10266, 130.00000, -1.44345, -41.93621
  10267, 130.00000, -1.71478, -43.47498
  10268, 130.00000, -1.98610, -45.01374
  10269, 130.00000, -2.25743, -46.55250
  10270, 130.00000, -0.00000, -34.25000
  10271, 130.00000, -0.00000, -35.81250
  10272, 130.00000, -0.00000, -37.37500
  10273, 130.00000, -0.00000, -38.93750
  10274, 130.00000, -0.00000, -40.50000
  10275, 130.00000, -0.00000, -42.06250
  10276, 130.00000, -0.00000, -43.62500
  10277, 130.00000, -0.00000, -45.18750
  10278, 130.00000, -0.00000, -46.75000
  10279, 130.00000, 0.08682, -34.24240
  10280, 130.00000, 0.35815, -35.78117
  10281, 130.00000, 0.62947, -37.31993
  10282, 130.00000, 0.90080, -38.85869
  10283, 130.00000, 1.17213, -40.39745
  10284, 130.00000, 1.44345, -41.93621
  10285, 130.00000, 1.71478, -43.47498
  10286, 130.00000, 1.98610, -45.01374
  10287, 130.00000, 2.25743, -46.55250
  10288, 130.00000, 0.17101, -34.21985
  10289, 130.00000, 0.70542, -35.68812
  10290, 130.00000, 1.23982, -37.15639
  10291, 130.00000, 1.77423, -38.62466
  10292, 130.00000, 2.30864, -40.09293
  10293, 130.00000, 2.84304, -41.56119
  10294, 130.00000, 3.37745, -43.02946
  10295, 130.00000, 3.91186, -44.49773
  10296, 130.00000, 4.44626, -45.96600
  10297, 130.00000, 0.25000, -34.18301
  10298, 130.00000, 1.03125, -35.53618
  10299, 130.00000, 1.81250, -36.88934
  10300, 130.00000, 2.59375, -38.24251
  10301, 130.00000, 3.37500, -39.59567
  10302, 130.00000, 4.15625, -40.94884
  10303, 130.00000, 4.93750, -42.30200
  10304, 130.00000, 5.71875, -43.65517
  10305, 130.00000, 6.50000, -45.00833
  10306, 130.00000, 0.32139, -34.13302
  10307, 130.00000, 1.32575, -35.32997
  10308, 130.00000, 2.33011, -36.52691
  10309, 130.00000, 3.33446, -37.72386
  10310, 130.00000, 4.33882, -38.92080
  10311, 130.00000, 5.34317, -40.11774
  10312, 130.00000, 6.34753, -41.31469
  10313, 130.00000, 7.35188, -42.51163
  10314, 130.00000, 8.35624, -43.70858
  10315, 130.00000, 0.38302, -34.07139
  10316, 130.00000, 1.57997, -35.07575
  10317, 130.00000, 2.77691, -36.08011
  10318, 130.00000, 3.97386, -37.08446
  10319, 130.00000, 5.17080, -38.08882
  10320, 130.00000, 6.36774, -39.09317
  10321, 130.00000, 7.56469, -40.09753
  10322, 130.00000, 8.76163, -41.10188
  10323, 130.00000, 9.95858, -42.10624
  10324, 130.00000, 0.43301, -34.00000
  10325, 130.00000, 1.78618, -34.78125
  10326, 130.00000, 3.13934, -35.56250
  10327, 130.00000, 4.49251, -36.34375
  10328, 130.00000, 5.84567, -37.12500
  10329, 130.00000, 7.19884, -37.90625
  10330, 130.00000, 8.55200, -38.68750
  10331, 130.00000, 9.90517, -39.46875
  10332, 130.00000, 11.25833, -40.25000
  10333, 130.00000, 0.46985, -33.92101
  10334, 130.00000, 1.93812, -34.45542
  10335, 130.00000, 3.40639, -34.98982
  10336, 130.00000, 4.87466, -35.52423
  10337, 130.00000, 6.34293, -36.05864
  10338, 130.00000, 7.81119, -36.59304
  10339, 130.00000, 9.27946, -37.12745
  10340, 130.00000, 10.74773, -37.66186
  10341, 130.00000, 12.21600, -38.19626
  10342, 130.00000, 0.49240, -33.83682
  10343, 130.00000, 2.03117, -34.10815
  10344, 130.00000, 3.56993, -34.37947
  10345, 130.00000, 5.10869, -34.65080
  10346, 130.00000, 6.64745, -34.92213
  10347, 130.00000, 8.18621, -35.19345
  10348, 130.00000, 9.72498, -35.46478
  10349, 130.00000, 11.26374, -35.73610
  10350, 130.00000, 12.80250, -36.00743
  10351, 130.00000, 0.50000, -33.75000
  10352, 130.00000, 2.06250, -33.75000
  10353, 130.00000, 3.62500, -33.75000
  10354, 130.00000, 5.18750, -33.75000
  10355, 130.00000, 6.75000, -33.75000
  10356, 130.00000, 8.31250, -33.75000
  10357, 130.00000, 9.87500, -33.75000
  10358, 130.00000, 11.43750, -33.75000
  10359, 130.00000, 13.00000, -33.75000
  10360, 135.00000, 0.50000, -33.75000
  10361, 135.00000, 2.06250, -33.75000
  10362, 135.00000, 3.62500, -33.75000
  10363, 135.00000, 5.18750, -33.75000
  10364, 135.00000, 6.75000, -33.75000
  10365, 135.00000, 8.31250, -33.75000
  10366, 135.00000, 9.87500, -33.75000
  10367, 135.00000, 11.43750, -33.75000
  10368, 135.00000, 13.00000, -33.75000
  10369, 135.00000, 0.49240, -33.66318
  10370, 135.00000, 2.03117, -33.39185
  10371, 135.00000, 3.56993, -33.12053
  10372, 135.00000, 5.10869, -32.84920
  10373, 135.00000, 6.64745, -32.57787
  10374, 135.00000, 8.18621, -32.30655
  10375, 135.00000, 9.72498, -32.03522
  10376, 135.00000, 11.26374, -31.76390
  10377, 135.00000, 12.80250, -31.49257
  10378, 135.00000, 0.46985, -33.57899
  10379, 135.00000, 1.93812, -33.04458
  10380, 135.00000, 3.40639, -32.51018
  10381, 135.00000, 4.87466, -31.97577
  10382, 135.00000, 6.34293, -31.44136
  10383, 135.00000, 7.81119, -30.90696
  10384, 135.00000, 9.27946, -30.37255
  10385, 135.00000, 10.74773, -29.83814
  10386, 135.00000, 12.21600, -29.30374
  10387, 135.00000, 0.43301, -33.50000
  10388, 135.00000, 1.78618, -32.71875
  10389, 135.00000, 3.13934, -31.93750
  10390, 135.00000, 4.49251, -31.15625
  10391, 135.00000, 5.84567, -30.37500
  10392, 135.00000, 7.19884, -29.59375
  10393, 135.00000, 8.55200, -28.81250
  10394, 135.00000, 9.90517, -28.03125
  10395, 135.00000, 11.25833, -27.25000
  10396, 135.00000, 0.38302, -33.42861
  10397, 135.00000, 1.57997, -32.42425
  10398, 135.00000, 2.77691, -31.41989
  10399, 135.00000, 3.97386, -30.41554
  10400, 135.00000, 5.17080, -29.41118
  10401, 135.00000, 6.36774, -28.40683
  10402, 135.00000, 7.56469, -27.40247
  10403, 135.00000, 8.76163, -26.39812
  10404, 135.00000, 9.95858, -25.39376
  10405, 135.00000, 0.32139, -33.36698
  10406, 135.00000, 1.32575, -32.17003
  10407, 135.00000, 2.33011, -30.97309
  10408, 135.00000, 3.33446, -29.77614
  10409, 135.00000, 4.33882, -28.57920
  10410, 135.00000, 5.34317, -27.38226
  10411, 135.00000, 6.34753, -26.18531
  10412, 135.00000, 7.35188, -24.98837
  10413, 135.00000, 8.35624, -23.79142
  10414, 135.00000, 0.25000, -33.31699
  10415, 135.00000, 1.03125, -31.96382
  10416, 135.00000, 1.81250, -30.61066
  10417, 135.00000, 2.59375, -29.25749
  10418, 135.00000, 3.37500, -27.90433
  10419, 135.00000, 4.15625, -26.55116
  10420, 135.00000, 4.93750, -25.19800
  10421, 135.00000, 5.71875, -23.84483
  10422, 135.00000, 6.50000, -22.49167
  10423, 135.00000, 0.17101, -33.28015
  10424, 135.00000, 0.70542, -31.81188
  10425, 135.00000, 1.23982, -30.34361
  10426, 135.00000, 1.77423, -28.87534
  10427, 135.00000, 2.30864, -27.40707
  10428, 135.00000, 2.84304, -25.93881
  10429, 135.00000, 3.37745, -24.47054
  10430, 135.00000, 3.91186, -23.00227
  10431, 135.00000, 4.44626, -21.53400
  10432, 135.00000, 0.08682, -33.25760
  10433, 135.00000, 0.35815, -31.71883
  10434, 135.00000, 0.62947, -30.18007
  10435, 135.00000, 0.90080, -28.64131
  10436, 135.00000, 1.17213, -27.10255
  10437, 135.00000, 1.44345, -25.56379
  10438, 135.00000, 1.71478, -24.02502
  10439, 135.00000, 1.98610, -22.48626
  10440, 135.00000, 2.25743, -20.94750
  10441, 135.00000, 0.00000, -33.25000
  10442, 135.00000, 0.00000, -31.68750
  10443, 135.00000, 0.00000, -30.12500
  10444, 135.00000, 0.00000, -28.56250
  10445, 135.00000, 0.00000, -27.00000
  10446, 135.00000, 0.00000, -25.43750
  10447, 135.00000, 0.00000, -23.87500
  10448, 135.00000, 0.00000, -22.31250
  10449, 135.00000, 0.00000, -20.75000
  10450, 135.00000, -0.08682, -33.25760
  10451, 135.00000, -0.35815, -31.71883
  10452, 135.00000, -0.62947, -30.18007
  10453, 135.00000, -0.90080, -28.64131
  10454, 135.00000, -1.17213, -27.10255
  10455, 135.00000, -1.44345, -25.56379
  10456, 135.00000, -1.71478, -24.02502
  10457, 135.00000, -1.98610, -22.48626
  10458, 135.00000, -2.25743, -20.94750
  10459, 135.00000, -0.17101, -33.28015
  10460, 135.00000, -0.70542, -31.81188
  10461, 135.00000, -1.23982, -30.34361
  10462, 135.00000, -1.77423, -28.87534
  10463, 135.00000, -2.30864, -27.40707
  10464, 135.00000, -2.84304, -25.93881
  10465, 135.00000, -3.37745, -24.47054
  10466, 135.00000, -3.91186, -23.00227
  10467, 135.00000, -4.44626, -21.53400
  10468, 135.00000, -0.25000, -33.31699
  10469, 135.00000, -1.03125, -31.96382
  10470, 135.00000, -1.81250, -30.61066
  10471, 135.00000, -2.59375, -29.25749
  10472, 135.00000, -3.37500, -27.90433
  10473, 135.00000, -4.15625, -26.55116
  10474, 135.00000, -4.93750, -25.19800
  10475, 135.00000, -5.71875, -23.84483
  10476, 135.00000, -6.50000, -22.49167
  10477, 135.00000, -0.32139, -33.36698
  10478, 135.00000, -1.32575, -32.17003
  10479, 135.00000, -2.33011, -30.97309
  10480, 135.00000, -3.33446, -29.77614
  10481, 135.00000, -4.33882, -28.57920
  10482, 135.00000, -5.34317, -27.38226
  10483, 135.00000, -6.34753, -26.18531
  10484, 135.00000, -7.35188, -24.98837
  10485, 135.00000, -8.35624, -23.79142
  10486, 135.00000, -0.38302, -33.42861
  10487, 135.00000, -1.57997, -32.42425
  10488, 135.00000, -2.77691, -31.41989
  10489, 135.00000, -3.97386, -30.41554
  10490, 135.00000, -5.17080, -29.41118
  10491, 135.00000, -6.36774, -28.40683
  10492, 135.00000, -7.56469, -27.40247
  10493, 135.00000, -8.76163, -26.39812
  10494, 135.00000, -9.95858, -25.39376
  10495, 135.00000, -0.43301, -33.50000
  10496, 135.00000, -1.78618, -32.71875
  10497, 135.00000, -3.13934, -31.93750
  10498, 135.00000, -4.49251, -31.15625
  10499, 135.00000, -5.84567, -30.37500
  10500, 135.00000, -7.19884, -29.59375
  10501, 135.00000, -8.55200, -28.81250
  10502, 135.00000, -9.90517, -28.03125
  10503, 135.00000, -11.25833, -27.25000
  10504, 135.00000, -0.46985, -33.57899
  10505, 135.00000, -1.93812, -33.04458
  10506, 135.00000, -3.40639, -32.51018
  10507, 135.00000, -4.87466, -31.97577
  10508, 135.00000, -6.34293, -31.44136
  10509, 135.00000, -7.81119, -30.90696
  10510, 135.00000, -9.27946, -30.37255
  10511, 135.00000, -10.74773, -29.83814
  10512, 135.00000, -12.21600, -29.30374
  10513, 135.00000, -0.49240, -33.66318
  10514, 135.00000, -2.03117, -33.39185
  10515, 135.00000, -3.56993, -33.12053
  10516, 135.00000, -5.10869, -32.84920
  10517, 135.00000, -6.64745, -32.57787
  10518, 135.00000, -8.18621, -32.30655
  10519, 135.00000, -9.72498, -32.03522
  10520, 135.00000, -11.26374, -31.76390
  10521, 135.00000, -12.80250, -31.49257
  10522, 135.00000, -0.50000, -33.75000
  10523, 135.00000, -2.06250, -33.75000
  10524, 135.00000, -3.62500, -33.75000
  10525, 135.00000, -5.18750, -33.75000
  10526, 135.00000, -6.75000, -33.75000
  10527, 135.00000, -8.31250, -33.75000
  10528, 135.00000, -9.87500, -33.75000
  10529, 135.00000, -11.43750, -33.75000
  10530, 135.00000, -13.00000, -33.75000
  10531, 135.00000, -0.49240, -33.83682
  10532, 135.00000, -2.03117, -34.10815
  10533, 135.00000, -3.56993, -34.37947
  10534, 135.00000, -5.10869, -34.65080
  10535, 135.00000, -6.64745, -34.92213
  10536, 135.00000, -8.18621, -35.19345
  10537, 135.00000, -9.72498, -35.46478
  10538, 135.00000, -11.26374, -35.73610
  10539, 135.00000, -12.80250, -36.00743
  10540, 135.00000, -0.46985, -33.92101
  10541, 135.00000, -1.93812, -34.45542
  10542, 135.00000, -3.40639, -34.98982
  10543, 135.00000, -4.87466, -35.52423
  10544, 135.00000, -6.34293, -36.05864
  10545, 135.00000, -7.81119, -36.59304
  10546, 135.00000, -9.27946, -37.12745
  10547, 135.00000, -10.74773, -37.66186
  10548, 135.00000, -12.21600, -38.19626
  10549, 135.00000, -0.43301, -34.00000
  10550, 135.00000, -1.78618, -34.78125
  10551, 135.00000, -3.13934, -35.56250
  10552, 135.00000, -4.49251, -36.34375
  10553, 135.00000, -5.84567, -37.12500
  10554, 135.00000, -7.19884, -37.90625
  10555, 135.00000, -8.55200, -38.68750
  10556, 135.00000, -9.90517, -39.46875
  10557, 135.00000, -11.25833, -40.25000
  10558, 135.00000, -0.38302, -34.07139
  10559, 135.00000, -1.57997, -35.07575
  10560, 135.00000, -2.77691, -36.08011
  10561, 135.00000, -3.97386, -37.08446
  10562, 135.00000, -5.17080, -38.08882
  10563, 135.00000, -6.36774, -39.09317
  10564, 135.00000, -7.56469, -40.09753
  10565, 135.00000, -8.76163, -41.10188
  10566, 135.00000, -9.95858, -42.10624
  10567, 135.00000, -0.32139, -34.13302
  10568, 135.00000, -1.32575, -35.32997
  10569, 135.00000, -2.33011, -36.52691
  10570, 135.00000, -3.33446, -37.72386
  10571, 135.00000, -4.33882, -38.92080
  10572, 135.00000, -5.34317, -40.11774
  10573, 135.00000, -6.34753, -41.31469
  10574, 135.00000, -7.35188, -42.51163
  10575, 135.00000, -8.35624, -43.70858
  10576, 135.00000, -0.25000, -34.18301
  10577, 135.00000, -1.03125, -35.53618
  10578, 135.00000, -1.81250, -36.88934
  10579, 135.00000, -2.59375, -38.24251
  10580, 135.00000, -3.37500, -39.59567
  10581, 135.00000, -4.15625, -40.94884
  10582, 135.00000, -4.93750, -42.30200
  10583, 135.00000, -5.71875, -43.65517
  10584, 135.00000, -6.50000, -45.00833
  10585, 135.00000, -0.17101, -34.21985
  10586, 135.00000, -0.70542, -35.68812
  10587, 135.00000, -1.23982, -37.15639
  10588, 135.00000, -1.77423, -38.62466
  10589, 135.00000, -2.30864, -40.09293
  10590, 135.00000, -2.84304, -41.56119
  10591, 135.00000, -3.37745, -43.02946
  10592, 135.00000, -3.91186, -44.49773
  10593, 135.00000, -4.44626, -45.96600
  10594, 135.00000, -0.08682, -34.24240
  10595, 135.00000, -0.35815, -35.78117
  10596, 135.00000, -0.62947, -37.31993
  10597, 135.00000, -0.90080, -38.85869
  10598, 135.00000, -1.17213, -40.39745
  10599, 135.00000, -1.44345, -41.93621
  10600, 135.00000, -1.71478, -43.47498
  10601, 135.00000, -1.98610, -45.01374
  10602, 135.00000, -2.25743, -46.55250
  10603, 135.00000, -0.00000, -34.25000
  10604, 135.00000, -0.00000, -35.81250
  10605, 135.00000, -0.00000, -37.37500
  10606, 135.00000, -0.00000, -38.93750
  10607, 135.00000, -0.00000, -40.50000
  10608, 135.00000, -0.00000, -42.06250
  10609, 135.00000, -0.00000, -43.62500
  10610, 135.00000, -0.00000, -45.18750
  10611, 135.00000, -0.00000, -46.75000
  10612, 135.00000, 0.08682, -34.24240
  10613, 135.00000, 0.35815, -35.78117
  10614, 135.00000, 0.62947, -37.31993
  10615, 135.00000, 0.90080, -38.85869
  10616, 135.00000, 1.17213, -40.39745
  10617, 135.00000, 1.44345, -41.93621
  10618, 135.00000, 1.71478, -43.47498
  10619, 135.00000, 1.98610, -45.01374
  10620, 135.00000, 2.25743, -46.55250
  10621, 135.00000, 0.17101, -34.21985
  10622, 135.00000, 0.70542, -35.68812
  10623, 135.00000, 1.23982, -37.15639
  10624, 135.00000, 1.77423, -38.62466
  10625, 135.00000, 2.30864, -40.09293
  10626, 135.00000, 2.84304, -41.56119
  10627, 135.00000, 3.37745, -43.02946
  10628, 135.00000, 3.91186, -44.49773
  10629, 135.00000, 4.44626, -45.96600
  10630, 135.00000, 0.25000, -34.18301
  10631, 135.00000, 1.03125, -35.53618
  10632, 135.00000, 1.81250, -36.88934
  10633, 135.00000, 2.59375, -38.24251
  10634, 135.00000, 3.37500, -39.59567
  10635, 135.00000, 4.15625, -40.94884
  10636, 135.00000, 4.93750, -42.30200
  10637, 135.00000, 5.71875, -43.65517
  10638, 135.00000, 6.50000, -45.00833
  10639, 135.00000, 0.32139, -34.13302
  10640, 135.00000, 1.32575, -35.32997
  10641, 135.00000, 2.33011, -36.52691
  10642, 135.00000, 3.33446, -37.72386
  10643, 135.00000, 4.33882, -38.92080
  10644, 135.00000, 5.34317, -40.11774
  10645, 135.00000, 6.34753, -41.31469
  10646, 135.00000, 7.35188, -42.51163
  10647, 135.00000, 8.35624, -43.70858
  10648, 135.00000, 0.38302, -34.07139
  10649, 135.00000, 1.57997, -35.07575
  10650, 135.00000, 2.77691, -36.08011
  10651, 135.00000, 3.97386, -37.08446
  10652, 135.00000, 5.17080, -38.08882
  10653, 135.00000, 6.36774, -39.09317
  10654, 135.00000, 7.56469, -40.09753
  10655, 135.00000, 8.76163, -41.10188
  10656, 135.00000, 9.95858, -42.10624
  10657, 135.00000, 0.43301, -34.00000
  10658, 135.00000, 1.78618, -34.78125
  10659, 135.00000, 3.13934, -35.56250
  10660, 135.00000, 4.49251, -36.34375
  10661, 135.00000, 5.84567, -37.12500
  10662, 135.00000, 7.19884, -37.90625
  10663, 135.00000, 8.55200, -38.68750
  10664, 135.00000, 9.90517, -39.46875
  10665, 135.00000, 11.25833, -40.25000
  10666, 135.00000, 0.46985, -33.92101
  10667, 135.00000, 1.93812, -34.45542
  10668, 135.00000, 3.40639, -34.98982
  10669, 135.00000, 4.87466, -35.52423
  10670, 135.00000, 6.34293, -36.05864
  10671, 135.00000, 7.81119, -36.59304
  10672, 135.00000, 9.27946, -37.12745
  10673, 135.00000, 10.74773, -37.66186
  10674, 135.00000, 12.21600, -38.19626
  10675, 135.00000, 0.49240, -33.83682
  10676, 135.00000, 2.03117, -34.10815
  10677, 135.00000, 3.56993, -34.37947
  10678, 135.00000, 5.10869, -34.65080
  10679, 135.00000, 6.64745, -34.92213
  10680, 135.00000, 8.18621, -35.19345
  10681, 135.00000, 9.72498, -35.46478
  10682, 135.00000, 11.26374, -35.73610
  10683, 135.00000, 12.80250, -36.00743
  10684, 135.00000, 0.50000, -33.75000
  10685, 135.00000, 2.06250, -33.75000
  10686, 135.00000, 3.62500, -33.75000
  10687, 135.00000, 5.18750, -33.75000
  10688, 135.00000, 6.75000, -33.75000
  10689, 135.00000, 8.31250, -33.75000
  10690, 135.00000, 9.87500, -33.75000
  10691, 135.00000, 11.43750, -33.75000
  10692, 135.00000, 13.00000, -33.75000
  10693, 140.00000, 0.50000, -33.75000
  10694, 140.00000, 2.06250, -33.75000
  10695, 140.00000, 3.62500, -33.75000
  10696, 140.00000, 5.18750, -33.75000
  10697, 140.00000, 6.75000, -33.75000
  10698, 140.00000, 8.31250, -33.75000
  10699, 140.00000, 9.87500, -33.75000
  10700, 140.00000, 11.43750, -33.75000
  10701, 140.00000, 13.00000, -33.75000
  10702, 140.00000, 0.49240, -33.66318
  10703, 140.00000, 2.03117, -33.39185
  10704, 140.00000, 3.56993, -33.12053
  10705, 140.00000, 5.10869, -32.84920
  10706, 140.00000, 6.64745, -32.57787
  10707, 140.00000, 8.18621, -32.30655
  10708, 140.00000, 9.72498, -32.03522
  10709, 140.00000, 11.26374, -31.76390
  10710, 140.00000, 12.80250, -31.49257
  10711, 140.00000, 0.46985, -33.57899
  10712, 140.00000, 1.93812, -33.04458
  10713, 140.00000, 3.40639, -32.51018
  10714, 140.00000, 4.87466, -31.97577
  10715, 140.00000, 6.34293, -31.44136
  10716, 140.00000, 7.81119, -30.90696
  10717, 140.00000, 9.27946, -30.37255
  10718, 140.00000, 10.74773, -29.83814
  10719, 140.00000, 12.21600, -29.30374
  10720, 140.00000, 0.43301, -33.50000
  10721, 140.00000, 1.78618, -32.71875
  10722, 140.00000, 3.13934, -31.93750
  10723, 140.00000, 4.49251, -31.15625
  10724, 140.00000, 5.84567, -30.37500
  10725, 140.00000, 7.19884, -29.59375
  10726, 140.00000, 8.55200, -28.81250
  10727, 140.00000, 9.90517, -28.03125
  10728, 140.00000, 11.25833, -27.25000
  10729, 140.00000, 0.38302, -33.42861
  10730, 140.00000, 1.57997, -32.42425
  10731, 140.00000, 2.77691, -31.41989
  10732, 140.00000, 3.97386, -30.41554
  10733, 140.00000, 5.17080, -29.41118
  10734, 140.00000, 6.36774, -28.40683
  10735, 140.00000, 7.56469, -27.40247
  10736, 140.00000, 8.76163, -26.39812
  10737, 140.00000, 9.95858, -25.39376
  10738, 140.00000, 0.32139, -33.36698
  10739, 140.00000, 1.32575, -32.17003
  10740, 140.00000, 2.33011, -30.97309
  10741, 140.00000, 3.33446, -29.77614
  10742, 140.00000, 4.33882, -28.57920
  10743, 140.00000, 5.34317, -27.38226
  10744, 140.00000, 6.34753, -26.18531
  10745, 140.00000, 7.35188, -24.98837
  10746, 140.00000, 8.35624, -23.79142
  10747, 140.00000, 0.25000, -33.31699
  10748, 140.00000, 1.03125, -31.96382
  10749, 140.00000, 1.81250, -30.61066
  10750, 140.00000, 2.59375, -29.25749
  10751, 140.00000, 3.37500, -27.90433
  10752, 140.00000, 4.15625, -26.55116
  10753, 140.00000, 4.93750, -25.19800
  10754, 140.00000, 5.71875, -23.84483
  10755, 140.00000, 6.50000, -22.49167
  10756, 140.00000, 0.17101, -33.28015
  10757, 140.00000, 0.70542, -31.81188
  10758, 140.00000, 1.23982, -30.34361
  10759, 140.00000, 1.77423, -28.87534
  10760, 140.00000, 2.30864, -27.40707
  10761, 140.00000, 2.84304, -25.93881
  10762, 140.00000, 3.37745, -24.47054
  10763, 140.00000, 3.91186, -23.00227
  10764, 140.00000, 4.44626, -21.53400
  10765, 140.00000, 0.08682, -33.25760
  10766, 140.00000, 0.35815, -31.71883
  10767, 140.00000, 0.62947, -30.18007
  10768, 140.00000, 0.90080, -28.64131
  10769, 140.00000, 1.17213, -27.10255
  10770, 140.00000, 1.44345, -25.56379
  10771, 140.00000, 1.71478, -24.02502
  10772, 140.00000, 1.98610, -22.48626
  10773, 140.00000, 2.25743, -20.94750
  10774, 140.00000, 0.00000, -33.25000
  10775, 140.00000, 0.00000, -31.68750
  10776, 140.00000, 0.00000, -30.12500
  10777, 140.00000, 0.00000, -28.56250
  10778, 140.00000, 0.00000, -27.00000
  10779, 140.00000, 0.00000, -25.43750
  10780, 140.00000, 0.00000, -23.87500
  10781, 140.00000, 0.00000, -22.31250
  10782, 140.00000, 0.00000, -20.75000
  10783, 140.00000, -0.08682, -33.25760
  10784, 140.00000, -0.35815, -31.71883
  10785, 140.00000, -0.62947, -30.18007
  10786, 140.00000, -0.90080, -28.64131
  10787, 140.00000, -1.17213, -27.10255
  10788, 140.00000, -1.44345, -25.56379
  10789, 140.00000, -1.71478, -24.02502
  10790, 140.00000, -1.98610, -22.48626
  10791, 140.00000, -2.25743, -20.94750
  10792, 140.00000, -0.17101, -33.28015
  10793, 140.00000, -0.70542, -31.81188
  10794, 140.00000, -1.23982, -30.34361
  10795, 140.00000, -1.77423, -28.87534
  10796, 140.00000, -2.30864, -27.40707
  10797, 140.00000, -2.84304, -25.93881
  10798, 140.00000, -3.37745, -24.47054
  10799, 140.00000, -3.91186, -23.00227
  10800, 140.00000, -4.44626, -21.53400
  10801, 140.00000, -0.25000, -33.31699
  10802, 140.00000, -1.03125, -31.96382
  10803, 140.00000, -1.81250, -30.61066
  10804, 140.00000, -2.59375, -29.25749
  10805, 140.00000, -3.37500, -27.90433
  10806, 140.00000, -4.15625, -26.55116
  10807, 140.00000, -4.93750, -25.19800
  10808, 140.00000, -5.71875, -23.84483
  10809, 140.00000, -6.50000, -22.49167
  10810, 140.00000, -0.32139, -33.36698
  10811, 140.00000, -1.32575, -32.17003
  10812, 140.00000, -2.33011, -30.97309
  10813, 140.00000, -3.33446, -29.77614
  10814, 140.00000, -4.33882, -28.57920
  10815, 140.00000, -5.34317, -27.38226
  10816, 140.00000, -6.34753, -26.18531
  10817, 140.00000, -7.35188, -24.98837
  10818, 140.00000, -8.35624, -23.79142
  10819, 140.00000, -0.38302, -33.42861
  10820, 140.00000, -1.57997, -32.42425
  10821, 140.00000, -2.77691, -31.41989
  10822, 140.00000, -3.97386, -30.41554
  10823, 140.00000, -5.17080, -29.41118
  10824, 140.00000, -6.36774, -28.40683
  10825, 140.00000, -7.56469, -27.40247
  10826, 140.00000, -8.76163, -26.39812
  10827, 140.00000, -9.95858, -25.39376
  10828, 140.00000, -0.43301, -33.50000
  10829, 140.00000, -1.78618, -32.71875
  10830, 140.00000, -3.13934, -31.93750
  10831, 140.00000, -4.49251, -31.15625
  10832, 140.00000, -5.84567, -30.37500
  10833, 140.00000, -7.19884, -29.59375
  10834, 140.00000, -8.55200, -28.81250
  10835, 140.00000, -9.90517, -28.03125
  10836, 140.00000, -11.25833, -27.25000
  10837, 140.00000, -0.46985, -33.57899
  10838, 140.00000, -1.93812, -33.04458
  10839, 140.00000, -3.40639, -32.51018
  10840, 140.00000, -4.87466, -31.97577
  10841, 140.00000, -6.34293, -31.44136
  10842, 140.00000, -7.81119, -30.90696
  10843, 140.00000, -9.27946, -30.37255
  10844, 140.00000, -10.74773, -29.83814
  10845, 140.00000, -12.21600, -29.30374
  10846, 140.00000, -0.49240, -33.66318
  10847, 140.00000, -2.03117, -33.39185
  10848, 140.00000, -3.56993, -33.12053
  10849, 140.00000, -5.10869, -32.84920
  10850, 140.00000, -6.64745, -32.57787
  10851, 140.00000, -8.18621, -32.30655
  10852, 140.00000, -9.72498, -32.03522
  10853, 140.00000, -11.26374, -31.76390
  10854, 140.00000, -12.80250, -31.49257
  10855, 140.00000, -0.50000, -33.75000
  10856, 140.00000, -2.06250, -33.75000
  10857, 140.00000, -3.62500, -33.75000
  10858, 140.00000, -5.18750, -33.75000
  10859, 140.00000, -6.75000, -33.75000
  10860, 140.00000, -8.31250, -33.75000
  10861, 140.00000, -9.87500, -33.75000
  10862, 140.00000, -11.43750, -33.75000
  10863, 140.00000, -13.00000, -33.75000
  10864, 140.00000, -0.49240, -33.83682
  10865, 140.00000, -2.03117, -34.10815
  10866, 140.00000, -3.56993, -34.37947
  10867, 140.00000, -5.10869, -34.65080
  10868, 140.00000, -6.64745, -34.92213
  10869, 140.00000, -8.18621, -35.19345
  10870, 140.00000, -9.72498, -35.46478
  10871, 140.00000, -11.26374, -35.73610
  10872, 140.00000, -12.80250, -36.00743
  10873, 140.00000, -0.46985, -33.92101
  10874, 140.00000, -1.93812, -34.45542
  10875, 140.00000, -3.40639, -34.98982
  10876, 140.00000, -4.87466, -35.52423
  10877, 140.00000, -6.34293, -36.05864
  10878, 140.00000, -7.81119, -36.59304
  10879, 140.00000, -9.27946, -37.12745
  10880, 140.00000, -10.74773, -37.66186
  10881, 140.00000, -12.21600, -38.19626
  10882, 140.00000, -0.43301, -34.00000
  10883, 140.00000, -1.78618, -34.78125
  10884, 140.00000, -3.13934, -35.56250
  10885, 140.00000, -4.49251, -36.34375
  10886, 140.00000, -5.84567, -37.12500
  10887, 140.00000, -7.19884, -37.90625
  10888, 140.00000, -8.55200, -38.68750
  10889, 140.00000, -9.90517, -39.46875
  10890, 140.00000, -11.25833, -40.25000
  10891, 140.00000, -0.38302, -34.07139
  10892, 140.00000, -1.57997, -35.07575
  10893, 140.00000, -2.77691, -36.08011
  10894, 140.00000, -3.97386, -37.08446
  10895, 140.00000, -5.17080, -38.08882
  10896, 140.00000, -6.36774, -39.09317
  10897, 140.00000, -7.56469, -40.09753
  10898, 140.00000, -8.76163, -41.10188
  10899, 140.00000, -9.95858, -42.10624
  10900, 140.00000, -0.32139, -34.13302
  10901, 140.00000, -1.32575, -35.32997
  10902, 140.00000, -2.33011, -36.52691
  10903, 140.00000, -3.33446, -37.72386
  10904, 140.00000, -4.33882, -38.92080
  10905, 140.00000, -5.34317, -40.11774
  10906, 140.00000, -6.34753, -41.31469
  10907, 140.00000, -7.35188, -42.51163
  10908, 140.00000, -8.35624, -43.70858
  10909, 140.00000, -0.25000, -34.18301
  10910, 140.00000, -1.03125, -35.53618
  10911, 140.00000, -1.81250, -36.88934
  10912, 140.00000, -2.59375, -38.24251
  10913, 140.00000, -3.37500, -39.59567
  10914, 140.00000, -4.15625, -40.94884
  10915, 140.00000, -4.93750, -42.30200
  10916, 140.00000, -5.71875, -43.65517
  10917, 140.00000, -6.50000, -45.00833
  10918, 140.00000, -0.17101, -34.21985
  10919, 140.00000, -0.70542, -35.68812
  10920, 140.00000, -1.23982, -37.15639
  10921, 140.00000, -1.77423, -38.62466
  10922, 140.00000, -2.30864, -40.09293
  10923, 140.00000, -2.84304, -41.56119
  10924, 140.00000, -3.37745, -43.02946
  10925, 140.00000, -3.91186, -44.49773
  10926, 140.00000, -4.44626, -45.96600
  10927, 140.00000, -0.08682, -34.24240
  10928, 140.00000, -0.35815, -35.78117
  10929, 140.00000, -0.62947, -37.31993
  10930, 140.00000, -0.90080, -38.85869
  10931, 140.00000, -1.17213, -40.39745
  10932, 140.00000, -1.44345, -41.93621
  10933, 140.00000, -1.71478, -43.47498
  10934, 140.00000, -1.98610, -45.01374
  10935, 140.00000, -2.25743, -46.55250
  10936, 140.00000, -0.00000, -34.25000
  10937, 140.00000, -0.00000, -35.81250
  10938, 140.00000, -0.00000, -37.37500
  10939, 140.00000, -0.00000, -38.93750
  10940, 140.00000, -0.00000, -40.50000
  10941, 140.00000, -0.00000, -42.06250
  10942, 140.00000, -0.00000, -43.62500
  10943, 140.00000, -0.00000, -45.18750
  10944, 140.00000, -0.00000, -46.75000
  10945, 140.00000, 0.08682, -34.24240
  10946, 140.00000, 0.35815, -35.78117
  10947, 140.00000, 0.62947, -37.31993
  10948, 140.00000, 0.90080, -38.85869
  10949, 140.00000, 1.17213, -40.39745
  10950, 140.00000, 1.44345, -41.93621
  10951, 140.00000, 1.71478, -43.47498
  10952, 140.00000, 1.98610, -45.01374
  10953, 140.00000, 2.25743, -46.55250
  10954, 140.00000, 0.17101, -34.21985
  10955, 140.00000, 0.70542, -35.68812
  10956, 140.00000, 1.23982, -37.15639
  10957, 140.00000, 1.77423, -38.62466
  10958, 140.00000, 2.30864, -40.09293
  10959, 140.00000, 2.84304, -41.56119
  10960, 140.00000, 3.37745, -43.02946
  10961, 140.00000, 3.91186, -44.49773
  10962, 140.00000, 4.44626, -45.96600
  10963, 140.00000, 0.25000, -34.18301
  10964, 140.00000, 1.03125, -35.53618
  10965, 140.00000, 1.81250, -36.88934
  10966, 140.00000, 2.59375, -38.24251
  10967, 140.00000, 3.37500, -39.59567
  10968, 140.00000, 4.15625, -40.94884
  10969, 140.00000, 4.93750, -42.30200
  10970, 140.00000, 5.71875, -43.65517
  10971, 140.00000, 6.50000, -45.00833
  10972, 140.00000, 0.32139, -34.13302
  10973, 140.00000, 1.32575, -35.32997
  10974, 140.00000, 2.33011, -36.52691
  10975, 140.00000, 3.33446, -37.72386
  10976, 140.00000, 4.33882, -38.92080
  10977, 140.00000, 5.34317, -40.11774
  10978, 140.00000, 6.34753, -41.31469
  10979, 140.00000, 7.35188, -42.51163
  10980, 140.00000, 8.35624, -43.70858
  10981, 140.00000, 0.38302, -34.07139
  10982, 140.00000, 1.57997, -35.07575
  10983, 140.00000, 2.77691, -36.08011
  10984, 140.00000, 3.97386, -37.08446
  10985, 140.00000, 5.17080, -38.08882
  10986, 140.00000, 6.36774, -39.09317
  10987, 140.00000, 7.56469, -40.09753
  10988, 140.00000, 8.76163, -41.10188
  10989, 140.00000, 9.95858, -42.10624
  10990, 140.00000, 0.43301, -34.00000
  10991, 140.00000, 1.78618, -34.78125
  10992, 140.00000, 3.13934, -35.56250
  10993, 140.00000, 4.49251, -36.34375
  10994, 140.00000, 5.84567, -37.12500
  10995, 140.00000, 7.19884, -37.90625
  10996, 140.00000, 8.55200, -38.68750
  10997, 140.00000, 9.90517, -39.46875
  10998, 140.00000, 11.25833, -40.25000
  10999, 140.00000, 0.46985, -33.92101
  11000, 140.00000, 1.93812, -34.45542
  11001, 140.00000, 3.40639, -34.98982
  11002, 140.00000, 4.87466, -35.52423
  11003, 140.00000, 6.34293, -36.05864
  11004, 140.00000, 7.81119, -36.59304
  11005, 140.00000, 9.27946, -37.12745
  11006, 140.00000, 10.74773, -37.66186
  11007, 140.00000, 12.21600, -38.19626
  11008, 140.00000, 0.49240, -33.83682
  11009, 140.00000, 2.03117, -34.10815
  11010, 140.00000, 3.56993, -34.37947
  11011, 140.00000, 5.10869, -34.65080
  11012, 140.00000, 6.64745, -34.92213
  11013, 140.00000, 8.18621, -35.19345
  11014, 140.00000, 9.72498, -35.46478
  11015, 140.00000, 11.26374, -35.73610
  11016, 140.00000, 12.80250, -36.00743
  11017, 140.00000, 0.50000, -33.75000
  11018, 140.00000, 2.06250, -33.75000
  11019, 140.00000, 3.62500, -33.75000
  11020, 140.00000, 5.18750, -33.75000
  11021, 140.00000, 6.75000, -33.75000
  11022, 140.00000, 8.31250, -33.75000
  11023, 140.00000, 9.87500, -33.75000
  11024, 140.00000, 11.43750, -33.75000
  11025, 140.00000, 13.00000, -33.75000
  11026, 145.00000, 0.50000, -33.75000
  11027, 145.00000, 2.06250, -33.75000
  11028, 145.00000, 3.62500, -33.75000
  11029, 145.00000, 5.18750, -33.75000
  11030, 145.00000, 6.75000, -33.75000
  11031, 145.00000, 8.31250, -33.75000
  11032, 145.00000, 9.87500, -33.75000
  11033, 145.00000, 11.43750, -33.75000
  11034, 145.00000, 13.00000, -33.75000
  11035, 145.00000, 0.49240, -33.66318
  11036, 145.00000, 2.03117, -33.39185
  11037, 145.00000, 3.56993, -33.12053
  11038, 145.00000, 5.10869, -32.84920
  11039, 145.00000, 6.64745, -32.57787
  11040, 145.00000, 8.18621, -32.30655
  11041, 145.00000, 9.72498, -32.03522
  11042, 145.00000, 11.26374, -31.76390
  11043, 145.00000, 12.80250, -31.49257
  11044, 145.00000, 0.46985, -33.57899
  11045, 145.00000, 1.93812, -33.04458
  11046, 145.00000, 3.40639, -32.51018
  11047, 145.00000, 4.87466, -31.97577
  11048, 145.00000, 6.34293, -31.44136
  11049, 145.00000, 7.81119, -30.90696
  11050, 145.00000, 9.27946, -30.37255
  11051, 145.00000, 10.74773, -29.83814
  11052, 145.00000, 12.21600, -29.30374
  11053, 145.00000, 0.43301, -33.50000
  11054, 145.00000, 1.78618, -32.71875
  11055, 145.00000, 3.13934, -31.93750
  11056, 145.00000, 4.49251, -31.15625
  11057, 145.00000, 5.84567, -30.37500
  11058, 145.00000, 7.19884, -29.59375
  11059, 145.00000, 8.55200, -28.81250
  11060, 145.00000, 9.90517, -28.03125
  11061, 145.00000, 11.25833, -27.25000
  11062, 145.00000, 0.38302, -33.42861
  11063, 145.00000, 1.57997, -32.42425
  11064, 145.00000, 2.77691, -31.41989
  11065, 145.00000, 3.97386, -30.41554
  11066, 145.00000, 5.17080, -29.41118
  11067, 145.00000, 6.36774, -28.40683
  11068, 145.00000, 7.56469, -27.40247
  11069, 145.00000, 8.76163, -26.39812
  11070, 145.00000, 9.95858, -25.39376
  11071, 145.00000, 0.32139, -33.36698
  11072, 145.00000, 1.32575, -32.17003
  11073, 145.00000, 2.33011, -30.97309
  11074, 145.00000, 3.33446, -29.77614
  11075, 145.00000, 4.33882, -28.57920
  11076, 145.00000, 5.34317, -27.38226
  11077, 145.00000, 6.34753, -26.18531
  11078, 145.00000, 7.35188, -24.98837
  11079, 145.00000, 8.35624, -23.79142
  11080, 145.00000, 0.25000, -33.31699
  11081, 145.00000, 1.03125, -31.96382
  11082, 145.00000, 1.81250, -30.61066
  11083, 145.00000, 2.59375, -29.25749
  11084, 145.00000, 3.37500, -27.90433
  11085, 145.00000, 4.15625, -26.55116
  11086, 145.00000, 4.93750, -25.19800
  11087, 145.00000, 5.71875, -23.84483
  11088, 145.00000, 6.50000, -22.49167
  11089, 145.00000, 0.17101, -33.28015
  11090, 145.00000, 0.70542, -31.81188
  11091, 145.00000, 1.23982, -30.34361
  11092, 145.00000, 1.77423, -28.87534
  11093, 145.00000, 2.30864, -27.40707
  11094, 145.00000, 2.84304, -25.93881
  11095, 145.00000, 3.37745, -24.47054
  11096, 145.00000, 3.91186, -23.00227
  11097, 145.00000, 4.44626, -21.53400
  11098, 145.00000, 0.08682, -33.25760
  11099, 145.00000, 0.35815, -31.71883
  11100, 145.00000, 0.62947, -30.18007
  11101, 145.00000, 0.90080, -28.64131
  11102, 145.00000, 1.17213, -27.10255
  11103, 145.00000, 1.44345, -25.56379
  11104, 145.00000, 1.71478, -24.02502
  11105, 145.00000, 1.98610, -22.48626
  11106, 145.00000, 2.25743, -20.94750
  11107, 145.00000, 0.00000, -33.25000
  11108, 145.00000, 0.00000, -31.68750
  11109, 145.00000, 0.00000, -30.12500
  11110, 145.00000, 0.00000, -28.56250
  11111, 145.00000, 0.00000, -27.00000
  11112, 145.00000, 0.00000, -25.43750
  11113, 145.00000, 0.00000, -23.87500
  11114, 145.00000, 0.00000, -22.31250
  11115, 145.00000, 0.00000, -20.75000
  11116, 145.00000, -0.08682, -33.25760
  11117, 145.00000, -0.35815, -31.71883
  11118, 145.00000, -0.62947, -30.18007
  11119, 145.00000, -0.90080, -28.64131
  11120, 145.00000, -1.17213, -27.10255
  11121, 145.00000, -1.44345, -25.56379
  11122, 145.00000, -1.71478, -24.02502
  11123, 145.00000, -1.98610, -22.48626
  11124, 145.00000, -2.25743, -20.94750
  11125, 145.00000, -0.17101, -33.28015
  11126, 145.00000, -0.70542, -31.81188
  11127, 145.00000, -1.23982, -30.34361
  11128, 145.00000, -1.77423, -28.87534
  11129, 145.00000, -2.30864, -27.40707
  11130, 145.00000, -2.84304, -25.93881
  11131, 145.00000, -3.37745, -24.47054
  11132, 145.00000, -3.91186, -23.00227
  11133, 145.00000, -4.44626, -21.53400
  11134, 145.00000, -0.25000, -33.31699
  11135, 145.00000, -1.03125, -31.96382
  11136, 145.00000, -1.81250, -30.61066
  11137, 145.00000, -2.59375, -29.25749
  11138, 145.00000, -3.37500, -27.90433
  11139, 145.00000, -4.15625, -26.55116
  11140, 145.00000, -4.93750, -25.19800
  11141, 145.00000, -5.71875, -23.84483
  11142, 145.00000, -6.50000, -22.49167
  11143, 145.00000, -0.32139, -33.36698
  11144, 145.00000, -1.32575, -32.17003
  11145, 145.00000, -2.33011, -30.97309
  11146, 145.00000, -3.33446, -29.77614
  11147, 145.00000, -4.33882, -28.57920
  11148, 145.00000, -5.34317, -27.38226
  11149, 145.00000, -6.34753, -26.18531
  11150, 145.00000, -7.35188, -24.98837
  11151, 145.00000, -8.35624, -23.79142
  11152, 145.00000, -0.38302, -33.42861
  11153, 145.00000, -1.57997, -32.42425
  11154, 145.00000, -2.77691, -31.41989
  11155, 145.00000, -3.97386, -30.41554
  11156, 145.00000, -5.17080, -29.41118
  11157, 145.00000, -6.36774, -28.40683
  11158, 145.00000, -7.56469, -27.40247
  11159, 145.00000, -8.76163, -26.39812
  11160, 145.00000, -9.95858, -25.39376
  11161, 145.00000, -0.43301, -33.50000
  11162, 145.00000, -1.78618, -32.71875
  11163, 145.00000, -3.13934, -31.93750
  11164, 145.00000, -4.49251, -31.15625
  11165, 145.00000, -5.84567, -30.37500
  11166, 145.00000, -7.19884, -29.59375
  11167, 145.00000, -8.55200, -28.81250
  11168, 145.00000, -9.90517, -28.03125
  11169, 145.00000, -11.25833, -27.25000
  11170, 145.00000, -0.46985, -33.57899
  11171, 145.00000, -1.93812, -33.04458
  11172, 145.00000, -3.40639, -32.51018
  11173, 145.00000, -4.87466, -31.97577
  11174, 145.00000, -6.34293, -31.44136
  11175, 145.00000, -7.81119, -30.90696
  11176, 145.00000, -9.27946, -30.37255
  11177, 145.00000, -10.74773, -29.83814
  11178, 145.00000, -12.21600, -29.30374
  11179, 145.00000, -0.49240, -33.66318
  11180, 145.00000, -2.03117, -33.39185
  11181, 145.00000, -3.56993, -33.12053
  11182, 145.00000, -5.10869, -32.84920
  11183, 145.00000, -6.64745, -32.57787
  11184, 145.00000, -8.18621, -32.30655
  11185, 145.00000, -9.72498, -32.03522
  11186, 145.00000, -11.26374, -31.76390
  11187, 145.00000, -12.80250, -31.49257
  11188, 145.00000, -0.50000, -33.75000
  11189, 145.00000, -2.06250, -33.75000
  11190, 145.00000, -3.62500, -33.75000
  11191, 145.00000, -5.18750, -33.75000
  11192, 145.00000, -6.75000, -33.75000
  11193, 145.00000, -8.31250, -33.75000
  11194, 145.00000, -9.87500, -33.75000
  11195, 145.00000, -11.43750, -33.75000
  11196, 145.00000, -13.00000, -33.75000
  11197, 145.00000, -0.49240, -33.83682
  11198, 145.00000, -2.03117, -34.10815
  11199, 145.00000, -3.56993, -34.37947
  11200, 145.00000, -5.10869, -34.65080
  11201, 145.00000, -6.64745, -34.92213
  11202, 145.00000, -8.18621, -35.19345
  11203, 145.00000, -9.72498, -35.46478
  11204, 145.00000, -11.26374, -35.73610
  11205, 145.00000, -12.80250, -36.00743
  11206, 145.00000, -0.46985, -33.92101
  11207, 145.00000, -1.93812, -34.45542
  11208, 145.00000, -3.40639, -34.98982
  11209, 145.00000, -4.87466, -35.52423
  11210, 145.00000, -6.34293, -36.05864
  11211, 145.00000, -7.81119, -36.59304
  11212, 145.00000, -9.27946, -37.12745
  11213, 145.00000, -10.74773, -37.66186
  11214, 145.00000, -12.21600, -38.19626
  11215, 145.00000, -0.43301, -34.00000
  11216, 145.00000, -1.78618, -34.78125
  11217, 145.00000, -3.13934, -35.56250
  11218, 145.00000, -4.49251, -36.34375
  11219, 145.00000, -5.84567, -37.12500
  11220, 145.00000, -7.19884, -37.90625
  11221, 145.00000, -8.55200, -38.68750
  11222, 145.00000, -9.90517, -39.46875
  11223, 145.00000, -11.25833, -40.25000
  11224, 145.00000, -0.38302, -34.07139
  11225, 145.00000, -1.57997, -35.07575
  11226, 145.00000, -2.77691, -36.08011
  11227, 145.00000, -3.97386, -37.08446
  11228, 145.00000, -5.17080, -38.08882
  11229, 145.00000, -6.36774, -39.09317
  11230, 145.00000, -7.56469, -40.09753
  11231, 145.00000, -8.76163, -41.10188
  11232, 145.00000, -9.95858, -42.10624
  11233, 145.00000, -0.32139, -34.13302
  11234, 145.00000, -1.32575, -35.32997
  11235, 145.00000, -2.33011, -36.52691
  11236, 145.00000, -3.33446, -37.72386
  11237, 145.00000, -4.33882, -38.92080
  11238, 145.00000, -5.34317, -40.11774
  11239, 145.00000, -6.34753, -41.31469
  11240, 145.00000, -7.35188, -42.51163
  11241, 145.00000, -8.35624, -43.70858
  11242, 145.00000, -0.25000, -34.18301
  11243, 145.00000, -1.03125, -35.53618
  11244, 145.00000, -1.81250, -36.88934
  11245, 145.00000, -2.59375, -38.24251
  11246, 145.00000, -3.37500, -39.59567
  11247, 145.00000, -4.15625, -40.94884
  11248, 145.00000, -4.93750, -42.30200
  11249, 145.00000, -5.71875, -43.65517
  11250, 145.00000, -6.50000, -45.00833
  11251, 145.00000, -0.17101, -34.21985
  11252, 145.00000, -0.70542, -35.68812
  11253, 145.00000, -1.23982, -37.15639
  11254, 145.00000, -1.77423, -38.62466
  11255, 145.00000, -2.30864, -40.09293
  11256, 145.00000, -2.84304, -41.56119
  11257, 145.00000, -3.37745, -43.02946
  11258, 145.00000, -3.91186, -44.49773
  11259, 145.00000, -4.44626, -45.96600
  11260, 145.00000, -0.08682, -34.24240
  11261, 145.00000, -0.35815, -35.78117
  11262, 145.00000, -0.62947, -37.31993
  11263, 145.00000, -0.90080, -38.85869
  11264, 145.00000, -1.17213, -40.39745
  11265, 145.00000, -1.44345, -41.93621
  11266, 145.00000, -1.71478, -43.47498
  11267, 145.00000, -1.98610, -45.01374
  11268, 145.00000, -2.25743, -46.55250
  11269, 145.00000, -0.00000, -34.25000
  11270, 145.00000, -0.00000, -35.81250
  11271, 145.00000, -0.00000, -37.37500
  11272, 145.00000, -0.00000, -38.93750
  11273, 145.00000, -0.00000, -40.50000
  11274, 145.00000, -0.00000, -42.06250
  11275, 145.00000, -0.00000, -43.62500
  11276, 145.00000, -0.00000, -45.18750
  11277, 145.00000, -0.00000, -46.75000
  11278, 145.00000, 0.08682, -34.24240
  11279, 145.00000, 0.35815, -35.78117
  11280, 145.00000, 0.62947, -37.31993
  11281, 145.00000, 0.90080, -38.85869
  11282, 145.00000, 1.17213, -40.39745
  11283, 145.00000, 1.44345, -41.93621
  11284, 145.00000, 1.71478, -43.47498
  11285, 145.00000, 1.98610, -45.01374
  11286, 145.00000, 2.25743, -46.55250
  11287, 145.00000, 0.17101, -34.21985
  11288, 145.00000, 0.70542, -35.68812
  11289, 145.00000, 1.23982, -37.15639
  11290, 145.00000, 1.77423, -38.62466
  11291, 145.00000, 2.30864, -40.09293
  11292, 145.00000, 2.84304, -41.56119
  11293, 145.00000, 3.37745, -43.02946
  11294, 145.00000, 3.91186, -44.49773
  11295, 145.00000, 4.44626, -45.96600
  11296, 145.00000, 0.25000, -34.18301
  11297, 145.00000, 1.03125, -35.53618
  11298, 145.00000, 1.81250, -36.88934
  11299, 145.00000, 2.59375, -38.24251
  11300, 145.00000, 3.37500, -39.59567
  11301, 145.00000, 4.15625, -40.94884
  11302, 145.00000, 4.93750, -42.30200
  11303, 145.00000, 5.71875, -43.65517
  11304, 145.00000, 6.50000, -45.00833
  11305, 145.00000, 0.32139, -34.13302
  11306, 145.00000, 1.32575, -35.32997
  11307, 145.00000, 2.33011, -36.52691
  11308, 145.00000, 3.33446, -37.72386
  11309, 145.00000, 4.33882, -38.92080
  11310, 145.00000, 5.34317, -40.11774
  11311, 145.00000, 6.34753, -41.31469
  11312, 145.00000, 7.35188, -42.51163
  11313, 145.00000, 8.35624, -43.70858
  11314, 145.00000, 0.38302, -34.07139
  11315, 145.00000, 1.57997, -35.07575
  11316, 145.00000, 2.77691, -36.08011
  11317, 145.00000, 3.97386, -37.08446
  11318, 145.00000, 5.17080, -38.08882
  11319, 145.00000, 6.36774, -39.09317
  11320, 145.00000, 7.56469, -40.09753
  11321, 145.00000, 8.76163, -41.10188
  11322, 145.00000, 9.95858, -42.10624
  11323, 145.00000, 0.43301, -34.00000
  11324, 145.00000, 1.78618, -34.78125
  11325, 145.00000, 3.13934, -35.56250
  11326, 145.00000, 4.49251, -36.34375
  11327, 145.00000, 5.84567, -37.12500
  11328, 145.00000, 7.19884, -37.90625
  11329, 145.00000, 8.55200, -38.68750
  11330, 145.00000, 9.90517, -39.46875
  11331, 145.00000, 11.25833, -40.25000
  11332, 145.00000, 0.46985, -33.92101
  11333, 145.00000, 1.93812, -34.45542
  11334, 145.00000, 3.40639, -34.98982
  11335, 145.00000, 4.87466, -35.52423
  11336, 145.00000, 6.34293, -36.05864
  11337, 145.00000, 7.81119, -36.59304
  11338, 145.00000, 9.27946, -37.12745
  11339, 145.00000, 10.74773, -37.66186
  11340, 145.00000, 12.21600, -38.19626
  11341, 145.00000, 0.49240, -33.83682
  11342, 145.00000, 2.03117, -34.10815
  11343, 145.00000, 3.56993, -34.37947
  11344, 145.00000, 5.10869, -34.65080
  11345, 145.00000, 6.64745, -34.92213
  11346, 145.00000, 8.18621, -35.19345
  11347, 145.00000, 9.72498, -35.46478
  11348, 145.00000, 11.26374, -35.73610
  11349, 145.00000, 12.80250, -36.00743
  11350, 145.00000, 0.50000, -33.75000
  11351, 145.00000, 2.06250, -33.75000
  11352, 145.00000, 3.62500, -33.75000
  11353, 145.00000, 5.18750, -33.75000
  11354, 145.00000, 6.75000, -33.75000
  11355, 145.00000, 8.31250, -33.75000
  11356, 145.00000, 9.87500, -33.75000
  11357, 145.00000, 11.43750, -33.75000
  11358, 145.00000, 13.00000, -33.75000
  11359, 150.00000, 0.50000, -33.75000
  11360, 150.00000, 2.06250, -33.75000
  11361, 150.00000, 3.62500, -33.75000
  11362, 150.00000, 5.18750, -33.75000
  11363, 150.00000, 6.75000, -33.75000
  11364, 150.00000, 8.31250, -33.75000
  11365, 150.00000, 9.87500, -33.75000
  11366, 150.00000, 11.43750, -33.75000
  11367, 150.00000, 13.00000, -33.75000
  11368, 150.00000, 0.49240, -33.66318
  11369, 150.00000, 2.03117, -33.39185
  11370, 150.00000, 3.56993, -33.12053
  11371, 150.00000, 5.10869, -32.84920
  11372, 150.00000, 6.64745, -32.57787
  11373, 150.00000, 8.18621, -32.30655
  11374, 150.00000, 9.72498, -32.03522
  11375, 150.00000, 11.26374, -31.76390
  11376, 150.00000, 12.80250, -31.49257
  11377, 150.00000, 0.46985, -33.57899
  11378, 150.00000, 1.93812, -33.04458
  11379, 150.00000, 3.40639, -32.51018
  11380, 150.00000, 4.87466, -31.97577
  11381, 150.00000, 6.34293, -31.44136
  11382, 150.00000, 7.81119, -30.90696
  11383, 150.00000, 9.27946, -30.37255
  11384, 150.00000, 10.74773, -29.83814
  11385, 150.00000, 12.21600, -29.30374
  11386, 150.00000, 0.43301, -33.50000
  11387, 150.00000, 1.78618, -32.71875
  11388, 150.00000, 3.13934, -31.93750
  11389, 150.00000, 4.49251, -31.15625
  11390, 150.00000, 5.84567, -30.37500
  11391, 150.00000, 7.19884, -29.59375
  11392, 150.00000, 8.55200, -28.81250
  11393, 150.00000, 9.90517, -28.03125
  11394, 150.00000, 11.25833, -27.25000
  11395, 150.00000, 0.38302, -33.42861
  11396, 150.00000, 1.57997, -32.42425
  11397, 150.00000, 2.77691, -31.41989
  11398, 150.00000, 3.97386, -30.41554
  11399, 150.00000, 5.17080, -29.41118
  11400, 150.00000, 6.36774, -28.40683
  11401, 150.00000, 7.56469, -27.40247
  11402, 150.00000, 8.76163, -26.39812
  11403, 150.00000, 9.95858, -25.39376
  11404, 150.00000, 0.32139, -33.36698
  11405, 150.00000, 1.32575, -32.17003
  11406, 150.00000, 2.33011, -30.97309
  11407, 150.00000, 3.33446, -29.77614
  11408, 150.00000, 4.33882, -28.57920
  11409, 150.00000, 5.34317, -27.38226
  11410, 150.00000, 6.34753, -26.18531
  11411, 150.00000, 7.35188, -24.98837
  11412, 150.00000, 8.35624, -23.79142
  11413, 150.00000, 0.25000, -33.31699
  11414, 150.00000, 1.03125, -31.96382
  11415, 150.00000, 1.81250, -30.61066
  11416, 150.00000, 2.59375, -29.25749
  11417, 150.00000, 3.37500, -27.90433
  11418, 150.00000, 4.15625, -26.55116
  11419, 150.00000, 4.93750, -25.19800
  11420, 150.00000, 5.71875, -23.84483
  11421, 150.00000, 6.50000, -22.49167
  11422, 150.00000, 0.17101, -33.28015
  11423, 150.00000, 0.70542, -31.81188
  11424, 150.00000, 1.23982, -30.34361
  11425, 150.00000, 1.77423, -28.87534
  11426, 150.00000, 2.30864, -27.40707
  11427, 150.00000, 2.84304, -25.93881
  11428, 150.00000, 3.37745, -24.47054
  11429, 150.00000, 3.91186, -23.00227
  11430, 150.00000, 4.44626, -21.53400
  11431, 150.00000, 0.08682, -33.25760
  11432, 150.00000, 0.35815, -31.71883
  11433, 150.00000, 0.62947, -30.18007
  11434, 150.00000, 0.90080, -28.64131
  11435, 150.00000, 1.17213, -27.10255
  11436, 150.00000, 1.44345, -25.56379
  11437, 150.00000, 1.71478, -24.02502
  11438, 150.00000, 1.98610, -22.48626
  11439, 150.00000, 2.25743, -20.94750
  11440, 150.00000, 0.00000, -33.25000
  11441, 150.00000, 0.00000, -31.68750
  11442, 150.00000, 0.00000, -30.12500
  11443, 150.00000, 0.00000, -28.56250
  11444, 150.00000, 0.00000, -27.00000
  11445, 150.00000, 0.00000, -25.43750
  11446, 150.00000, 0.00000, -23.87500
  11447, 150.00000, 0.00000, -22.31250
  11448, 150.00000, 0.00000, -20.75000
  11449, 150.00000, -0.08682, -33.25760
  11450, 150.00000, -0.35815, -31.71883
  11451, 150.00000, -0.62947, -30.18007
  11452, 150.00000, -0.90080, -28.64131
  11453, 150.00000, -1.17213, -27.10255
  11454, 150.00000, -1.44345, -25.56379
  11455, 150.00000, -1.71478, -24.02502
  11456, 150.00000, -1.98610, -22.48626
  11457, 150.00000, -2.25743, -20.94750
  11458, 150.00000, -0.17101, -33.28015
  11459, 150.00000, -0.70542, -31.81188
  11460, 150.00000, -1.23982, -30.34361
  11461, 150.00000, -1.77423, -28.87534
  11462, 150.00000, -2.30864, -27.40707
  11463, 150.00000, -2.84304, -25.93881
  11464, 150.00000, -3.37745, -24.47054
  11465, 150.00000, -3.91186, -23.00227
  11466, 150.00000, -4.44626, -21.53400
  11467, 150.00000, -0.25000, -33.31699
  11468, 150.00000, -1.03125, -31.96382
  11469, 150.00000, -1.81250, -30.61066
  11470, 150.00000, -2.59375, -29.25749
  11471, 150.00000, -3.37500, -27.90433
  11472, 150.00000, -4.15625, -26.55116
  11473, 150.00000, -4.93750, -25.19800
  11474, 150.00000, -5.71875, -23.84483
  11475, 150.00000, -6.50000, -22.49167
  11476, 150.00000, -0.32139, -33.36698
  11477, 150.00000, -1.32575, -32.17003
  11478, 150.00000, -2.33011, -30.97309
  11479, 150.00000, -3.33446, -29.77614
  11480, 150.00000, -4.33882, -28.57920
  11481, 150.00000, -5.34317, -27.38226
  11482, 150.00000, -6.34753, -26.18531
  11483, 150.00000, -7.35188, -24.98837
  11484, 150.00000, -8.35624, -23.79142
  11485, 150.00000, -0.38302, -33.42861
  11486, 150.00000, -1.57997, -32.42425
  11487, 150.00000, -2.77691, -31.41989
  11488, 150.00000, -3.97386, -30.41554
  11489, 150.00000, -5.17080, -29.41118
  11490, 150.00000, -6.36774, -28.40683
  11491, 150.00000, -7.56469, -27.40247
  11492, 150.00000, -8.76163, -26.39812
  11493, 150.00000, -9.95858, -25.39376
  11494, 150.00000, -0.43301, -33.50000
  11495, 150.00000, -1.78618, -32.71875
  11496, 150.00000, -3.13934, -31.93750
  11497, 150.00000, -4.49251, -31.15625
  11498, 150.00000, -5.84567, -30.37500
  11499, 150.00000, -7.19884, -29.59375
  11500, 150.00000, -8.55200, -28.81250
  11501, 150.00000, -9.90517, -28.03125
  11502, 150.00000, -11.25833, -27.25000
  11503, 150.00000, -0.46985, -33.57899
  11504, 150.00000, -1.93812, -33.04458
  11505, 150.00000, -3.40639, -32.51018
  11506, 150.00000, -4.87466, -31.97577
  11507, 150.00000, -6.34293, -31.44136
  11508, 150.00000, -7.81119, -30.90696
  11509, 150.00000, -9.27946, -30.37255
  11510, 150.00000, -10.74773, -29.83814
  11511, 150.00000, -12.21600, -29.30374
  11512, 150.00000, -0.49240, -33.66318
  11513, 150.00000, -2.03117, -33.39185
  11514, 150.00000, -3.56993, -33.12053
  11515, 150.00000, -5.10869, -32.84920
  11516, 150.00000, -6.64745, -32.57787
  11517, 150.00000, -8.18621, -32.30655
  11518, 150.00000, -9.72498, -32.03522
  11519, 150.00000, -11.26374, -31.76390
  11520, 150.00000, -12.80250, -31.49257
  11521, 150.00000, -0.50000, -33.75000
  11522, 150.00000, -2.06250, -33.75000
  11523, 150.00000, -3.62500, -33.75000
  11524, 150.00000, -5.18750, -33.75000
  11525, 150.00000, -6.75000, -33.75000
  11526, 150.00000, -8.31250, -33.75000
  11527, 150.00000, -9.87500, -33.75000
  11528, 150.00000, -11.43750, -33.75000
  11529, 150.00000, -13.00000, -33.75000
  11530, 150.00000, -0.49240, -33.83682
  11531, 150.00000, -2.03117, -34.10815
  11532, 150.00000, -3.56993, -34.37947
  11533, 150.00000, -5.10869, -34.65080
  11534, 150.00000, -6.64745, -34.92213
  11535, 150.00000, -8.18621, -35.19345
  11536, 150.00000, -9.72498, -35.46478
  11537, 150.00000, -11.26374, -35.73610
  11538, 150.00000, -12.80250, -36.00743
  11539, 150.00000, -0.46985, -33.92101
  11540, 150.00000, -1.93812, -34.45542
  11541, 150.00000, -3.40639, -34.98982
  11542, 150.00000, -4.87466, -35.52423
  11543, 150.00000, -6.34293, -36.05864
  11544, 150.00000, -7.81119, -36.59304
  11545, 150.00000, -9.27946, -37.12745
  11546, 150.00000, -10.74773, -37.66186
  11547, 150.00000, -12.21600, -38.19626
  11548, 150.00000, -0.43301, -34.00000
  11549, 150.00000, -1.78618, -34.78125
  11550, 150.00000, -3.13934, -35.56250
  11551, 150.00000, -4.49251, -36.34375
  11552, 150.00000, -5.84567, -37.12500
  11553, 150.00000, -7.19884, -37.90625
  11554, 150.00000, -8.55200, -38.68750
  11555, 150.00000, -9.90517, -39.46875
  11556, 150.00000, -11.25833, -40.25000
  11557, 150.00000, -0.38302, -34.07139
  11558, 150.00000, -1.57997, -35.07575
  11559, 150.00000, -2.77691, -36.08011
  11560, 150.00000, -3.97386, -37.08446
  11561, 150.00000, -5.17080, -38.08882
  11562, 150.00000, -6.36774, -39.09317
  11563, 150.00000, -7.56469, -40.09753
  11564, 150.00000, -8.76163, -41.10188
  11565, 150.00000, -9.95858, -42.10624
  11566, 150.00000, -0.32139, -34.13302
  11567, 150.00000, -1.32575, -35.32997
  11568, 150.00000, -2.33011, -36.52691
  11569, 150.00000, -3.33446, -37.72386
  11570, 150.00000, -4.33882, -38.92080
  11571, 150.00000, -5.34317, -40.11774
  11572, 150.00000, -6.34753, -41.31469
  11573, 150.00000, -7.35188, -42.51163
  11574, 150.00000, -8.35624, -43.70858
  11575, 150.00000, -0.25000, -34.18301
  11576, 150.00000, -1.03125, -35.53618
  11577, 150.00000, -1.81250, -36.88934
  11578, 150.00000, -2.59375, -38.24251
  11579, 150.00000, -3.37500, -39.59567
  11580, 150.00000, -4.15625, -40.94884
  11581, 150.00000, -4.93750, -42.30200
  11582, 150.00000, -5.71875, -43.65517
  11583, 150.00000, -6.50000, -45.00833
  11584, 150.00000, -0.17101, -34.21985
  11585, 150.00000, -0.70542, -35.68812
  11586, 150.00000, -1.23982, -37.15639
  11587, 150.00000, -1.77423, -38.62466
  11588, 150.00000, -2.30864, -40.09293
  11589, 150.00000, -2.84304, -41.56119
  11590, 150.00000, -3.37745, -43.02946
  11591, 150.00000, -3.91186, -44.49773
  11592, 150.00000, -4.44626, -45.96600
  11593, 150.00000, -0.08682, -34.24240
  11594, 150.00000, -0.35815, -35.78117
  11595, 150.00000, -0.62947, -37.31993
  11596, 150.00000, -0.90080, -38.85869
  11597, 150.00000, -1.17213, -40.39745
  11598, 150.00000, -1.44345, -41.93621
  11599, 150.00000, -1.71478, -43.47498
  11600, 150.00000, -1.98610, -45.01374
  11601, 150.00000, -2.25743, -46.55250
  11602, 150.00000, -0.00000, -34.25000
  11603, 150.00000, -0.00000, -35.81250
  11604, 150.00000, -0.00000, -37.37500
  11605, 150.00000, -0.00000, -38.93750
  11606, 150.00000, -0.00000, -40.50000
  11607, 150.00000, -0.00000, -42.06250
  11608, 150.00000, -0.00000, -43.62500
  11609, 150.00000, -0.00000, -45.18750
  11610, 150.00000, -0.00000, -46.75000
  11611, 150.00000, 0.08682, -34.24240
  11612, 150.00000, 0.35815, -35.78117
  11613, 150.00000, 0.62947, -37.31993
  11614, 150.00000, 0.90080, -38.85869
  11615, 150.00000, 1.17213, -40.39745
  11616, 150.00000, 1.44345, -41.93621
  11617, 150.00000, 1.71478, -43.47498
  11618, 150.00000, 1.98610, -45.01374
  11619, 150.00000, 2.25743, -46.55250
  11620, 150.00000, 0.17101, -34.21985
  11621, 150.00000, 0.70542, -35.68812
  11622, 150.00000, 1.23982, -37.15639
  11623, 150.00000, 1.77423, -38.62466
  11624, 150.00000, 2.30864, -40.09293
  11625, 150.00000, 2.84304, -41.56119
  11626, 150.00000, 3.37745, -43.02946
  11627, 150.00000, 3.91186, -44.49773
  11628, 150.00000, 4.44626, -45.96600
  11629, 150.00000, 0.25000, -34.18301
  11630, 150.00000, 1.03125, -35.53618
  11631, 150.00000, 1.81250, -36.88934
  11632, 150.00000, 2.59375, -38.24251
  11633, 150.00000, 3.37500, -39.59567
  11634, 150.00000, 4.15625, -40.94884
  11635, 150.00000, 4.93750, -42.30200
  11636, 150.00000, 5.71875, -43.65517
  11637, 150.00000, 6.50000, -45.00833
  11638, 150.00000, 0.32139, -34.13302
  11639, 150.00000, 1.32575, -35.32997
  11640, 150.00000, 2.33011, -36.52691
  11641, 150.00000, 3.33446, -37.72386
  11642, 150.00000, 4.33882, -38.92080
  11643, 150.00000, 5.34317, -40.11774
  11644, 150.00000, 6.34753, -41.31469
  11645, 150.00000, 7.35188, -42.51163
  11646, 150.00000, 8.35624, -43.70858
  11647, 150.00000, 0.38302, -34.07139
  11648, 150.00000, 1.57997, -35.07575
  11649, 150.00000, 2.77691, -36.08011
  11650, 150.00000, 3.97386, -37.08446
  11651, 150.00000, 5.17080, -38.08882
  11652, 150.00000, 6.36774, -39.09317
  11653, 150.00000, 7.56469, -40.09753
  11654, 150.00000, 8.76163, -41.10188
  11655, 150.00000, 9.95858, -42.10624
  11656, 150.00000, 0.43301, -34.00000
  11657, 150.00000, 1.78618, -34.78125
  11658, 150.00000, 3.13934, -35.56250
  11659, 150.00000, 4.49251, -36.34375
  11660, 150.00000, 5.84567, -37.12500
  11661, 150.00000, 7.19884, -37.90625
  11662, 150.00000, 8.55200, -38.68750
  11663, 150.00000, 9.90517, -39.46875
  11664, 150.00000, 11.25833, -40.25000
  11665, 150.00000, 0.46985, -33.92101
  11666, 150.00000, 1.93812, -34.45542
  11667, 150.00000, 3.40639, -34.98982
  11668, 150.00000, 4.87466, -35.52423
  11669, 150.00000, 6.34293, -36.05864
  11670, 150.00000, 7.81119, -36.59304
  11671, 150.00000, 9.27946, -37.12745
  11672, 150.00000, 10.74773, -37.66186
  11673, 150.00000, 12.21600, -38.19626
  11674, 150.00000, 0.49240, -33.83682
  11675, 150.00000, 2.03117, -34.10815
  11676, 150.00000, 3.56993, -34.37947
  11677, 150.00000, 5.10869, -34.65080
  11678, 150.00000, 6.64745, -34.92213
  11679, 150.00000, 8.18621, -35.19345
  11680, 150.00000, 9.72498, -35.46478
  11681, 150.00000, 11.26374, -35.73610
  11682, 150.00000, 12.80250, -36.00743
  11683, 150.00000, 0.50000, -33.75000
  11684, 150.00000, 2.06250, -33.75000
  11685, 150.00000, 3.62500, -33.75000
  11686, 150.00000, 5.18750, -33.75000
  11687, 150.00000, 6.75000, -33.75000
  11688, 150.00000, 8.31250, -33.75000
  11689, 150.00000, 9.87500, -33.75000
  11690, 150.00000, 11.43750, -33.75000
  11691, 150.00000, 13.00000, -33.75000
  11692, 155.00000, 0.50000, -33.75000
  11693, 155.00000, 2.06250, -33.75000
  11694, 155.00000, 3.62500, -33.75000
  11695, 155.00000, 5.18750, -33.75000
  11696, 155.00000, 6.75000, -33.75000
  11697, 155.00000, 8.31250, -33.75000
  11698, 155.00000, 9.87500, -33.75000
  11699, 155.00000, 11.43750, -33.75000
  11700, 155.00000, 13.00000, -33.75000
  11701, 155.00000, 0.49240, -33.66318
  11702, 155.00000, 2.03117, -33.39185
  11703, 155.00000, 3.56993, -33.12053
  11704, 155.00000, 5.10869, -32.84920
  11705, 155.00000, 6.64745, -32.57787
  11706, 155.00000, 8.18621, -32.30655
  11707, 155.00000, 9.72498, -32.03522
  11708, 155.00000, 11.26374, -31.76390
  11709, 155.00000, 12.80250, -31.49257
  11710, 155.00000, 0.46985, -33.57899
  11711, 155.00000, 1.93812, -33.04458
  11712, 155.00000, 3.40639, -32.51018
  11713, 155.00000, 4.87466, -31.97577
  11714, 155.00000, 6.34293, -31.44136
  11715, 155.00000, 7.81119, -30.90696
  11716, 155.00000, 9.27946, -30.37255
  11717, 155.00000, 10.74773, -29.83814
  11718, 155.00000, 12.21600, -29.30374
  11719, 155.00000, 0.43301, -33.50000
  11720, 155.00000, 1.78618, -32.71875
  11721, 155.00000, 3.13934, -31.93750
  11722, 155.00000, 4.49251, -31.15625
  11723, 155.00000, 5.84567, -30.37500
  11724, 155.00000, 7.19884, -29.59375
  11725, 155.00000, 8.55200, -28.81250
  11726, 155.00000, 9.90517, -28.03125
  11727, 155.00000, 11.25833, -27.25000
  11728, 155.00000, 0.38302, -33.42861
  11729, 155.00000, 1.57997, -32.42425
  11730, 155.00000, 2.77691, -31.41989
  11731, 155.00000, 3.97386, -30.41554
  11732, 155.00000, 5.17080, -29.41118
  11733, 155.00000, 6.36774, -28.40683
  11734, 155.00000, 7.56469, -27.40247
  11735, 155.00000, 8.76163, -26.39812
  11736, 155.00000, 9.95858, -25.39376
  11737, 155.00000, 0.32139, -33.36698
  11738, 155.00000, 1.32575, -32.17003
  11739, 155.00000, 2.33011, -30.97309
  11740, 155.00000, 3.33446, -29.77614
  11741, 155.00000, 4.33882, -28.57920
  11742, 155.00000, 5.34317, -27.38226
  11743, 155.00000, 6.34753, -26.18531
  11744, 155.00000, 7.35188, -24.98837
  11745, 155.00000, 8.35624, -23.79142
  11746, 155.00000, 0.25000, -33.31699
  11747, 155.00000, 1.03125, -31.96382
  11748, 155.00000, 1.81250, -30.61066
  11749, 155.00000, 2.59375, -29.25749
  11750, 155.00000, 3.37500, -27.90433
  11751, 155.00000, 4.15625, -26.55116
  11752, 155.00000, 4.93750, -25.19800
  11753, 155.00000, 5.71875, -23.84483
  11754, 155.00000, 6.50000, -22.49167
  11755, 155.00000, 0.17101, -33.28015
  11756, 155.00000, 0.70542, -31.81188
  11757, 155.00000, 1.23982, -30.34361
  11758, 155.00000, 1.77423, -28.87534
  11759, 155.00000, 2.30864, -27.40707
  11760, 155.00000, 2.84304, -25.93881
  11761, 155.00000, 3.37745, -24.47054
  11762, 155.00000, 3.91186, -23.00227
  11763, 155.00000, 4.44626, -21.53400
  11764, 155.00000, 0.08682, -33.25760
  11765, 155.00000, 0.35815, -31.71883
  11766, 155.00000, 0.62947, -30.18007
  11767, 155.00000, 0.90080, -28.64131
  11768, 155.00000, 1.17213, -27.10255
  11769, 155.00000, 1.44345, -25.56379
  11770, 155.00000, 1.71478, -24.02502
  11771, 155.00000, 1.98610, -22.48626
  11772, 155.00000, 2.25743, -20.94750
  11773, 155.00000, 0.00000, -33.25000
  11774, 155.00000, 0.00000, -31.68750
  11775, 155.00000, 0.00000, -30.12500
  11776, 155.00000, 0.00000, -28.56250
  11777, 155.00000, 0.00000, -27.00000
  11778, 155.00000, 0.00000, -25.43750
  11779, 155.00000, 0.00000, -23.87500
  11780, 155.00000, 0.00000, -22.31250
  11781, 155.00000, 0.00000, -20.75000
  11782, 155.00000, -0.08682, -33.25760
  11783, 155.00000, -0.35815, -31.71883
  11784, 155.00000, -0.62947, -30.18007
  11785, 155.00000, -0.90080, -28.64131
  11786, 155.00000, -1.17213, -27.10255
  11787, 155.00000, -1.44345, -25.56379
  11788, 155.00000, -1.71478, -24.02502
  11789, 155.00000, -1.98610, -22.48626
  11790, 155.00000, -2.25743, -20.94750
  11791, 155.00000, -0.17101, -33.28015
  11792, 155.00000, -0.70542, -31.81188
  11793, 155.00000, -1.23982, -30.34361
  11794, 155.00000, -1.77423, -28.87534
  11795, 155.00000, -2.30864, -27.40707
  11796, 155.00000, -2.84304, -25.93881
  11797, 155.00000, -3.37745, -24.47054
  11798, 155.00000, -3.91186, -23.00227
  11799, 155.00000, -4.44626, -21.53400
  11800, 155.00000, -0.25000, -33.31699
  11801, 155.00000, -1.03125, -31.96382
  11802, 155.00000, -1.81250, -30.61066
  11803, 155.00000, -2.59375, -29.25749
  11804, 155.00000, -3.37500, -27.90433
  11805, 155.00000, -4.15625, -26.55116
  11806, 155.00000, -4.93750, -25.19800
  11807, 155.00000, -5.71875, -23.84483
  11808, 155.00000, -6.50000, -22.49167
  11809, 155.00000, -0.32139, -33.36698
  11810, 155.00000, -1.32575, -32.17003
  11811, 155.00000, -2.33011, -30.97309
  11812, 155.00000, -3.33446, -29.77614
  11813, 155.00000, -4.33882, -28.57920
  11814, 155.00000, -5.34317, -27.38226
  11815, 155.00000, -6.34753, -26.18531
  11816, 155.00000, -7.35188, -24.98837
  11817, 155.00000, -8.35624, -23.79142
  11818, 155.00000, -0.38302, -33.42861
  11819, 155.00000, -1.57997, -32.42425
  11820, 155.00000, -2.77691, -31.41989
  11821, 155.00000, -3.97386, -30.41554
  11822, 155.00000, -5.17080, -29.41118
  11823, 155.00000, -6.36774, -28.40683
  11824, 155.00000, -7.56469, -27.40247
  11825, 155.00000, -8.76163, -26.39812
  11826, 155.00000, -9.95858, -25.39376
  11827, 155.00000, -0.43301, -33.50000
  11828, 155.00000, -1.78618, -32.71875
  11829, 155.00000, -3.13934, -31.93750
  11830, 155.00000, -4.49251, -31.15625
  11831, 155.00000, -5.84567, -30.37500
  11832, 155.00000, -7.19884, -29.59375
  11833, 155.00000, -8.55200, -28.81250
  11834, 155.00000, -9.90517, -28.03125
  11835, 155.00000, -11.25833, -27.25000
  11836, 155.00000, -0.46985, -33.57899
  11837, 155.00000, -1.93812, -33.04458
  11838, 155.00000, -3.40639, -32.51018
  11839, 155.00000, -4.87466, -31.97577
  11840, 155.00000, -6.34293, -31.44136
  11841, 155.00000, -7.81119, -30.90696
  11842, 155.00000, -9.27946, -30.37255
  11843, 155.00000, -10.74773, -29.83814
  11844, 155.00000, -12.21600, -29.30374
  11845, 155.00000, -0.49240, -33.66318
  11846, 155.00000, -2.03117, -33.39185
  11847, 155.00000, -3.56993, -33.12053
  11848, 155.00000, -5.10869, -32.84920
  11849, 155.00000, -6.64745, -32.57787
  11850, 155.00000, -8.18621, -32.30655
  11851, 155.00000, -9.72498, -32.03522
  11852, 155.00000, -11.26374, -31.76390
  11853, 155.00000, -12.80250, -31.49257
  11854, 155.00000, -0.50000, -33.75000
  11855, 155.00000, -2.06250, -33.75000
  11856, 155.00000, -3.62500, -33.75000
  11857, 155.00000, -5.18750, -33.75000
  11858, 155.00000, -6.75000, -33.75000
  11859, 155.00000, -8.31250, -33.75000
  11860, 155.00000, -9.87500, -33.75000
  11861, 155.00000, -11.43750, -33.75000
  11862, 155.00000, -13.00000, -33.75000
  11863, 155.00000, -0.49240, -33.83682
  11864, 155.00000, -2.03117, -34.10815
  11865, 155.00000, -3.56993, -34.37947
  11866, 155.00000, -5.10869, -34.65080
  11867, 155.00000, -6.64745, -34.92213
  11868, 155.00000, -8.18621, -35.19345
  11869, 155.00000, -9.72498, -35.46478
  11870, 155.00000, -11.26374, -35.73610
  11871, 155.00000, -12.80250, -36.00743
  11872, 155.00000, -0.46985, -33.92101
  11873, 155.00000, -1.93812, -34.45542
  11874, 155.00000, -3.40639, -34.98982
  11875, 155.00000, -4.87466, -35.52423
  11876, 155.00000, -6.34293, -36.05864
  11877, 155.00000, -7.81119, -36.59304
  11878, 155.00000, -9.27946, -37.12745
  11879, 155.00000, -10.74773, -37.66186
  11880, 155.00000, -12.21600, -38.19626
  11881, 155.00000, -0.43301, -34.00000
  11882, 155.00000, -1.78618, -34.78125
  11883, 155.00000, -3.13934, -35.56250
  11884, 155.00000, -4.49251, -36.34375
  11885, 155.00000, -5.84567, -37.12500
  11886, 155.00000, -7.19884, -37.90625
  11887, 155.00000, -8.55200, -38.68750
  11888, 155.00000, -9.90517, -39.46875
  11889, 155.00000, -11.25833, -40.25000
  11890, 155.00000, -0.38302, -34.07139
  11891, 155.00000, -1.57997, -35.07575
  11892, 155.00000, -2.77691, -36.08011
  11893, 155.00000, -3.97386, -37.08446
  11894, 155.00000, -5.17080, -38.08882
  11895, 155.00000, -6.36774, -39.09317
  11896, 155.00000, -7.56469, -40.09753
  11897, 155.00000, -8.76163, -41.10188
  11898, 155.00000, -9.95858, -42.10624
  11899, 155.00000, -0.32139, -34.13302
  11900, 155.00000, -1.32575, -35.32997
  11901, 155.00000, -2.33011, -36.52691
  11902, 155.00000, -3.33446, -37.72386
  11903, 155.00000, -4.33882, -38.92080
  11904, 155.00000, -5.34317, -40.11774
  11905, 155.00000, -6.34753, -41.31469
  11906, 155.00000, -7.35188, -42.51163
  11907, 155.00000, -8.35624, -43.70858
  11908, 155.00000, -0.25000, -34.18301
  11909, 155.00000, -1.03125, -35.53618
  11910, 155.00000, -1.81250, -36.88934
  11911, 155.00000, -2.59375, -38.24251
  11912, 155.00000, -3.37500, -39.59567
  11913, 155.00000, -4.15625, -40.94884
  11914, 155.00000, -4.93750, -42.30200
  11915, 155.00000, -5.71875, -43.65517
  11916, 155.00000, -6.50000, -45.00833
  11917, 155.00000, -0.17101, -34.21985
  11918, 155.00000, -0.70542, -35.68812
  11919, 155.00000, -1.23982, -37.15639
  11920, 155.00000, -1.77423, -38.62466
  11921, 155.00000, -2.30864, -40.09293
  11922, 155.00000, -2.84304, -41.56119
  11923, 155.00000, -3.37745, -43.02946
  11924, 155.00000, -3.91186, -44.49773
  11925, 155.00000, -4.44626, -45.96600
  11926, 155.00000, -0.08682, -34.24240
  11927, 155.00000, -0.35815, -35.78117
  11928, 155.00000, -0.62947, -37.31993
  11929, 155.00000, -0.90080, -38.85869
  11930, 155.00000, -1.17213, -40.39745
  11931, 155.00000, -1.44345, -41.93621
  11932, 155.00000, -1.71478, -43.47498
  11933, 155.00000, -1.98610, -45.01374
  11934, 155.00000, -2.25743, -46.55250
  11935, 155.00000, -0.00000, -34.25000
  11936, 155.00000, -0.00000, -35.81250
  11937, 155.00000, -0.00000, -37.37500
  11938, 155.00000, -0.00000, -38.93750
  11939, 155.00000, -0.00000, -40.50000
  11940, 155.00000, -0.00000, -42.06250
  11941, 155.00000, -0.00000, -43.62500
  11942, 155.00000, -0.00000, -45.18750
  11943, 155.00000, -0.00000, -46.75000
  11944, 155.00000, 0.08682, -34.24240
  11945, 155.00000, 0.35815, -35.78117
  11946, 155.00000, 0.62947, -37.31993
  11947, 155.00000, 0.90080, -38.85869
  11948, 155.00000, 1.17213, -40.39745
  11949, 155.00000, 1.44345, -41.93621
  11950, 155.00000, 1.71478, -43.47498
  11951, 155.00000, 1.98610, -45.01374
  11952, 155.00000, 2.25743, -46.55250
  11953, 155.00000, 0.17101, -34.21985
  11954, 155.00000, 0.70542, -35.68812
  11955, 155.00000, 1.23982, -37.15639
  11956, 155.00000, 1.77423, -38.62466
  11957, 155.00000, 2.30864, -40.09293
  11958, 155.00000, 2.84304, -41.56119
  11959, 155.00000, 3.37745, -43.02946
  11960, 155.00000, 3.91186, -44.49773
  11961, 155.00000, 4.44626, -45.96600
  11962, 155.00000, 0.25000, -34.18301
  11963, 155.00000, 1.03125, -35.53618
  11964, 155.00000, 1.81250, -36.88934
  11965, 155.00000, 2.59375, -38.24251
  11966, 155.00000, 3.37500, -39.59567
  11967, 155.00000, 4.15625, -40.94884
  11968, 155.00000, 4.93750, -42.30200
  11969, 155.00000, 5.71875, -43.65517
  11970, 155.00000, 6.50000, -45.00833
  11971, 155.00000, 0.32139, -34.13302
  11972, 155.00000, 1.32575, -35.32997
  11973, 155.00000, 2.33011, -36.52691
  11974, 155.00000, 3.33446, -37.72386
  11975, 155.00000, 4.33882, -38.92080
  11976, 155.00000, 5.34317, -40.11774
  11977, 155.00000, 6.34753, -41.31469
  11978, 155.00000, 7.35188, -42.51163
  11979, 155.00000, 8.35624, -43.70858
  11980, 155.00000, 0.38302, -34.07139
  11981, 155.00000, 1.57997, -35.07575
  11982, 155.00000, 2.77691, -36.08011
  11983, 155.00000, 3.97386, -37.08446
  11984, 155.00000, 5.17080, -38.08882
  11985, 155.00000, 6.36774, -39.09317
  11986, 155.00000, 7.56469, -40.09753
  11987, 155.00000, 8.76163, -41.10188
  11988, 155.00000, 9.95858, -42.10624
  11989, 155.00000, 0.43301, -34.00000
  11990, 155.00000, 1.78618, -34.78125
  11991, 155.00000, 3.13934, -35.56250
  11992, 155.00000, 4.49251, -36.34375
  11993, 155.00000, 5.84567, -37.12500
  11994, 155.00000, 7.19884, -37.90625
  11995, 155.00000, 8.55200, -38.68750
  11996, 155.00000, 9.90517, -39.46875
  11997, 155.00000, 11.25833, -40.25000
  11998, 155.00000, 0.46985, -33.92101
  11999, 155.00000, 1.93812, -34.45542
  12000, 155.00000, 3.40639, -34.98982
  12001, 155.00000, 4.87466, -35.52423
  12002, 155.00000, 6.34293, -36.05864
  12003, 155.00000, 7.81119, -36.59304
  12004, 155.00000, 9.27946, -37.12745
  12005, 155.00000, 10.74773, -37.66186
  12006, 155.00000, 12.21600, -38.19626
  12007, 155.00000, 0.49240, -33.83682
  12008, 155.00000, 2.03117, -34.10815
  12009, 155.00000, 3.56993, -34.37947
  12010, 155.00000, 5.10869, -34.65080
  12011, 155.00000, 6.64745, -34.92213
  12012, 155.00000, 8.18621, -35.19345
  12013, 155.00000, 9.72498, -35.46478
  12014, 155.00000, 11.26374, -35.73610
  12015, 155.00000, 12.80250, -36.00743
  12016, 155.00000, 0.50000, -33.75000
  12017, 155.00000, 2.06250, -33.75000
  12018, 155.00000, 3.62500, -33.75000
  12019, 155.00000, 5.18750, -33.75000
  12020, 155.00000, 6.75000, -33.75000
  12021, 155.00000, 8.31250, -33.75000
  12022, 155.00000, 9.87500, -33.75000
  12023, 155.00000, 11.43750, -33.75000
  12024, 155.00000, 13.00000, -33.75000
  12025, 160.00000, 0.50000, -33.75000
  12026, 160.00000, 2.06250, -33.75000
  12027, 160.00000, 3.62500, -33.75000
  12028, 160.00000, 5.18750, -33.75000
  12029, 160.00000, 6.75000, -33.75000
  12030, 160.00000, 8.31250, -33.75000
  12031, 160.00000, 9.87500, -33.75000
  12032, 160.00000, 11.43750, -33.75000
  12033, 160.00000, 13.00000, -33.75000
  12034, 160.00000, 0.49240, -33.66318
  12035, 160.00000, 2.03117, -33.39185
  12036, 160.00000, 3.56993, -33.12053
  12037, 160.00000, 5.10869, -32.84920
  12038, 160.00000, 6.64745, -32.57787
  12039, 160.00000, 8.18621, -32.30655
  12040, 160.00000, 9.72498, -32.03522
  12041, 160.00000, 11.26374, -31.76390
  12042, 160.00000, 12.80250, -31.49257
  12043, 160.00000, 0.46985, -33.57899
  12044, 160.00000, 1.93812, -33.04458
  12045, 160.00000, 3.40639, -32.51018
  12046, 160.00000, 4.87466, -31.97577
  12047, 160.00000, 6.34293, -31.44136
  12048, 160.00000, 7.81119, -30.90696
  12049, 160.00000, 9.27946, -30.37255
  12050, 160.00000, 10.74773, -29.83814
  12051, 160.00000, 12.21600, -29.30374
  12052, 160.00000, 0.43301, -33.50000
  12053, 160.00000, 1.78618, -32.71875
  12054, 160.00000, 3.13934, -31.93750
  12055, 160.00000, 4.49251, -31.15625
  12056, 160.00000, 5.84567, -30.37500
  12057, 160.00000, 7.19884, -29.59375
  12058, 160.00000, 8.55200, -28.81250
  12059, 160.00000, 9.90517, -28.03125
  12060, 160.00000, 11.25833, -27.25000
  12061, 160.00000, 0.38302, -33.42861
  12062, 160.00000, 1.57997, -32.42425
  12063, 160.00000, 2.77691, -31.41989
  12064, 160.00000, 3.97386, -30.41554
  12065, 160.00000, 5.17080, -29.41118
  12066, 160.00000, 6.36774, -28.40683
  12067, 160.00000, 7.56469, -27.40247
  12068, 160.00000, 8.76163, -26.39812
  12069, 160.00000, 9.95858, -25.39376
  12070, 160.00000, 0.32139, -33.36698
  12071, 160.00000, 1.32575, -32.17003
  12072, 160.00000, 2.33011, -30.97309
  12073, 160.00000, 3.33446, -29.77614
  12074, 160.00000, 4.33882, -28.57920
  12075, 160.00000, 5.34317, -27.38226
  12076, 160.00000, 6.34753, -26.18531
  12077, 160.00000, 7.35188, -24.98837
  12078, 160.00000, 8.35624, -23.79142
  12079, 160.00000, 0.25000, -33.31699
  12080, 160.00000, 1.03125, -31.96382
  12081, 160.00000, 1.81250, -30.61066
  12082, 160.00000, 2.59375, -29.25749
  12083, 160.00000, 3.37500, -27.90433
  12084, 160.00000, 4.15625, -26.55116
  12085, 160.00000, 4.93750, -25.19800
  12086, 160.00000, 5.71875, -23.84483
  12087, 160.00000, 6.50000, -22.49167
  12088, 160.00000, 0.17101, -33.28015
  12089, 160.00000, 0.70542, -31.81188
  12090, 160.00000, 1.23982, -30.34361
  12091, 160.00000, 1.77423, -28.87534
  12092, 160.00000, 2.30864, -27.40707
  12093, 160.00000, 2.84304, -25.93881
  12094, 160.00000, 3.37745, -24.47054
  12095, 160.00000, 3.91186, -23.00227
  12096, 160.00000, 4.44626, -21.53400
  12097, 160.00000, 0.08682, -33.25760
  12098, 160.00000, 0.35815, -31.71883
  12099, 160.00000, 0.62947, -30.18007
  12100, 160.00000, 0.90080, -28.64131
  12101, 160.00000, 1.17213, -27.10255
  12102, 160.00000, 1.44345, -25.56379
  12103, 160.00000, 1.71478, -24.02502
  12104, 160.00000, 1.98610, -22.48626
  12105, 160.00000, 2.25743, -20.94750
  12106, 160.00000, 0.00000, -33.25000
  12107, 160.00000, 0.00000, -31.68750
  12108, 160.00000, 0.00000, -30.12500
  12109, 160.00000, 0.00000, -28.56250
  12110, 160.00000, 0.00000, -27.00000
  12111, 160.00000, 0.00000, -25.43750
  12112, 160.00000, 0.00000, -23.87500
  12113, 160.00000, 0.00000, -22.31250
  12114, 160.00000, 0.00000, -20.75000
  12115, 160.00000, -0.08682, -33.25760
  12116, 160.00000, -0.35815, -31.71883
  12117, 160.00000, -0.62947, -30.18007
  12118, 160.00000, -0.90080, -28.64131
  12119, 160.00000, -1.17213, -27.10255
  12120, 160.00000, -1.44345, -25.56379
  12121, 160.00000, -1.71478, -24.02502
  12122, 160.00000, -1.98610, -22.48626
  12123, 160.00000, -2.25743, -20.94750
  12124, 160.00000, -0.17101, -33.28015
  12125, 160.00000, -0.70542, -31.81188
  12126, 160.00000, -1.23982, -30.34361
  12127, 160.00000, -1.77423, -28.87534
  12128, 160.00000, -2.30864, -27.40707
  12129, 160.00000, -2.84304, -25.93881
  12130, 160.00000, -3.37745, -24.47054
  12131, 160.00000, -3.91186, -23.00227
  12132, 160.00000, -4.44626, -21.53400
  12133, 160.00000, -0.25000, -33.31699
  12134, 160.00000, -1.03125, -31.96382
  12135, 160.00000, -1.81250, -30.61066
  12136, 160.00000, -2.59375, -29.25749
  12137, 160.00000, -3.37500, -27.90433
  12138, 160.00000, -4.15625, -26.55116
  12139, 160.00000, -4.93750, -25.19800
  12140, 160.00000, -5.71875, -23.84483
  12141, 160.00000, -6.50000, -22.49167
  12142, 160.00000, -0.32139, -33.36698
  12143, 160.00000, -1.32575, -32.17003
  12144, 160.00000, -2.33011, -30.97309
  12145, 160.00000, -3.33446, -29.77614
  12146, 160.00000, -4.33882, -28.57920
  12147, 160.00000, -5.34317, -27.38226
  12148, 160.00000, -6.34753, -26.18531
  12149, 160.00000, -7.35188, -24.98837
  12150, 160.00000, -8.35624, -23.79142
  12151, 160.00000, -0.38302, -33.42861
  12152, 160.00000, -1.57997, -32.42425
  12153, 160.00000, -2.77691, -31.41989
  12154, 160.00000, -3.97386, -30.41554
  12155, 160.00000, -5.17080, -29.41118
  12156, 160.00000, -6.36774, -28.40683
  12157, 160.00000, -7.56469, -27.40247
  12158, 160.00000, -8.76163, -26.39812
  12159, 160.00000, -9.95858, -25.39376
  12160, 160.00000, -0.43301, -33.50000
  12161, 160.00000, -1.78618, -32.71875
  12162, 160.00000, -3.13934, -31.93750
  12163, 160.00000, -4.49251, -31.15625
  12164, 160.00000, -5.84567, -30.37500
  12165, 160.00000, -7.19884, -29.59375
  12166, 160.00000, -8.55200, -28.81250
  12167, 160.00000, -9.90517, -28.03125
  12168, 160.00000, -11.25833, -27.25000
  12169, 160.00000, -0.46985, -33.57899
  12170, 160.00000, -1.93812, -33.04458
  12171, 160.00000, -3.40639, -32.51018
  12172, 160.00000, -4.87466, -31.97577
  12173, 160.00000, -6.34293, -31.44136
  12174, 160.00000, -7.81119, -30.90696
  12175, 160.00000, -9.27946, -30.37255
  12176, 160.00000, -10.74773, -29.83814
  12177, 160.00000, -12.21600, -29.30374
  12178, 160.00000, -0.49240, -33.66318
  12179, 160.00000, -2.03117, -33.39185
  12180, 160.00000, -3.56993, -33.12053
  12181, 160.00000, -5.10869, -32.84920
  12182, 160.00000, -6.64745, -32.57787
  12183, 160.00000, -8.18621, -32.30655
  12184, 160.00000, -9.72498, -32.03522
  12185, 160.00000, -11.26374, -31.76390
  12186, 160.00000, -12.80250, -31.49257
  12187, 160.00000, -0.50000, -33.75000
  12188, 160.00000, -2.06250, -33.75000
  12189, 160.00000, -3.62500, -33.75000
  12190, 160.00000, -5.18750, -33.75000
  12191, 160.00000, -6.75000, -33.75000
  12192, 160.00000, -8.31250, -33.75000
  12193, 160.00000, -9.87500, -33.75000
  12194, 160.00000, -11.43750, -33.75000
  12195, 160.00000, -13.00000, -33.75000
  12196, 160.00000, -0.49240, -33.83682
  12197, 160.00000, -2.03117, -34.10815
  12198, 160.00000, -3.56993, -34.37947
  12199, 160.00000, -5.10869, -34.65080
  12200, 160.00000, -6.64745, -34.92213
  12201, 160.00000, -8.18621, -35.19345
  12202, 160.00000, -9.72498, -35.46478
  12203, 160.00000, -11.26374, -35.73610
  12204, 160.00000, -12.80250, -36.00743
  12205, 160.00000, -0.46985, -33.92101
  12206, 160.00000, -1.93812, -34.45542
  12207, 160.00000, -3.40639, -34.98982
  12208, 160.00000, -4.87466, -35.52423
  12209, 160.00000, -6.34293, -36.05864
  12210, 160.00000, -7.81119, -36.59304
  12211, 160.00000, -9.27946, -37.12745
  12212, 160.00000, -10.74773, -37.66186
  12213, 160.00000, -12.21600, -38.19626
  12214, 160.00000, -0.43301, -34.00000
  12215, 160.00000, -1.78618, -34.78125
  12216, 160.00000, -3.13934, -35.56250
  12217, 160.00000, -4.49251, -36.34375
  12218, 160.00000, -5.84567, -37.12500
  12219, 160.00000, -7.19884, -37.90625
  12220, 160.00000, -8.55200, -38.68750
  12221, 160.00000, -9.90517, -39.46875
  12222, 160.00000, -11.25833, -40.25000
  12223, 160.00000, -0.38302, -34.07139
  12224, 160.00000, -1.57997, -35.07575
  12225, 160.00000, -2.77691, -36.08011
  12226, 160.00000, -3.97386, -37.08446
  12227, 160.00000, -5.17080, -38.08882
  12228, 160.00000, -6.36774, -39.09317
  12229, 160.00000, -7.56469, -40.09753
  12230, 160.00000, -8.76163, -41.10188
  12231, 160.00000, -9.95858, -42.10624
  12232, 160.00000, -0.32139, -34.13302
  12233, 160.00000, -1.32575, -35.32997
  12234, 160.00000, -2.33011, -36.52691
  12235, 160.00000, -3.33446, -37.72386
  12236, 160.00000, -4.33882, -38.92080
  12237, 160.00000, -5.34317, -40.11774
  12238, 160.00000, -6.34753, -41.31469
  12239, 160.00000, -7.35188, -42.51163
  12240, 160.00000, -8.35624, -43.70858
  12241, 160.00000, -0.25000, -34.18301
  12242, 160.00000, -1.03125, -35.53618
  12243, 160.00000, -1.81250, -36.88934
  12244, 160.00000, -2.59375, -38.24251
  12245, 160.00000, -3.37500, -39.59567
  12246, 160.00000, -4.15625, -40.94884
  12247, 160.00000, -4.93750, -42.30200
  12248, 160.00000, -5.71875, -43.65517
  12249, 160.00000, -6.50000, -45.00833
  12250, 160.00000, -0.17101, -34.21985
  12251, 160.00000, -0.70542, -35.68812
  12252, 160.00000, -1.23982, -37.15639
  12253, 160.00000, -1.77423, -38.62466
  12254, 160.00000, -2.30864, -40.09293
  12255, 160.00000, -2.84304, -41.56119
  12256, 160.00000, -3.37745, -43.02946
  12257, 160.00000, -3.91186, -44.49773
  12258, 160.00000, -4.44626, -45.96600
  12259, 160.00000, -0.08682, -34.24240
  12260, 160.00000, -0.35815, -35.78117
  12261, 160.00000, -0.62947, -37.31993
  12262, 160.00000, -0.90080, -38.85869
  12263, 160.00000, -1.17213, -40.39745
  12264, 160.00000, -1.44345, -41.93621
  12265, 160.00000, -1.71478, -43.47498
  12266, 160.00000, -1.98610, -45.01374
  12267, 160.00000, -2.25743, -46.55250
  12268, 160.00000, -0.00000, -34.25000
  12269, 160.00000, -0.00000, -35.81250
  12270, 160.00000, -0.00000, -37.37500
  12271, 160.00000, -0.00000, -38.93750
  12272, 160.00000, -0.00000, -40.50000
  12273, 160.00000, -0.00000, -42.06250
  12274, 160.00000, -0.00000, -43.62500
  12275, 160.00000, -0.00000, -45.18750
  12276, 160.00000, -0.00000, -46.75000
  12277, 160.00000, 0.08682, -34.24240
  12278, 160.00000, 0.35815, -35.78117
  12279, 160.00000, 0.62947, -37.31993
  12280, 160.00000, 0.90080, -38.85869
  12281, 160.00000, 1.17213, -40.39745
  12282, 160.00000, 1.44345, -41.93621
  12283, 160.00000, 1.71478, -43.47498
  12284, 160.00000, 1.98610, -45.01374
  12285, 160.00000, 2.25743, -46.55250
  12286, 160.00000, 0.17101, -34.21985
  12287, 160.00000, 0.70542, -35.68812
  12288, 160.00000, 1.23982, -37.15639
  12289, 160.00000, 1.77423, -38.62466
  12290, 160.00000, 2.30864, -40.09293
  12291, 160.00000, 2.84304, -41.56119
  12292, 160.00000, 3.37745, -43.02946
  12293, 160.00000, 3.91186, -44.49773
  12294, 160.00000, 4.44626, -45.96600
  12295, 160.00000, 0.25000, -34.18301
  12296, 160.00000, 1.03125, -35.53618
  12297, 160.00000, 1.81250, -36.88934
  12298, 160.00000, 2.59375, -38.24251
  12299, 160.00000, 3.37500, -39.59567
  12300, 160.00000, 4.15625, -40.94884
  12301, 160.00000, 4.93750, -42.30200
  12302, 160.00000, 5.71875, -43.65517
  12303, 160.00000, 6.50000, -45.00833
  12304, 160.00000, 0.32139, -34.13302
  12305, 160.00000, 1.32575, -35.32997
  12306, 160.00000, 2.33011, -36.52691
  12307, 160.00000, 3.33446, -37.72386
  12308, 160.00000, 4.33882, -38.92080
  12309, 160.00000, 5.34317, -40.11774
  12310, 160.00000, 6.34753, -41.31469
  12311, 160.00000, 7.35188, -42.51163
  12312, 160.00000, 8.35624, -43.70858
  12313, 160.00000, 0.38302, -34.07139
  12314, 160.00000, 1.57997, -35.07575
  12315, 160.00000, 2.77691, -36.08011
  12316, 160.00000, 3.97386, -37.08446
  12317, 160.00000, 5.17080, -38.08882
  12318, 160.00000, 6.36774, -39.09317
  12319, 160.00000, 7.56469, -40.09753
  12320, 160.00000, 8.76163, -41.10188
  12321, 160.00000, 9.95858, -42.10624
  12322, 160.00000, 0.43301, -34.00000
  12323, 160.00000, 1.78618, -34.78125
  12324, 160.00000, 3.13934, -35.56250
  12325, 160.00000, 4.49251, -36.34375
  12326, 160.00000, 5.84567, -37.12500
  12327, 160.00000, 7.19884, -37.90625
  12328, 160.00000, 8.55200, -38.68750
  12329, 160.00000, 9.90517, -39.46875
  12330, 160.00000, 11.25833, -40.25000
  12331, 160.00000, 0.46985, -33.92101
  12332, 160.00000, 1.93812, -34.45542
  12333, 160.00000, 3.40639, -34.98982
  12334, 160.00000, 4.87466, -35.52423
  12335, 160.00000, 6.34293, -36.05864
  12336, 160.00000, 7.81119, -36.59304
  12337, 160.00000, 9.27946, -37.12745
  12338, 160.00000, 10.74773, -37.66186
  12339, 160.00000, 12.21600, -38.19626
  12340, 160.00000, 0.49240, -33.83682
  12341, 160.00000, 2.03117, -34.10815
  12342, 160.00000, 3.56993, -34.37947
  12343, 160.00000, 5.10869, -34.65080
  12344, 160.00000, 6.64745, -34.92213
  12345, 160.00000, 8.18621, -35.19345
  12346, 160.00000, 9.72498, -35.46478
  12347, 160.00000, 11.26374, -35.73610
  12348, 160.00000, 12.80250, -36.00743
  12349, 160.00000, 0.50000, -33.75000
  12350, 160.00000, 2.06250, -33.75000
  12351, 160.00000, 3.62500, -33.75000
  12352, 160.00000, 5.18750, -33.75000
  12353, 160.00000, 6.75000, -33.75000
  12354, 160.00000, 8.31250, -33.75000
  12355, 160.00000, 9.87500, -33.75000
  12356, 160.00000, 11.43750, -33.75000
  12357, 160.00000, 13.00000, -33.75000
*Element, type=C3D8R, ELSET=WPALL
  200000, 1369, 1370, 1379, 1378, 1702, 1703, 1712, 1711
  200001, 1370, 1371, 1380, 1379, 1703, 1704, 1713, 1712
  200002, 1371, 1372, 1381, 1380, 1704, 1705, 1714, 1713
  200003, 1372, 1373, 1382, 1381, 1705, 1706, 1715, 1714
  200004, 1373, 1374, 1383, 1382, 1706, 1707, 1716, 1715
  200005, 1374, 1375, 1384, 1383, 1707, 1708, 1717, 1716
  200006, 1375, 1376, 1385, 1384, 1708, 1709, 1718, 1717
  200007, 1376, 1377, 1386, 1385, 1709, 1710, 1719, 1718
  200008, 1378, 1379, 1388, 1387, 1711, 1712, 1721, 1720
  200009, 1379, 1380, 1389, 1388, 1712, 1713, 1722, 1721
  200010, 1380, 1381, 1390, 1389, 1713, 1714, 1723, 1722
  200011, 1381, 1382, 1391, 1390, 1714, 1715, 1724, 1723
  200012, 1382, 1383, 1392, 1391, 1715, 1716, 1725, 1724
  200013, 1383, 1384, 1393, 1392, 1716, 1717, 1726, 1725
  200014, 1384, 1385, 1394, 1393, 1717, 1718, 1727, 1726
  200015, 1385, 1386, 1395, 1394, 1718, 1719, 1728, 1727
  200016, 1387, 1388, 1397, 1396, 1720, 1721, 1730, 1729
  200017, 1388, 1389, 1398, 1397, 1721, 1722, 1731, 1730
  200018, 1389, 1390, 1399, 1398, 1722, 1723, 1732, 1731
  200019, 1390, 1391, 1400, 1399, 1723, 1724, 1733, 1732
  200020, 1391, 1392, 1401, 1400, 1724, 1725, 1734, 1733
  200021, 1392, 1393, 1402, 1401, 1725, 1726, 1735, 1734
  200022, 1393, 1394, 1403, 1402, 1726, 1727, 1736, 1735
  200023, 1394, 1395, 1404, 1403, 1727, 1728, 1737, 1736
  200024, 1396, 1397, 1406, 1405, 1729, 1730, 1739, 1738
  200025, 1397, 1398, 1407, 1406, 1730, 1731, 1740, 1739
  200026, 1398, 1399, 1408, 1407, 1731, 1732, 1741, 1740
  200027, 1399, 1400, 1409, 1408, 1732, 1733, 1742, 1741
  200028, 1400, 1401, 1410, 1409, 1733, 1734, 1743, 1742
  200029, 1401, 1402, 1411, 1410, 1734, 1735, 1744, 1743
  200030, 1402, 1403, 1412, 1411, 1735, 1736, 1745, 1744
  200031, 1403, 1404, 1413, 1412, 1736, 1737, 1746, 1745
  200032, 1405, 1406, 1415, 1414, 1738, 1739, 1748, 1747
  200033, 1406, 1407, 1416, 1415, 1739, 1740, 1749, 1748
  200034, 1407, 1408, 1417, 1416, 1740, 1741, 1750, 1749
  200035, 1408, 1409, 1418, 1417, 1741, 1742, 1751, 1750
  200036, 1409, 1410, 1419, 1418, 1742, 1743, 1752, 1751
  200037, 1410, 1411, 1420, 1419, 1743, 1744, 1753, 1752
  200038, 1411, 1412, 1421, 1420, 1744, 1745, 1754, 1753
  200039, 1412, 1413, 1422, 1421, 1745, 1746, 1755, 1754
  200040, 1414, 1415, 1424, 1423, 1747, 1748, 1757, 1756
  200041, 1415, 1416, 1425, 1424, 1748, 1749, 1758, 1757
  200042, 1416, 1417, 1426, 1425, 1749, 1750, 1759, 1758
  200043, 1417, 1418, 1427, 1426, 1750, 1751, 1760, 1759
  200044, 1418, 1419, 1428, 1427, 1751, 1752, 1761, 1760
  200045, 1419, 1420, 1429, 1428, 1752, 1753, 1762, 1761
  200046, 1420, 1421, 1430, 1429, 1753, 1754, 1763, 1762
  200047, 1421, 1422, 1431, 1430, 1754, 1755, 1764, 1763
  200048, 1423, 1424, 1433, 1432, 1756, 1757, 1766, 1765
  200049, 1424, 1425, 1434, 1433, 1757, 1758, 1767, 1766
  200050, 1425, 1426, 1435, 1434, 1758, 1759, 1768, 1767
  200051, 1426, 1427, 1436, 1435, 1759, 1760, 1769, 1768
  200052, 1427, 1428, 1437, 1436, 1760, 1761, 1770, 1769
  200053, 1428, 1429, 1438, 1437, 1761, 1762, 1771, 1770
  200054, 1429, 1430, 1439, 1438, 1762, 1763, 1772, 1771
  200055, 1430, 1431, 1440, 1439, 1763, 1764, 1773, 1772
  200056, 1432, 1433, 1442, 1441, 1765, 1766, 1775, 1774
  200057, 1433, 1434, 1443, 1442, 1766, 1767, 1776, 1775
  200058, 1434, 1435, 1444, 1443, 1767, 1768, 1777, 1776
  200059, 1435, 1436, 1445, 1444, 1768, 1769, 1778, 1777
  200060, 1436, 1437, 1446, 1445, 1769, 1770, 1779, 1778
  200061, 1437, 1438, 1447, 1446, 1770, 1771, 1780, 1779
  200062, 1438, 1439, 1448, 1447, 1771, 1772, 1781, 1780
  200063, 1439, 1440, 1449, 1448, 1772, 1773, 1782, 1781
  200064, 1441, 1442, 1451, 1450, 1774, 1775, 1784, 1783
  200065, 1442, 1443, 1452, 1451, 1775, 1776, 1785, 1784
  200066, 1443, 1444, 1453, 1452, 1776, 1777, 1786, 1785
  200067, 1444, 1445, 1454, 1453, 1777, 1778, 1787, 1786
  200068, 1445, 1446, 1455, 1454, 1778, 1779, 1788, 1787
  200069, 1446, 1447, 1456, 1455, 1779, 1780, 1789, 1788
  200070, 1447, 1448, 1457, 1456, 1780, 1781, 1790, 1789
  200071, 1448, 1449, 1458, 1457, 1781, 1782, 1791, 1790
  200072, 1450, 1451, 1460, 1459, 1783, 1784, 1793, 1792
  200073, 1451, 1452, 1461, 1460, 1784, 1785, 1794, 1793
  200074, 1452, 1453, 1462, 1461, 1785, 1786, 1795, 1794
  200075, 1453, 1454, 1463, 1462, 1786, 1787, 1796, 1795
  200076, 1454, 1455, 1464, 1463, 1787, 1788, 1797, 1796
  200077, 1455, 1456, 1465, 1464, 1788, 1789, 1798, 1797
  200078, 1456, 1457, 1466, 1465, 1789, 1790, 1799, 1798
  200079, 1457, 1458, 1467, 1466, 1790, 1791, 1800, 1799
  200080, 1459, 1460, 1469, 1468, 1792, 1793, 1802, 1801
  200081, 1460, 1461, 1470, 1469, 1793, 1794, 1803, 1802
  200082, 1461, 1462, 1471, 1470, 1794, 1795, 1804, 1803
  200083, 1462, 1463, 1472, 1471, 1795, 1796, 1805, 1804
  200084, 1463, 1464, 1473, 1472, 1796, 1797, 1806, 1805
  200085, 1464, 1465, 1474, 1473, 1797, 1798, 1807, 1806
  200086, 1465, 1466, 1475, 1474, 1798, 1799, 1808, 1807
  200087, 1466, 1467, 1476, 1475, 1799, 1800, 1809, 1808
  200088, 1468, 1469, 1478, 1477, 1801, 1802, 1811, 1810
  200089, 1469, 1470, 1479, 1478, 1802, 1803, 1812, 1811
  200090, 1470, 1471, 1480, 1479, 1803, 1804, 1813, 1812
  200091, 1471, 1472, 1481, 1480, 1804, 1805, 1814, 1813
  200092, 1472, 1473, 1482, 1481, 1805, 1806, 1815, 1814
  200093, 1473, 1474, 1483, 1482, 1806, 1807, 1816, 1815
  200094, 1474, 1475, 1484, 1483, 1807, 1808, 1817, 1816
  200095, 1475, 1476, 1485, 1484, 1808, 1809, 1818, 1817
  200096, 1477, 1478, 1487, 1486, 1810, 1811, 1820, 1819
  200097, 1478, 1479, 1488, 1487, 1811, 1812, 1821, 1820
  200098, 1479, 1480, 1489, 1488, 1812, 1813, 1822, 1821
  200099, 1480, 1481, 1490, 1489, 1813, 1814, 1823, 1822
  200100, 1481, 1482, 1491, 1490, 1814, 1815, 1824, 1823
  200101, 1482, 1483, 1492, 1491, 1815, 1816, 1825, 1824
  200102, 1483, 1484, 1493, 1492, 1816, 1817, 1826, 1825
  200103, 1484, 1485, 1494, 1493, 1817, 1818, 1827, 1826
  200104, 1486, 1487, 1496, 1495, 1819, 1820, 1829, 1828
  200105, 1487, 1488, 1497, 1496, 1820, 1821, 1830, 1829
  200106, 1488, 1489, 1498, 1497, 1821, 1822, 1831, 1830
  200107, 1489, 1490, 1499, 1498, 1822, 1823, 1832, 1831
  200108, 1490, 1491, 1500, 1499, 1823, 1824, 1833, 1832
  200109, 1491, 1492, 1501, 1500, 1824, 1825, 1834, 1833
  200110, 1492, 1493, 1502, 1501, 1825, 1826, 1835, 1834
  200111, 1493, 1494, 1503, 1502, 1826, 1827, 1836, 1835
  200112, 1495, 1496, 1505, 1504, 1828, 1829, 1838, 1837
  200113, 1496, 1497, 1506, 1505, 1829, 1830, 1839, 1838
  200114, 1497, 1498, 1507, 1506, 1830, 1831, 1840, 1839
  200115, 1498, 1499, 1508, 1507, 1831, 1832, 1841, 1840
  200116, 1499, 1500, 1509, 1508, 1832, 1833, 1842, 1841
  200117, 1500, 1501, 1510, 1509, 1833, 1834, 1843, 1842
  200118, 1501, 1502, 1511, 1510, 1834, 1835, 1844, 1843
  200119, 1502, 1503, 1512, 1511, 1835, 1836, 1845, 1844
  200120, 1504, 1505, 1514, 1513, 1837, 1838, 1847, 1846
  200121, 1505, 1506, 1515, 1514, 1838, 1839, 1848, 1847
  200122, 1506, 1507, 1516, 1515, 1839, 1840, 1849, 1848
  200123, 1507, 1508, 1517, 1516, 1840, 1841, 1850, 1849
  200124, 1508, 1509, 1518, 1517, 1841, 1842, 1851, 1850
  200125, 1509, 1510, 1519, 1518, 1842, 1843, 1852, 1851
  200126, 1510, 1511, 1520, 1519, 1843, 1844, 1853, 1852
  200127, 1511, 1512, 1521, 1520, 1844, 1845, 1854, 1853
  200128, 1513, 1514, 1523, 1522, 1846, 1847, 1856, 1855
  200129, 1514, 1515, 1524, 1523, 1847, 1848, 1857, 1856
  200130, 1515, 1516, 1525, 1524, 1848, 1849, 1858, 1857
  200131, 1516, 1517, 1526, 1525, 1849, 1850, 1859, 1858
  200132, 1517, 1518, 1527, 1526, 1850, 1851, 1860, 1859
  200133, 1518, 1519, 1528, 1527, 1851, 1852, 1861, 1860
  200134, 1519, 1520, 1529, 1528, 1852, 1853, 1862, 1861
  200135, 1520, 1521, 1530, 1529, 1853, 1854, 1863, 1862
  200136, 1522, 1523, 1532, 1531, 1855, 1856, 1865, 1864
  200137, 1523, 1524, 1533, 1532, 1856, 1857, 1866, 1865
  200138, 1524, 1525, 1534, 1533, 1857, 1858, 1867, 1866
  200139, 1525, 1526, 1535, 1534, 1858, 1859, 1868, 1867
  200140, 1526, 1527, 1536, 1535, 1859, 1860, 1869, 1868
  200141, 1527, 1528, 1537, 1536, 1860, 1861, 1870, 1869
  200142, 1528, 1529, 1538, 1537, 1861, 1862, 1871, 1870
  200143, 1529, 1530, 1539, 1538, 1862, 1863, 1872, 1871
  200144, 1531, 1532, 1541, 1540, 1864, 1865, 1874, 1873
  200145, 1532, 1533, 1542, 1541, 1865, 1866, 1875, 1874
  200146, 1533, 1534, 1543, 1542, 1866, 1867, 1876, 1875
  200147, 1534, 1535, 1544, 1543, 1867, 1868, 1877, 1876
  200148, 1535, 1536, 1545, 1544, 1868, 1869, 1878, 1877
  200149, 1536, 1537, 1546, 1545, 1869, 1870, 1879, 1878
  200150, 1537, 1538, 1547, 1546, 1870, 1871, 1880, 1879
  200151, 1538, 1539, 1548, 1547, 1871, 1872, 1881, 1880
  200152, 1540, 1541, 1550, 1549, 1873, 1874, 1883, 1882
  200153, 1541, 1542, 1551, 1550, 1874, 1875, 1884, 1883
  200154, 1542, 1543, 1552, 1551, 1875, 1876, 1885, 1884
  200155, 1543, 1544, 1553, 1552, 1876, 1877, 1886, 1885
  200156, 1544, 1545, 1554, 1553, 1877, 1878, 1887, 1886
  200157, 1545, 1546, 1555, 1554, 1878, 1879, 1888, 1887
  200158, 1546, 1547, 1556, 1555, 1879, 1880, 1889, 1888
  200159, 1547, 1548, 1557, 1556, 1880, 1881, 1890, 1889
  200160, 1549, 1550, 1559, 1558, 1882, 1883, 1892, 1891
  200161, 1550, 1551, 1560, 1559, 1883, 1884, 1893, 1892
  200162, 1551, 1552, 1561, 1560, 1884, 1885, 1894, 1893
  200163, 1552, 1553, 1562, 1561, 1885, 1886, 1895, 1894
  200164, 1553, 1554, 1563, 1562, 1886, 1887, 1896, 1895
  200165, 1554, 1555, 1564, 1563, 1887, 1888, 1897, 1896
  200166, 1555, 1556, 1565, 1564, 1888, 1889, 1898, 1897
  200167, 1556, 1557, 1566, 1565, 1889, 1890, 1899, 1898
  200168, 1558, 1559, 1568, 1567, 1891, 1892, 1901, 1900
  200169, 1559, 1560, 1569, 1568, 1892, 1893, 1902, 1901
  200170, 1560, 1561, 1570, 1569, 1893, 1894, 1903, 1902
  200171, 1561, 1562, 1571, 1570, 1894, 1895, 1904, 1903
  200172, 1562, 1563, 1572, 1571, 1895, 1896, 1905, 1904
  200173, 1563, 1564, 1573, 1572, 1896, 1897, 1906, 1905
  200174, 1564, 1565, 1574, 1573, 1897, 1898, 1907, 1906
  200175, 1565, 1566, 1575, 1574, 1898, 1899, 1908, 1907
  200176, 1567, 1568, 1577, 1576, 1900, 1901, 1910, 1909
  200177, 1568, 1569, 1578, 1577, 1901, 1902, 1911, 1910
  200178, 1569, 1570, 1579, 1578, 1902, 1903, 1912, 1911
  200179, 1570, 1571, 1580, 1579, 1903, 1904, 1913, 1912
  200180, 1571, 1572, 1581, 1580, 1904, 1905, 1914, 1913
  200181, 1572, 1573, 1582, 1581, 1905, 1906, 1915, 1914
  200182, 1573, 1574, 1583, 1582, 1906, 1907, 1916, 1915
  200183, 1574, 1575, 1584, 1583, 1907, 1908, 1917, 1916
  200184, 1576, 1577, 1586, 1585, 1909, 1910, 1919, 1918
  200185, 1577, 1578, 1587, 1586, 1910, 1911, 1920, 1919
  200186, 1578, 1579, 1588, 1587, 1911, 1912, 1921, 1920
  200187, 1579, 1580, 1589, 1588, 1912, 1913, 1922, 1921
  200188, 1580, 1581, 1590, 1589, 1913, 1914, 1923, 1922
  200189, 1581, 1582, 1591, 1590, 1914, 1915, 1924, 1923
  200190, 1582, 1583, 1592, 1591, 1915, 1916, 1925, 1924
  200191, 1583, 1584, 1593, 1592, 1916, 1917, 1926, 1925
  200192, 1585, 1586, 1595, 1594, 1918, 1919, 1928, 1927
  200193, 1586, 1587, 1596, 1595, 1919, 1920, 1929, 1928
  200194, 1587, 1588, 1597, 1596, 1920, 1921, 1930, 1929
  200195, 1588, 1589, 1598, 1597, 1921, 1922, 1931, 1930
  200196, 1589, 1590, 1599, 1598, 1922, 1923, 1932, 1931
  200197, 1590, 1591, 1600, 1599, 1923, 1924, 1933, 1932
  200198, 1591, 1592, 1601, 1600, 1924, 1925, 1934, 1933
  200199, 1592, 1593, 1602, 1601, 1925, 1926, 1935, 1934
  200200, 1594, 1595, 1604, 1603, 1927, 1928, 1937, 1936
  200201, 1595, 1596, 1605, 1604, 1928, 1929, 1938, 1937
  200202, 1596, 1597, 1606, 1605, 1929, 1930, 1939, 1938
  200203, 1597, 1598, 1607, 1606, 1930, 1931, 1940, 1939
  200204, 1598, 1599, 1608, 1607, 1931, 1932, 1941, 1940
  200205, 1599, 1600, 1609, 1608, 1932, 1933, 1942, 1941
  200206, 1600, 1601, 1610, 1609, 1933, 1934, 1943, 1942
  200207, 1601, 1602, 1611, 1610, 1934, 1935, 1944, 1943
  200208, 1603, 1604, 1613, 1612, 1936, 1937, 1946, 1945
  200209, 1604, 1605, 1614, 1613, 1937, 1938, 1947, 1946
  200210, 1605, 1606, 1615, 1614, 1938, 1939, 1948, 1947
  200211, 1606, 1607, 1616, 1615, 1939, 1940, 1949, 1948
  200212, 1607, 1608, 1617, 1616, 1940, 1941, 1950, 1949
  200213, 1608, 1609, 1618, 1617, 1941, 1942, 1951, 1950
  200214, 1609, 1610, 1619, 1618, 1942, 1943, 1952, 1951
  200215, 1610, 1611, 1620, 1619, 1943, 1944, 1953, 1952
  200216, 1612, 1613, 1622, 1621, 1945, 1946, 1955, 1954
  200217, 1613, 1614, 1623, 1622, 1946, 1947, 1956, 1955
  200218, 1614, 1615, 1624, 1623, 1947, 1948, 1957, 1956
  200219, 1615, 1616, 1625, 1624, 1948, 1949, 1958, 1957
  200220, 1616, 1617, 1626, 1625, 1949, 1950, 1959, 1958
  200221, 1617, 1618, 1627, 1626, 1950, 1951, 1960, 1959
  200222, 1618, 1619, 1628, 1627, 1951, 1952, 1961, 1960
  200223, 1619, 1620, 1629, 1628, 1952, 1953, 1962, 1961
  200224, 1621, 1622, 1631, 1630, 1954, 1955, 1964, 1963
  200225, 1622, 1623, 1632, 1631, 1955, 1956, 1965, 1964
  200226, 1623, 1624, 1633, 1632, 1956, 1957, 1966, 1965
  200227, 1624, 1625, 1634, 1633, 1957, 1958, 1967, 1966
  200228, 1625, 1626, 1635, 1634, 1958, 1959, 1968, 1967
  200229, 1626, 1627, 1636, 1635, 1959, 1960, 1969, 1968
  200230, 1627, 1628, 1637, 1636, 1960, 1961, 1970, 1969
  200231, 1628, 1629, 1638, 1637, 1961, 1962, 1971, 1970
  200232, 1630, 1631, 1640, 1639, 1963, 1964, 1973, 1972
  200233, 1631, 1632, 1641, 1640, 1964, 1965, 1974, 1973
  200234, 1632, 1633, 1642, 1641, 1965, 1966, 1975, 1974
  200235, 1633, 1634, 1643, 1642, 1966, 1967, 1976, 1975
  200236, 1634, 1635, 1644, 1643, 1967, 1968, 1977, 1976
  200237, 1635, 1636, 1645, 1644, 1968, 1969, 1978, 1977
  200238, 1636, 1637, 1646, 1645, 1969, 1970, 1979, 1978
  200239, 1637, 1638, 1647, 1646, 1970, 1971, 1980, 1979
  200240, 1639, 1640, 1649, 1648, 1972, 1973, 1982, 1981
  200241, 1640, 1641, 1650, 1649, 1973, 1974, 1983, 1982
  200242, 1641, 1642, 1651, 1650, 1974, 1975, 1984, 1983
  200243, 1642, 1643, 1652, 1651, 1975, 1976, 1985, 1984
  200244, 1643, 1644, 1653, 1652, 1976, 1977, 1986, 1985
  200245, 1644, 1645, 1654, 1653, 1977, 1978, 1987, 1986
  200246, 1645, 1646, 1655, 1654, 1978, 1979, 1988, 1987
  200247, 1646, 1647, 1656, 1655, 1979, 1980, 1989, 1988
  200248, 1648, 1649, 1658, 1657, 1981, 1982, 1991, 1990
  200249, 1649, 1650, 1659, 1658, 1982, 1983, 1992, 1991
  200250, 1650, 1651, 1660, 1659, 1983, 1984, 1993, 1992
  200251, 1651, 1652, 1661, 1660, 1984, 1985, 1994, 1993
  200252, 1652, 1653, 1662, 1661, 1985, 1986, 1995, 1994
  200253, 1653, 1654, 1663, 1662, 1986, 1987, 1996, 1995
  200254, 1654, 1655, 1664, 1663, 1987, 1988, 1997, 1996
  200255, 1655, 1656, 1665, 1664, 1988, 1989, 1998, 1997
  200256, 1657, 1658, 1667, 1666, 1990, 1991, 2000, 1999
  200257, 1658, 1659, 1668, 1667, 1991, 1992, 2001, 2000
  200258, 1659, 1660, 1669, 1668, 1992, 1993, 2002, 2001
  200259, 1660, 1661, 1670, 1669, 1993, 1994, 2003, 2002
  200260, 1661, 1662, 1671, 1670, 1994, 1995, 2004, 2003
  200261, 1662, 1663, 1672, 1671, 1995, 1996, 2005, 2004
  200262, 1663, 1664, 1673, 1672, 1996, 1997, 2006, 2005
  200263, 1664, 1665, 1674, 1673, 1997, 1998, 2007, 2006
  200264, 1666, 1667, 1676, 1675, 1999, 2000, 2009, 2008
  200265, 1667, 1668, 1677, 1676, 2000, 2001, 2010, 2009
  200266, 1668, 1669, 1678, 1677, 2001, 2002, 2011, 2010
  200267, 1669, 1670, 1679, 1678, 2002, 2003, 2012, 2011
  200268, 1670, 1671, 1680, 1679, 2003, 2004, 2013, 2012
  200269, 1671, 1672, 1681, 1680, 2004, 2005, 2014, 2013
  200270, 1672, 1673, 1682, 1681, 2005, 2006, 2015, 2014
  200271, 1673, 1674, 1683, 1682, 2006, 2007, 2016, 2015
  200272, 1675, 1676, 1685, 1684, 2008, 2009, 2018, 2017
  200273, 1676, 1677, 1686, 1685, 2009, 2010, 2019, 2018
  200274, 1677, 1678, 1687, 1686, 2010, 2011, 2020, 2019
  200275, 1678, 1679, 1688, 1687, 2011, 2012, 2021, 2020
  200276, 1679, 1680, 1689, 1688, 2012, 2013, 2022, 2021
  200277, 1680, 1681, 1690, 1689, 2013, 2014, 2023, 2022
  200278, 1681, 1682, 1691, 1690, 2014, 2015, 2024, 2023
  200279, 1682, 1683, 1692, 1691, 2015, 2016, 2025, 2024
  200280, 1684, 1685, 1694, 1693, 2017, 2018, 2027, 2026
  200281, 1685, 1686, 1695, 1694, 2018, 2019, 2028, 2027
  200282, 1686, 1687, 1696, 1695, 2019, 2020, 2029, 2028
  200283, 1687, 1688, 1697, 1696, 2020, 2021, 2030, 2029
  200284, 1688, 1689, 1698, 1697, 2021, 2022, 2031, 2030
  200285, 1689, 1690, 1699, 1698, 2022, 2023, 2032, 2031
  200286, 1690, 1691, 1700, 1699, 2023, 2024, 2033, 2032
  200287, 1691, 1692, 1701, 1700, 2024, 2025, 2034, 2033
  200288, 1702, 1703, 1712, 1711, 2035, 2036, 2045, 2044
  200289, 1703, 1704, 1713, 1712, 2036, 2037, 2046, 2045
  200290, 1704, 1705, 1714, 1713, 2037, 2038, 2047, 2046
  200291, 1705, 1706, 1715, 1714, 2038, 2039, 2048, 2047
  200292, 1706, 1707, 1716, 1715, 2039, 2040, 2049, 2048
  200293, 1707, 1708, 1717, 1716, 2040, 2041, 2050, 2049
  200294, 1708, 1709, 1718, 1717, 2041, 2042, 2051, 2050
  200295, 1709, 1710, 1719, 1718, 2042, 2043, 2052, 2051
  200296, 1711, 1712, 1721, 1720, 2044, 2045, 2054, 2053
  200297, 1712, 1713, 1722, 1721, 2045, 2046, 2055, 2054
  200298, 1713, 1714, 1723, 1722, 2046, 2047, 2056, 2055
  200299, 1714, 1715, 1724, 1723, 2047, 2048, 2057, 2056
  200300, 1715, 1716, 1725, 1724, 2048, 2049, 2058, 2057
  200301, 1716, 1717, 1726, 1725, 2049, 2050, 2059, 2058
  200302, 1717, 1718, 1727, 1726, 2050, 2051, 2060, 2059
  200303, 1718, 1719, 1728, 1727, 2051, 2052, 2061, 2060
  200304, 1720, 1721, 1730, 1729, 2053, 2054, 2063, 2062
  200305, 1721, 1722, 1731, 1730, 2054, 2055, 2064, 2063
  200306, 1722, 1723, 1732, 1731, 2055, 2056, 2065, 2064
  200307, 1723, 1724, 1733, 1732, 2056, 2057, 2066, 2065
  200308, 1724, 1725, 1734, 1733, 2057, 2058, 2067, 2066
  200309, 1725, 1726, 1735, 1734, 2058, 2059, 2068, 2067
  200310, 1726, 1727, 1736, 1735, 2059, 2060, 2069, 2068
  200311, 1727, 1728, 1737, 1736, 2060, 2061, 2070, 2069
  200312, 1729, 1730, 1739, 1738, 2062, 2063, 2072, 2071
  200313, 1730, 1731, 1740, 1739, 2063, 2064, 2073, 2072
  200314, 1731, 1732, 1741, 1740, 2064, 2065, 2074, 2073
  200315, 1732, 1733, 1742, 1741, 2065, 2066, 2075, 2074
  200316, 1733, 1734, 1743, 1742, 2066, 2067, 2076, 2075
  200317, 1734, 1735, 1744, 1743, 2067, 2068, 2077, 2076
  200318, 1735, 1736, 1745, 1744, 2068, 2069, 2078, 2077
  200319, 1736, 1737, 1746, 1745, 2069, 2070, 2079, 2078
  200320, 1738, 1739, 1748, 1747, 2071, 2072, 2081, 2080
  200321, 1739, 1740, 1749, 1748, 2072, 2073, 2082, 2081
  200322, 1740, 1741, 1750, 1749, 2073, 2074, 2083, 2082
  200323, 1741, 1742, 1751, 1750, 2074, 2075, 2084, 2083
  200324, 1742, 1743, 1752, 1751, 2075, 2076, 2085, 2084
  200325, 1743, 1744, 1753, 1752, 2076, 2077, 2086, 2085
  200326, 1744, 1745, 1754, 1753, 2077, 2078, 2087, 2086
  200327, 1745, 1746, 1755, 1754, 2078, 2079, 2088, 2087
  200328, 1747, 1748, 1757, 1756, 2080, 2081, 2090, 2089
  200329, 1748, 1749, 1758, 1757, 2081, 2082, 2091, 2090
  200330, 1749, 1750, 1759, 1758, 2082, 2083, 2092, 2091
  200331, 1750, 1751, 1760, 1759, 2083, 2084, 2093, 2092
  200332, 1751, 1752, 1761, 1760, 2084, 2085, 2094, 2093
  200333, 1752, 1753, 1762, 1761, 2085, 2086, 2095, 2094
  200334, 1753, 1754, 1763, 1762, 2086, 2087, 2096, 2095
  200335, 1754, 1755, 1764, 1763, 2087, 2088, 2097, 2096
  200336, 1756, 1757, 1766, 1765, 2089, 2090, 2099, 2098
  200337, 1757, 1758, 1767, 1766, 2090, 2091, 2100, 2099
  200338, 1758, 1759, 1768, 1767, 2091, 2092, 2101, 2100
  200339, 1759, 1760, 1769, 1768, 2092, 2093, 2102, 2101
  200340, 1760, 1761, 1770, 1769, 2093, 2094, 2103, 2102
  200341, 1761, 1762, 1771, 1770, 2094, 2095, 2104, 2103
  200342, 1762, 1763, 1772, 1771, 2095, 2096, 2105, 2104
  200343, 1763, 1764, 1773, 1772, 2096, 2097, 2106, 2105
  200344, 1765, 1766, 1775, 1774, 2098, 2099, 2108, 2107
  200345, 1766, 1767, 1776, 1775, 2099, 2100, 2109, 2108
  200346, 1767, 1768, 1777, 1776, 2100, 2101, 2110, 2109
  200347, 1768, 1769, 1778, 1777, 2101, 2102, 2111, 2110
  200348, 1769, 1770, 1779, 1778, 2102, 2103, 2112, 2111
  200349, 1770, 1771, 1780, 1779, 2103, 2104, 2113, 2112
  200350, 1771, 1772, 1781, 1780, 2104, 2105, 2114, 2113
  200351, 1772, 1773, 1782, 1781, 2105, 2106, 2115, 2114
  200352, 1774, 1775, 1784, 1783, 2107, 2108, 2117, 2116
  200353, 1775, 1776, 1785, 1784, 2108, 2109, 2118, 2117
  200354, 1776, 1777, 1786, 1785, 2109, 2110, 2119, 2118
  200355, 1777, 1778, 1787, 1786, 2110, 2111, 2120, 2119
  200356, 1778, 1779, 1788, 1787, 2111, 2112, 2121, 2120
  200357, 1779, 1780, 1789, 1788, 2112, 2113, 2122, 2121
  200358, 1780, 1781, 1790, 1789, 2113, 2114, 2123, 2122
  200359, 1781, 1782, 1791, 1790, 2114, 2115, 2124, 2123
  200360, 1783, 1784, 1793, 1792, 2116, 2117, 2126, 2125
  200361, 1784, 1785, 1794, 1793, 2117, 2118, 2127, 2126
  200362, 1785, 1786, 1795, 1794, 2118, 2119, 2128, 2127
  200363, 1786, 1787, 1796, 1795, 2119, 2120, 2129, 2128
  200364, 1787, 1788, 1797, 1796, 2120, 2121, 2130, 2129
  200365, 1788, 1789, 1798, 1797, 2121, 2122, 2131, 2130
  200366, 1789, 1790, 1799, 1798, 2122, 2123, 2132, 2131
  200367, 1790, 1791, 1800, 1799, 2123, 2124, 2133, 2132
  200368, 1792, 1793, 1802, 1801, 2125, 2126, 2135, 2134
  200369, 1793, 1794, 1803, 1802, 2126, 2127, 2136, 2135
  200370, 1794, 1795, 1804, 1803, 2127, 2128, 2137, 2136
  200371, 1795, 1796, 1805, 1804, 2128, 2129, 2138, 2137
  200372, 1796, 1797, 1806, 1805, 2129, 2130, 2139, 2138
  200373, 1797, 1798, 1807, 1806, 2130, 2131, 2140, 2139
  200374, 1798, 1799, 1808, 1807, 2131, 2132, 2141, 2140
  200375, 1799, 1800, 1809, 1808, 2132, 2133, 2142, 2141
  200376, 1801, 1802, 1811, 1810, 2134, 2135, 2144, 2143
  200377, 1802, 1803, 1812, 1811, 2135, 2136, 2145, 2144
  200378, 1803, 1804, 1813, 1812, 2136, 2137, 2146, 2145
  200379, 1804, 1805, 1814, 1813, 2137, 2138, 2147, 2146
  200380, 1805, 1806, 1815, 1814, 2138, 2139, 2148, 2147
  200381, 1806, 1807, 1816, 1815, 2139, 2140, 2149, 2148
  200382, 1807, 1808, 1817, 1816, 2140, 2141, 2150, 2149
  200383, 1808, 1809, 1818, 1817, 2141, 2142, 2151, 2150
  200384, 1810, 1811, 1820, 1819, 2143, 2144, 2153, 2152
  200385, 1811, 1812, 1821, 1820, 2144, 2145, 2154, 2153
  200386, 1812, 1813, 1822, 1821, 2145, 2146, 2155, 2154
  200387, 1813, 1814, 1823, 1822, 2146, 2147, 2156, 2155
  200388, 1814, 1815, 1824, 1823, 2147, 2148, 2157, 2156
  200389, 1815, 1816, 1825, 1824, 2148, 2149, 2158, 2157
  200390, 1816, 1817, 1826, 1825, 2149, 2150, 2159, 2158
  200391, 1817, 1818, 1827, 1826, 2150, 2151, 2160, 2159
  200392, 1819, 1820, 1829, 1828, 2152, 2153, 2162, 2161
  200393, 1820, 1821, 1830, 1829, 2153, 2154, 2163, 2162
  200394, 1821, 1822, 1831, 1830, 2154, 2155, 2164, 2163
  200395, 1822, 1823, 1832, 1831, 2155, 2156, 2165, 2164
  200396, 1823, 1824, 1833, 1832, 2156, 2157, 2166, 2165
  200397, 1824, 1825, 1834, 1833, 2157, 2158, 2167, 2166
  200398, 1825, 1826, 1835, 1834, 2158, 2159, 2168, 2167
  200399, 1826, 1827, 1836, 1835, 2159, 2160, 2169, 2168
  200400, 1828, 1829, 1838, 1837, 2161, 2162, 2171, 2170
  200401, 1829, 1830, 1839, 1838, 2162, 2163, 2172, 2171
  200402, 1830, 1831, 1840, 1839, 2163, 2164, 2173, 2172
  200403, 1831, 1832, 1841, 1840, 2164, 2165, 2174, 2173
  200404, 1832, 1833, 1842, 1841, 2165, 2166, 2175, 2174
  200405, 1833, 1834, 1843, 1842, 2166, 2167, 2176, 2175
  200406, 1834, 1835, 1844, 1843, 2167, 2168, 2177, 2176
  200407, 1835, 1836, 1845, 1844, 2168, 2169, 2178, 2177
  200408, 1837, 1838, 1847, 1846, 2170, 2171, 2180, 2179
  200409, 1838, 1839, 1848, 1847, 2171, 2172, 2181, 2180
  200410, 1839, 1840, 1849, 1848, 2172, 2173, 2182, 2181
  200411, 1840, 1841, 1850, 1849, 2173, 2174, 2183, 2182
  200412, 1841, 1842, 1851, 1850, 2174, 2175, 2184, 2183
  200413, 1842, 1843, 1852, 1851, 2175, 2176, 2185, 2184
  200414, 1843, 1844, 1853, 1852, 2176, 2177, 2186, 2185
  200415, 1844, 1845, 1854, 1853, 2177, 2178, 2187, 2186
  200416, 1846, 1847, 1856, 1855, 2179, 2180, 2189, 2188
  200417, 1847, 1848, 1857, 1856, 2180, 2181, 2190, 2189
  200418, 1848, 1849, 1858, 1857, 2181, 2182, 2191, 2190
  200419, 1849, 1850, 1859, 1858, 2182, 2183, 2192, 2191
  200420, 1850, 1851, 1860, 1859, 2183, 2184, 2193, 2192
  200421, 1851, 1852, 1861, 1860, 2184, 2185, 2194, 2193
  200422, 1852, 1853, 1862, 1861, 2185, 2186, 2195, 2194
  200423, 1853, 1854, 1863, 1862, 2186, 2187, 2196, 2195
  200424, 1855, 1856, 1865, 1864, 2188, 2189, 2198, 2197
  200425, 1856, 1857, 1866, 1865, 2189, 2190, 2199, 2198
  200426, 1857, 1858, 1867, 1866, 2190, 2191, 2200, 2199
  200427, 1858, 1859, 1868, 1867, 2191, 2192, 2201, 2200
  200428, 1859, 1860, 1869, 1868, 2192, 2193, 2202, 2201
  200429, 1860, 1861, 1870, 1869, 2193, 2194, 2203, 2202
  200430, 1861, 1862, 1871, 1870, 2194, 2195, 2204, 2203
  200431, 1862, 1863, 1872, 1871, 2195, 2196, 2205, 2204
  200432, 1864, 1865, 1874, 1873, 2197, 2198, 2207, 2206
  200433, 1865, 1866, 1875, 1874, 2198, 2199, 2208, 2207
  200434, 1866, 1867, 1876, 1875, 2199, 2200, 2209, 2208
  200435, 1867, 1868, 1877, 1876, 2200, 2201, 2210, 2209
  200436, 1868, 1869, 1878, 1877, 2201, 2202, 2211, 2210
  200437, 1869, 1870, 1879, 1878, 2202, 2203, 2212, 2211
  200438, 1870, 1871, 1880, 1879, 2203, 2204, 2213, 2212
  200439, 1871, 1872, 1881, 1880, 2204, 2205, 2214, 2213
  200440, 1873, 1874, 1883, 1882, 2206, 2207, 2216, 2215
  200441, 1874, 1875, 1884, 1883, 2207, 2208, 2217, 2216
  200442, 1875, 1876, 1885, 1884, 2208, 2209, 2218, 2217
  200443, 1876, 1877, 1886, 1885, 2209, 2210, 2219, 2218
  200444, 1877, 1878, 1887, 1886, 2210, 2211, 2220, 2219
  200445, 1878, 1879, 1888, 1887, 2211, 2212, 2221, 2220
  200446, 1879, 1880, 1889, 1888, 2212, 2213, 2222, 2221
  200447, 1880, 1881, 1890, 1889, 2213, 2214, 2223, 2222
  200448, 1882, 1883, 1892, 1891, 2215, 2216, 2225, 2224
  200449, 1883, 1884, 1893, 1892, 2216, 2217, 2226, 2225
  200450, 1884, 1885, 1894, 1893, 2217, 2218, 2227, 2226
  200451, 1885, 1886, 1895, 1894, 2218, 2219, 2228, 2227
  200452, 1886, 1887, 1896, 1895, 2219, 2220, 2229, 2228
  200453, 1887, 1888, 1897, 1896, 2220, 2221, 2230, 2229
  200454, 1888, 1889, 1898, 1897, 2221, 2222, 2231, 2230
  200455, 1889, 1890, 1899, 1898, 2222, 2223, 2232, 2231
  200456, 1891, 1892, 1901, 1900, 2224, 2225, 2234, 2233
  200457, 1892, 1893, 1902, 1901, 2225, 2226, 2235, 2234
  200458, 1893, 1894, 1903, 1902, 2226, 2227, 2236, 2235
  200459, 1894, 1895, 1904, 1903, 2227, 2228, 2237, 2236
  200460, 1895, 1896, 1905, 1904, 2228, 2229, 2238, 2237
  200461, 1896, 1897, 1906, 1905, 2229, 2230, 2239, 2238
  200462, 1897, 1898, 1907, 1906, 2230, 2231, 2240, 2239
  200463, 1898, 1899, 1908, 1907, 2231, 2232, 2241, 2240
  200464, 1900, 1901, 1910, 1909, 2233, 2234, 2243, 2242
  200465, 1901, 1902, 1911, 1910, 2234, 2235, 2244, 2243
  200466, 1902, 1903, 1912, 1911, 2235, 2236, 2245, 2244
  200467, 1903, 1904, 1913, 1912, 2236, 2237, 2246, 2245
  200468, 1904, 1905, 1914, 1913, 2237, 2238, 2247, 2246
  200469, 1905, 1906, 1915, 1914, 2238, 2239, 2248, 2247
  200470, 1906, 1907, 1916, 1915, 2239, 2240, 2249, 2248
  200471, 1907, 1908, 1917, 1916, 2240, 2241, 2250, 2249
  200472, 1909, 1910, 1919, 1918, 2242, 2243, 2252, 2251
  200473, 1910, 1911, 1920, 1919, 2243, 2244, 2253, 2252
  200474, 1911, 1912, 1921, 1920, 2244, 2245, 2254, 2253
  200475, 1912, 1913, 1922, 1921, 2245, 2246, 2255, 2254
  200476, 1913, 1914, 1923, 1922, 2246, 2247, 2256, 2255
  200477, 1914, 1915, 1924, 1923, 2247, 2248, 2257, 2256
  200478, 1915, 1916, 1925, 1924, 2248, 2249, 2258, 2257
  200479, 1916, 1917, 1926, 1925, 2249, 2250, 2259, 2258
  200480, 1918, 1919, 1928, 1927, 2251, 2252, 2261, 2260
  200481, 1919, 1920, 1929, 1928, 2252, 2253, 2262, 2261
  200482, 1920, 1921, 1930, 1929, 2253, 2254, 2263, 2262
  200483, 1921, 1922, 1931, 1930, 2254, 2255, 2264, 2263
  200484, 1922, 1923, 1932, 1931, 2255, 2256, 2265, 2264
  200485, 1923, 1924, 1933, 1932, 2256, 2257, 2266, 2265
  200486, 1924, 1925, 1934, 1933, 2257, 2258, 2267, 2266
  200487, 1925, 1926, 1935, 1934, 2258, 2259, 2268, 2267
  200488, 1927, 1928, 1937, 1936, 2260, 2261, 2270, 2269
  200489, 1928, 1929, 1938, 1937, 2261, 2262, 2271, 2270
  200490, 1929, 1930, 1939, 1938, 2262, 2263, 2272, 2271
  200491, 1930, 1931, 1940, 1939, 2263, 2264, 2273, 2272
  200492, 1931, 1932, 1941, 1940, 2264, 2265, 2274, 2273
  200493, 1932, 1933, 1942, 1941, 2265, 2266, 2275, 2274
  200494, 1933, 1934, 1943, 1942, 2266, 2267, 2276, 2275
  200495, 1934, 1935, 1944, 1943, 2267, 2268, 2277, 2276
  200496, 1936, 1937, 1946, 1945, 2269, 2270, 2279, 2278
  200497, 1937, 1938, 1947, 1946, 2270, 2271, 2280, 2279
  200498, 1938, 1939, 1948, 1947, 2271, 2272, 2281, 2280
  200499, 1939, 1940, 1949, 1948, 2272, 2273, 2282, 2281
  200500, 1940, 1941, 1950, 1949, 2273, 2274, 2283, 2282
  200501, 1941, 1942, 1951, 1950, 2274, 2275, 2284, 2283
  200502, 1942, 1943, 1952, 1951, 2275, 2276, 2285, 2284
  200503, 1943, 1944, 1953, 1952, 2276, 2277, 2286, 2285
  200504, 1945, 1946, 1955, 1954, 2278, 2279, 2288, 2287
  200505, 1946, 1947, 1956, 1955, 2279, 2280, 2289, 2288
  200506, 1947, 1948, 1957, 1956, 2280, 2281, 2290, 2289
  200507, 1948, 1949, 1958, 1957, 2281, 2282, 2291, 2290
  200508, 1949, 1950, 1959, 1958, 2282, 2283, 2292, 2291
  200509, 1950, 1951, 1960, 1959, 2283, 2284, 2293, 2292
  200510, 1951, 1952, 1961, 1960, 2284, 2285, 2294, 2293
  200511, 1952, 1953, 1962, 1961, 2285, 2286, 2295, 2294
  200512, 1954, 1955, 1964, 1963, 2287, 2288, 2297, 2296
  200513, 1955, 1956, 1965, 1964, 2288, 2289, 2298, 2297
  200514, 1956, 1957, 1966, 1965, 2289, 2290, 2299, 2298
  200515, 1957, 1958, 1967, 1966, 2290, 2291, 2300, 2299
  200516, 1958, 1959, 1968, 1967, 2291, 2292, 2301, 2300
  200517, 1959, 1960, 1969, 1968, 2292, 2293, 2302, 2301
  200518, 1960, 1961, 1970, 1969, 2293, 2294, 2303, 2302
  200519, 1961, 1962, 1971, 1970, 2294, 2295, 2304, 2303
  200520, 1963, 1964, 1973, 1972, 2296, 2297, 2306, 2305
  200521, 1964, 1965, 1974, 1973, 2297, 2298, 2307, 2306
  200522, 1965, 1966, 1975, 1974, 2298, 2299, 2308, 2307
  200523, 1966, 1967, 1976, 1975, 2299, 2300, 2309, 2308
  200524, 1967, 1968, 1977, 1976, 2300, 2301, 2310, 2309
  200525, 1968, 1969, 1978, 1977, 2301, 2302, 2311, 2310
  200526, 1969, 1970, 1979, 1978, 2302, 2303, 2312, 2311
  200527, 1970, 1971, 1980, 1979, 2303, 2304, 2313, 2312
  200528, 1972, 1973, 1982, 1981, 2305, 2306, 2315, 2314
  200529, 1973, 1974, 1983, 1982, 2306, 2307, 2316, 2315
  200530, 1974, 1975, 1984, 1983, 2307, 2308, 2317, 2316
  200531, 1975, 1976, 1985, 1984, 2308, 2309, 2318, 2317
  200532, 1976, 1977, 1986, 1985, 2309, 2310, 2319, 2318
  200533, 1977, 1978, 1987, 1986, 2310, 2311, 2320, 2319
  200534, 1978, 1979, 1988, 1987, 2311, 2312, 2321, 2320
  200535, 1979, 1980, 1989, 1988, 2312, 2313, 2322, 2321
  200536, 1981, 1982, 1991, 1990, 2314, 2315, 2324, 2323
  200537, 1982, 1983, 1992, 1991, 2315, 2316, 2325, 2324
  200538, 1983, 1984, 1993, 1992, 2316, 2317, 2326, 2325
  200539, 1984, 1985, 1994, 1993, 2317, 2318, 2327, 2326
  200540, 1985, 1986, 1995, 1994, 2318, 2319, 2328, 2327
  200541, 1986, 1987, 1996, 1995, 2319, 2320, 2329, 2328
  200542, 1987, 1988, 1997, 1996, 2320, 2321, 2330, 2329
  200543, 1988, 1989, 1998, 1997, 2321, 2322, 2331, 2330
  200544, 1990, 1991, 2000, 1999, 2323, 2324, 2333, 2332
  200545, 1991, 1992, 2001, 2000, 2324, 2325, 2334, 2333
  200546, 1992, 1993, 2002, 2001, 2325, 2326, 2335, 2334
  200547, 1993, 1994, 2003, 2002, 2326, 2327, 2336, 2335
  200548, 1994, 1995, 2004, 2003, 2327, 2328, 2337, 2336
  200549, 1995, 1996, 2005, 2004, 2328, 2329, 2338, 2337
  200550, 1996, 1997, 2006, 2005, 2329, 2330, 2339, 2338
  200551, 1997, 1998, 2007, 2006, 2330, 2331, 2340, 2339
  200552, 1999, 2000, 2009, 2008, 2332, 2333, 2342, 2341
  200553, 2000, 2001, 2010, 2009, 2333, 2334, 2343, 2342
  200554, 2001, 2002, 2011, 2010, 2334, 2335, 2344, 2343
  200555, 2002, 2003, 2012, 2011, 2335, 2336, 2345, 2344
  200556, 2003, 2004, 2013, 2012, 2336, 2337, 2346, 2345
  200557, 2004, 2005, 2014, 2013, 2337, 2338, 2347, 2346
  200558, 2005, 2006, 2015, 2014, 2338, 2339, 2348, 2347
  200559, 2006, 2007, 2016, 2015, 2339, 2340, 2349, 2348
  200560, 2008, 2009, 2018, 2017, 2341, 2342, 2351, 2350
  200561, 2009, 2010, 2019, 2018, 2342, 2343, 2352, 2351
  200562, 2010, 2011, 2020, 2019, 2343, 2344, 2353, 2352
  200563, 2011, 2012, 2021, 2020, 2344, 2345, 2354, 2353
  200564, 2012, 2013, 2022, 2021, 2345, 2346, 2355, 2354
  200565, 2013, 2014, 2023, 2022, 2346, 2347, 2356, 2355
  200566, 2014, 2015, 2024, 2023, 2347, 2348, 2357, 2356
  200567, 2015, 2016, 2025, 2024, 2348, 2349, 2358, 2357
  200568, 2017, 2018, 2027, 2026, 2350, 2351, 2360, 2359
  200569, 2018, 2019, 2028, 2027, 2351, 2352, 2361, 2360
  200570, 2019, 2020, 2029, 2028, 2352, 2353, 2362, 2361
  200571, 2020, 2021, 2030, 2029, 2353, 2354, 2363, 2362
  200572, 2021, 2022, 2031, 2030, 2354, 2355, 2364, 2363
  200573, 2022, 2023, 2032, 2031, 2355, 2356, 2365, 2364
  200574, 2023, 2024, 2033, 2032, 2356, 2357, 2366, 2365
  200575, 2024, 2025, 2034, 2033, 2357, 2358, 2367, 2366
  200576, 2035, 2036, 2045, 2044, 2368, 2369, 2378, 2377
  200577, 2036, 2037, 2046, 2045, 2369, 2370, 2379, 2378
  200578, 2037, 2038, 2047, 2046, 2370, 2371, 2380, 2379
  200579, 2038, 2039, 2048, 2047, 2371, 2372, 2381, 2380
  200580, 2039, 2040, 2049, 2048, 2372, 2373, 2382, 2381
  200581, 2040, 2041, 2050, 2049, 2373, 2374, 2383, 2382
  200582, 2041, 2042, 2051, 2050, 2374, 2375, 2384, 2383
  200583, 2042, 2043, 2052, 2051, 2375, 2376, 2385, 2384
  200584, 2044, 2045, 2054, 2053, 2377, 2378, 2387, 2386
  200585, 2045, 2046, 2055, 2054, 2378, 2379, 2388, 2387
  200586, 2046, 2047, 2056, 2055, 2379, 2380, 2389, 2388
  200587, 2047, 2048, 2057, 2056, 2380, 2381, 2390, 2389
  200588, 2048, 2049, 2058, 2057, 2381, 2382, 2391, 2390
  200589, 2049, 2050, 2059, 2058, 2382, 2383, 2392, 2391
  200590, 2050, 2051, 2060, 2059, 2383, 2384, 2393, 2392
  200591, 2051, 2052, 2061, 2060, 2384, 2385, 2394, 2393
  200592, 2053, 2054, 2063, 2062, 2386, 2387, 2396, 2395
  200593, 2054, 2055, 2064, 2063, 2387, 2388, 2397, 2396
  200594, 2055, 2056, 2065, 2064, 2388, 2389, 2398, 2397
  200595, 2056, 2057, 2066, 2065, 2389, 2390, 2399, 2398
  200596, 2057, 2058, 2067, 2066, 2390, 2391, 2400, 2399
  200597, 2058, 2059, 2068, 2067, 2391, 2392, 2401, 2400
  200598, 2059, 2060, 2069, 2068, 2392, 2393, 2402, 2401
  200599, 2060, 2061, 2070, 2069, 2393, 2394, 2403, 2402
  200600, 2062, 2063, 2072, 2071, 2395, 2396, 2405, 2404
  200601, 2063, 2064, 2073, 2072, 2396, 2397, 2406, 2405
  200602, 2064, 2065, 2074, 2073, 2397, 2398, 2407, 2406
  200603, 2065, 2066, 2075, 2074, 2398, 2399, 2408, 2407
  200604, 2066, 2067, 2076, 2075, 2399, 2400, 2409, 2408
  200605, 2067, 2068, 2077, 2076, 2400, 2401, 2410, 2409
  200606, 2068, 2069, 2078, 2077, 2401, 2402, 2411, 2410
  200607, 2069, 2070, 2079, 2078, 2402, 2403, 2412, 2411
  200608, 2071, 2072, 2081, 2080, 2404, 2405, 2414, 2413
  200609, 2072, 2073, 2082, 2081, 2405, 2406, 2415, 2414
  200610, 2073, 2074, 2083, 2082, 2406, 2407, 2416, 2415
  200611, 2074, 2075, 2084, 2083, 2407, 2408, 2417, 2416
  200612, 2075, 2076, 2085, 2084, 2408, 2409, 2418, 2417
  200613, 2076, 2077, 2086, 2085, 2409, 2410, 2419, 2418
  200614, 2077, 2078, 2087, 2086, 2410, 2411, 2420, 2419
  200615, 2078, 2079, 2088, 2087, 2411, 2412, 2421, 2420
  200616, 2080, 2081, 2090, 2089, 2413, 2414, 2423, 2422
  200617, 2081, 2082, 2091, 2090, 2414, 2415, 2424, 2423
  200618, 2082, 2083, 2092, 2091, 2415, 2416, 2425, 2424
  200619, 2083, 2084, 2093, 2092, 2416, 2417, 2426, 2425
  200620, 2084, 2085, 2094, 2093, 2417, 2418, 2427, 2426
  200621, 2085, 2086, 2095, 2094, 2418, 2419, 2428, 2427
  200622, 2086, 2087, 2096, 2095, 2419, 2420, 2429, 2428
  200623, 2087, 2088, 2097, 2096, 2420, 2421, 2430, 2429
  200624, 2089, 2090, 2099, 2098, 2422, 2423, 2432, 2431
  200625, 2090, 2091, 2100, 2099, 2423, 2424, 2433, 2432
  200626, 2091, 2092, 2101, 2100, 2424, 2425, 2434, 2433
  200627, 2092, 2093, 2102, 2101, 2425, 2426, 2435, 2434
  200628, 2093, 2094, 2103, 2102, 2426, 2427, 2436, 2435
  200629, 2094, 2095, 2104, 2103, 2427, 2428, 2437, 2436
  200630, 2095, 2096, 2105, 2104, 2428, 2429, 2438, 2437
  200631, 2096, 2097, 2106, 2105, 2429, 2430, 2439, 2438
  200632, 2098, 2099, 2108, 2107, 2431, 2432, 2441, 2440
  200633, 2099, 2100, 2109, 2108, 2432, 2433, 2442, 2441
  200634, 2100, 2101, 2110, 2109, 2433, 2434, 2443, 2442
  200635, 2101, 2102, 2111, 2110, 2434, 2435, 2444, 2443
  200636, 2102, 2103, 2112, 2111, 2435, 2436, 2445, 2444
  200637, 2103, 2104, 2113, 2112, 2436, 2437, 2446, 2445
  200638, 2104, 2105, 2114, 2113, 2437, 2438, 2447, 2446
  200639, 2105, 2106, 2115, 2114, 2438, 2439, 2448, 2447
  200640, 2107, 2108, 2117, 2116, 2440, 2441, 2450, 2449
  200641, 2108, 2109, 2118, 2117, 2441, 2442, 2451, 2450
  200642, 2109, 2110, 2119, 2118, 2442, 2443, 2452, 2451
  200643, 2110, 2111, 2120, 2119, 2443, 2444, 2453, 2452
  200644, 2111, 2112, 2121, 2120, 2444, 2445, 2454, 2453
  200645, 2112, 2113, 2122, 2121, 2445, 2446, 2455, 2454
  200646, 2113, 2114, 2123, 2122, 2446, 2447, 2456, 2455
  200647, 2114, 2115, 2124, 2123, 2447, 2448, 2457, 2456
  200648, 2116, 2117, 2126, 2125, 2449, 2450, 2459, 2458
  200649, 2117, 2118, 2127, 2126, 2450, 2451, 2460, 2459
  200650, 2118, 2119, 2128, 2127, 2451, 2452, 2461, 2460
  200651, 2119, 2120, 2129, 2128, 2452, 2453, 2462, 2461
  200652, 2120, 2121, 2130, 2129, 2453, 2454, 2463, 2462
  200653, 2121, 2122, 2131, 2130, 2454, 2455, 2464, 2463
  200654, 2122, 2123, 2132, 2131, 2455, 2456, 2465, 2464
  200655, 2123, 2124, 2133, 2132, 2456, 2457, 2466, 2465
  200656, 2125, 2126, 2135, 2134, 2458, 2459, 2468, 2467
  200657, 2126, 2127, 2136, 2135, 2459, 2460, 2469, 2468
  200658, 2127, 2128, 2137, 2136, 2460, 2461, 2470, 2469
  200659, 2128, 2129, 2138, 2137, 2461, 2462, 2471, 2470
  200660, 2129, 2130, 2139, 2138, 2462, 2463, 2472, 2471
  200661, 2130, 2131, 2140, 2139, 2463, 2464, 2473, 2472
  200662, 2131, 2132, 2141, 2140, 2464, 2465, 2474, 2473
  200663, 2132, 2133, 2142, 2141, 2465, 2466, 2475, 2474
  200664, 2134, 2135, 2144, 2143, 2467, 2468, 2477, 2476
  200665, 2135, 2136, 2145, 2144, 2468, 2469, 2478, 2477
  200666, 2136, 2137, 2146, 2145, 2469, 2470, 2479, 2478
  200667, 2137, 2138, 2147, 2146, 2470, 2471, 2480, 2479
  200668, 2138, 2139, 2148, 2147, 2471, 2472, 2481, 2480
  200669, 2139, 2140, 2149, 2148, 2472, 2473, 2482, 2481
  200670, 2140, 2141, 2150, 2149, 2473, 2474, 2483, 2482
  200671, 2141, 2142, 2151, 2150, 2474, 2475, 2484, 2483
  200672, 2143, 2144, 2153, 2152, 2476, 2477, 2486, 2485
  200673, 2144, 2145, 2154, 2153, 2477, 2478, 2487, 2486
  200674, 2145, 2146, 2155, 2154, 2478, 2479, 2488, 2487
  200675, 2146, 2147, 2156, 2155, 2479, 2480, 2489, 2488
  200676, 2147, 2148, 2157, 2156, 2480, 2481, 2490, 2489
  200677, 2148, 2149, 2158, 2157, 2481, 2482, 2491, 2490
  200678, 2149, 2150, 2159, 2158, 2482, 2483, 2492, 2491
  200679, 2150, 2151, 2160, 2159, 2483, 2484, 2493, 2492
  200680, 2152, 2153, 2162, 2161, 2485, 2486, 2495, 2494
  200681, 2153, 2154, 2163, 2162, 2486, 2487, 2496, 2495
  200682, 2154, 2155, 2164, 2163, 2487, 2488, 2497, 2496
  200683, 2155, 2156, 2165, 2164, 2488, 2489, 2498, 2497
  200684, 2156, 2157, 2166, 2165, 2489, 2490, 2499, 2498
  200685, 2157, 2158, 2167, 2166, 2490, 2491, 2500, 2499
  200686, 2158, 2159, 2168, 2167, 2491, 2492, 2501, 2500
  200687, 2159, 2160, 2169, 2168, 2492, 2493, 2502, 2501
  200688, 2161, 2162, 2171, 2170, 2494, 2495, 2504, 2503
  200689, 2162, 2163, 2172, 2171, 2495, 2496, 2505, 2504
  200690, 2163, 2164, 2173, 2172, 2496, 2497, 2506, 2505
  200691, 2164, 2165, 2174, 2173, 2497, 2498, 2507, 2506
  200692, 2165, 2166, 2175, 2174, 2498, 2499, 2508, 2507
  200693, 2166, 2167, 2176, 2175, 2499, 2500, 2509, 2508
  200694, 2167, 2168, 2177, 2176, 2500, 2501, 2510, 2509
  200695, 2168, 2169, 2178, 2177, 2501, 2502, 2511, 2510
  200696, 2170, 2171, 2180, 2179, 2503, 2504, 2513, 2512
  200697, 2171, 2172, 2181, 2180, 2504, 2505, 2514, 2513
  200698, 2172, 2173, 2182, 2181, 2505, 2506, 2515, 2514
  200699, 2173, 2174, 2183, 2182, 2506, 2507, 2516, 2515
  200700, 2174, 2175, 2184, 2183, 2507, 2508, 2517, 2516
  200701, 2175, 2176, 2185, 2184, 2508, 2509, 2518, 2517
  200702, 2176, 2177, 2186, 2185, 2509, 2510, 2519, 2518
  200703, 2177, 2178, 2187, 2186, 2510, 2511, 2520, 2519
  200704, 2179, 2180, 2189, 2188, 2512, 2513, 2522, 2521
  200705, 2180, 2181, 2190, 2189, 2513, 2514, 2523, 2522
  200706, 2181, 2182, 2191, 2190, 2514, 2515, 2524, 2523
  200707, 2182, 2183, 2192, 2191, 2515, 2516, 2525, 2524
  200708, 2183, 2184, 2193, 2192, 2516, 2517, 2526, 2525
  200709, 2184, 2185, 2194, 2193, 2517, 2518, 2527, 2526
  200710, 2185, 2186, 2195, 2194, 2518, 2519, 2528, 2527
  200711, 2186, 2187, 2196, 2195, 2519, 2520, 2529, 2528
  200712, 2188, 2189, 2198, 2197, 2521, 2522, 2531, 2530
  200713, 2189, 2190, 2199, 2198, 2522, 2523, 2532, 2531
  200714, 2190, 2191, 2200, 2199, 2523, 2524, 2533, 2532
  200715, 2191, 2192, 2201, 2200, 2524, 2525, 2534, 2533
  200716, 2192, 2193, 2202, 2201, 2525, 2526, 2535, 2534
  200717, 2193, 2194, 2203, 2202, 2526, 2527, 2536, 2535
  200718, 2194, 2195, 2204, 2203, 2527, 2528, 2537, 2536
  200719, 2195, 2196, 2205, 2204, 2528, 2529, 2538, 2537
  200720, 2197, 2198, 2207, 2206, 2530, 2531, 2540, 2539
  200721, 2198, 2199, 2208, 2207, 2531, 2532, 2541, 2540
  200722, 2199, 2200, 2209, 2208, 2532, 2533, 2542, 2541
  200723, 2200, 2201, 2210, 2209, 2533, 2534, 2543, 2542
  200724, 2201, 2202, 2211, 2210, 2534, 2535, 2544, 2543
  200725, 2202, 2203, 2212, 2211, 2535, 2536, 2545, 2544
  200726, 2203, 2204, 2213, 2212, 2536, 2537, 2546, 2545
  200727, 2204, 2205, 2214, 2213, 2537, 2538, 2547, 2546
  200728, 2206, 2207, 2216, 2215, 2539, 2540, 2549, 2548
  200729, 2207, 2208, 2217, 2216, 2540, 2541, 2550, 2549
  200730, 2208, 2209, 2218, 2217, 2541, 2542, 2551, 2550
  200731, 2209, 2210, 2219, 2218, 2542, 2543, 2552, 2551
  200732, 2210, 2211, 2220, 2219, 2543, 2544, 2553, 2552
  200733, 2211, 2212, 2221, 2220, 2544, 2545, 2554, 2553
  200734, 2212, 2213, 2222, 2221, 2545, 2546, 2555, 2554
  200735, 2213, 2214, 2223, 2222, 2546, 2547, 2556, 2555
  200736, 2215, 2216, 2225, 2224, 2548, 2549, 2558, 2557
  200737, 2216, 2217, 2226, 2225, 2549, 2550, 2559, 2558
  200738, 2217, 2218, 2227, 2226, 2550, 2551, 2560, 2559
  200739, 2218, 2219, 2228, 2227, 2551, 2552, 2561, 2560
  200740, 2219, 2220, 2229, 2228, 2552, 2553, 2562, 2561
  200741, 2220, 2221, 2230, 2229, 2553, 2554, 2563, 2562
  200742, 2221, 2222, 2231, 2230, 2554, 2555, 2564, 2563
  200743, 2222, 2223, 2232, 2231, 2555, 2556, 2565, 2564
  200744, 2224, 2225, 2234, 2233, 2557, 2558, 2567, 2566
  200745, 2225, 2226, 2235, 2234, 2558, 2559, 2568, 2567
  200746, 2226, 2227, 2236, 2235, 2559, 2560, 2569, 2568
  200747, 2227, 2228, 2237, 2236, 2560, 2561, 2570, 2569
  200748, 2228, 2229, 2238, 2237, 2561, 2562, 2571, 2570
  200749, 2229, 2230, 2239, 2238, 2562, 2563, 2572, 2571
  200750, 2230, 2231, 2240, 2239, 2563, 2564, 2573, 2572
  200751, 2231, 2232, 2241, 2240, 2564, 2565, 2574, 2573
  200752, 2233, 2234, 2243, 2242, 2566, 2567, 2576, 2575
  200753, 2234, 2235, 2244, 2243, 2567, 2568, 2577, 2576
  200754, 2235, 2236, 2245, 2244, 2568, 2569, 2578, 2577
  200755, 2236, 2237, 2246, 2245, 2569, 2570, 2579, 2578
  200756, 2237, 2238, 2247, 2246, 2570, 2571, 2580, 2579
  200757, 2238, 2239, 2248, 2247, 2571, 2572, 2581, 2580
  200758, 2239, 2240, 2249, 2248, 2572, 2573, 2582, 2581
  200759, 2240, 2241, 2250, 2249, 2573, 2574, 2583, 2582
  200760, 2242, 2243, 2252, 2251, 2575, 2576, 2585, 2584
  200761, 2243, 2244, 2253, 2252, 2576, 2577, 2586, 2585
  200762, 2244, 2245, 2254, 2253, 2577, 2578, 2587, 2586
  200763, 2245, 2246, 2255, 2254, 2578, 2579, 2588, 2587
  200764, 2246, 2247, 2256, 2255, 2579, 2580, 2589, 2588
  200765, 2247, 2248, 2257, 2256, 2580, 2581, 2590, 2589
  200766, 2248, 2249, 2258, 2257, 2581, 2582, 2591, 2590
  200767, 2249, 2250, 2259, 2258, 2582, 2583, 2592, 2591
  200768, 2251, 2252, 2261, 2260, 2584, 2585, 2594, 2593
  200769, 2252, 2253, 2262, 2261, 2585, 2586, 2595, 2594
  200770, 2253, 2254, 2263, 2262, 2586, 2587, 2596, 2595
  200771, 2254, 2255, 2264, 2263, 2587, 2588, 2597, 2596
  200772, 2255, 2256, 2265, 2264, 2588, 2589, 2598, 2597
  200773, 2256, 2257, 2266, 2265, 2589, 2590, 2599, 2598
  200774, 2257, 2258, 2267, 2266, 2590, 2591, 2600, 2599
  200775, 2258, 2259, 2268, 2267, 2591, 2592, 2601, 2600
  200776, 2260, 2261, 2270, 2269, 2593, 2594, 2603, 2602
  200777, 2261, 2262, 2271, 2270, 2594, 2595, 2604, 2603
  200778, 2262, 2263, 2272, 2271, 2595, 2596, 2605, 2604
  200779, 2263, 2264, 2273, 2272, 2596, 2597, 2606, 2605
  200780, 2264, 2265, 2274, 2273, 2597, 2598, 2607, 2606
  200781, 2265, 2266, 2275, 2274, 2598, 2599, 2608, 2607
  200782, 2266, 2267, 2276, 2275, 2599, 2600, 2609, 2608
  200783, 2267, 2268, 2277, 2276, 2600, 2601, 2610, 2609
  200784, 2269, 2270, 2279, 2278, 2602, 2603, 2612, 2611
  200785, 2270, 2271, 2280, 2279, 2603, 2604, 2613, 2612
  200786, 2271, 2272, 2281, 2280, 2604, 2605, 2614, 2613
  200787, 2272, 2273, 2282, 2281, 2605, 2606, 2615, 2614
  200788, 2273, 2274, 2283, 2282, 2606, 2607, 2616, 2615
  200789, 2274, 2275, 2284, 2283, 2607, 2608, 2617, 2616
  200790, 2275, 2276, 2285, 2284, 2608, 2609, 2618, 2617
  200791, 2276, 2277, 2286, 2285, 2609, 2610, 2619, 2618
  200792, 2278, 2279, 2288, 2287, 2611, 2612, 2621, 2620
  200793, 2279, 2280, 2289, 2288, 2612, 2613, 2622, 2621
  200794, 2280, 2281, 2290, 2289, 2613, 2614, 2623, 2622
  200795, 2281, 2282, 2291, 2290, 2614, 2615, 2624, 2623
  200796, 2282, 2283, 2292, 2291, 2615, 2616, 2625, 2624
  200797, 2283, 2284, 2293, 2292, 2616, 2617, 2626, 2625
  200798, 2284, 2285, 2294, 2293, 2617, 2618, 2627, 2626
  200799, 2285, 2286, 2295, 2294, 2618, 2619, 2628, 2627
  200800, 2287, 2288, 2297, 2296, 2620, 2621, 2630, 2629
  200801, 2288, 2289, 2298, 2297, 2621, 2622, 2631, 2630
  200802, 2289, 2290, 2299, 2298, 2622, 2623, 2632, 2631
  200803, 2290, 2291, 2300, 2299, 2623, 2624, 2633, 2632
  200804, 2291, 2292, 2301, 2300, 2624, 2625, 2634, 2633
  200805, 2292, 2293, 2302, 2301, 2625, 2626, 2635, 2634
  200806, 2293, 2294, 2303, 2302, 2626, 2627, 2636, 2635
  200807, 2294, 2295, 2304, 2303, 2627, 2628, 2637, 2636
  200808, 2296, 2297, 2306, 2305, 2629, 2630, 2639, 2638
  200809, 2297, 2298, 2307, 2306, 2630, 2631, 2640, 2639
  200810, 2298, 2299, 2308, 2307, 2631, 2632, 2641, 2640
  200811, 2299, 2300, 2309, 2308, 2632, 2633, 2642, 2641
  200812, 2300, 2301, 2310, 2309, 2633, 2634, 2643, 2642
  200813, 2301, 2302, 2311, 2310, 2634, 2635, 2644, 2643
  200814, 2302, 2303, 2312, 2311, 2635, 2636, 2645, 2644
  200815, 2303, 2304, 2313, 2312, 2636, 2637, 2646, 2645
  200816, 2305, 2306, 2315, 2314, 2638, 2639, 2648, 2647
  200817, 2306, 2307, 2316, 2315, 2639, 2640, 2649, 2648
  200818, 2307, 2308, 2317, 2316, 2640, 2641, 2650, 2649
  200819, 2308, 2309, 2318, 2317, 2641, 2642, 2651, 2650
  200820, 2309, 2310, 2319, 2318, 2642, 2643, 2652, 2651
  200821, 2310, 2311, 2320, 2319, 2643, 2644, 2653, 2652
  200822, 2311, 2312, 2321, 2320, 2644, 2645, 2654, 2653
  200823, 2312, 2313, 2322, 2321, 2645, 2646, 2655, 2654
  200824, 2314, 2315, 2324, 2323, 2647, 2648, 2657, 2656
  200825, 2315, 2316, 2325, 2324, 2648, 2649, 2658, 2657
  200826, 2316, 2317, 2326, 2325, 2649, 2650, 2659, 2658
  200827, 2317, 2318, 2327, 2326, 2650, 2651, 2660, 2659
  200828, 2318, 2319, 2328, 2327, 2651, 2652, 2661, 2660
  200829, 2319, 2320, 2329, 2328, 2652, 2653, 2662, 2661
  200830, 2320, 2321, 2330, 2329, 2653, 2654, 2663, 2662
  200831, 2321, 2322, 2331, 2330, 2654, 2655, 2664, 2663
  200832, 2323, 2324, 2333, 2332, 2656, 2657, 2666, 2665
  200833, 2324, 2325, 2334, 2333, 2657, 2658, 2667, 2666
  200834, 2325, 2326, 2335, 2334, 2658, 2659, 2668, 2667
  200835, 2326, 2327, 2336, 2335, 2659, 2660, 2669, 2668
  200836, 2327, 2328, 2337, 2336, 2660, 2661, 2670, 2669
  200837, 2328, 2329, 2338, 2337, 2661, 2662, 2671, 2670
  200838, 2329, 2330, 2339, 2338, 2662, 2663, 2672, 2671
  200839, 2330, 2331, 2340, 2339, 2663, 2664, 2673, 2672
  200840, 2332, 2333, 2342, 2341, 2665, 2666, 2675, 2674
  200841, 2333, 2334, 2343, 2342, 2666, 2667, 2676, 2675
  200842, 2334, 2335, 2344, 2343, 2667, 2668, 2677, 2676
  200843, 2335, 2336, 2345, 2344, 2668, 2669, 2678, 2677
  200844, 2336, 2337, 2346, 2345, 2669, 2670, 2679, 2678
  200845, 2337, 2338, 2347, 2346, 2670, 2671, 2680, 2679
  200846, 2338, 2339, 2348, 2347, 2671, 2672, 2681, 2680
  200847, 2339, 2340, 2349, 2348, 2672, 2673, 2682, 2681
  200848, 2341, 2342, 2351, 2350, 2674, 2675, 2684, 2683
  200849, 2342, 2343, 2352, 2351, 2675, 2676, 2685, 2684
  200850, 2343, 2344, 2353, 2352, 2676, 2677, 2686, 2685
  200851, 2344, 2345, 2354, 2353, 2677, 2678, 2687, 2686
  200852, 2345, 2346, 2355, 2354, 2678, 2679, 2688, 2687
  200853, 2346, 2347, 2356, 2355, 2679, 2680, 2689, 2688
  200854, 2347, 2348, 2357, 2356, 2680, 2681, 2690, 2689
  200855, 2348, 2349, 2358, 2357, 2681, 2682, 2691, 2690
  200856, 2350, 2351, 2360, 2359, 2683, 2684, 2693, 2692
  200857, 2351, 2352, 2361, 2360, 2684, 2685, 2694, 2693
  200858, 2352, 2353, 2362, 2361, 2685, 2686, 2695, 2694
  200859, 2353, 2354, 2363, 2362, 2686, 2687, 2696, 2695
  200860, 2354, 2355, 2364, 2363, 2687, 2688, 2697, 2696
  200861, 2355, 2356, 2365, 2364, 2688, 2689, 2698, 2697
  200862, 2356, 2357, 2366, 2365, 2689, 2690, 2699, 2698
  200863, 2357, 2358, 2367, 2366, 2690, 2691, 2700, 2699
  200864, 2368, 2369, 2378, 2377, 2701, 2702, 2711, 2710
  200865, 2369, 2370, 2379, 2378, 2702, 2703, 2712, 2711
  200866, 2370, 2371, 2380, 2379, 2703, 2704, 2713, 2712
  200867, 2371, 2372, 2381, 2380, 2704, 2705, 2714, 2713
  200868, 2372, 2373, 2382, 2381, 2705, 2706, 2715, 2714
  200869, 2373, 2374, 2383, 2382, 2706, 2707, 2716, 2715
  200870, 2374, 2375, 2384, 2383, 2707, 2708, 2717, 2716
  200871, 2375, 2376, 2385, 2384, 2708, 2709, 2718, 2717
  200872, 2377, 2378, 2387, 2386, 2710, 2711, 2720, 2719
  200873, 2378, 2379, 2388, 2387, 2711, 2712, 2721, 2720
  200874, 2379, 2380, 2389, 2388, 2712, 2713, 2722, 2721
  200875, 2380, 2381, 2390, 2389, 2713, 2714, 2723, 2722
  200876, 2381, 2382, 2391, 2390, 2714, 2715, 2724, 2723
  200877, 2382, 2383, 2392, 2391, 2715, 2716, 2725, 2724
  200878, 2383, 2384, 2393, 2392, 2716, 2717, 2726, 2725
  200879, 2384, 2385, 2394, 2393, 2717, 2718, 2727, 2726
  200880, 2386, 2387, 2396, 2395, 2719, 2720, 2729, 2728
  200881, 2387, 2388, 2397, 2396, 2720, 2721, 2730, 2729
  200882, 2388, 2389, 2398, 2397, 2721, 2722, 2731, 2730
  200883, 2389, 2390, 2399, 2398, 2722, 2723, 2732, 2731
  200884, 2390, 2391, 2400, 2399, 2723, 2724, 2733, 2732
  200885, 2391, 2392, 2401, 2400, 2724, 2725, 2734, 2733
  200886, 2392, 2393, 2402, 2401, 2725, 2726, 2735, 2734
  200887, 2393, 2394, 2403, 2402, 2726, 2727, 2736, 2735
  200888, 2395, 2396, 2405, 2404, 2728, 2729, 2738, 2737
  200889, 2396, 2397, 2406, 2405, 2729, 2730, 2739, 2738
  200890, 2397, 2398, 2407, 2406, 2730, 2731, 2740, 2739
  200891, 2398, 2399, 2408, 2407, 2731, 2732, 2741, 2740
  200892, 2399, 2400, 2409, 2408, 2732, 2733, 2742, 2741
  200893, 2400, 2401, 2410, 2409, 2733, 2734, 2743, 2742
  200894, 2401, 2402, 2411, 2410, 2734, 2735, 2744, 2743
  200895, 2402, 2403, 2412, 2411, 2735, 2736, 2745, 2744
  200896, 2404, 2405, 2414, 2413, 2737, 2738, 2747, 2746
  200897, 2405, 2406, 2415, 2414, 2738, 2739, 2748, 2747
  200898, 2406, 2407, 2416, 2415, 2739, 2740, 2749, 2748
  200899, 2407, 2408, 2417, 2416, 2740, 2741, 2750, 2749
  200900, 2408, 2409, 2418, 2417, 2741, 2742, 2751, 2750
  200901, 2409, 2410, 2419, 2418, 2742, 2743, 2752, 2751
  200902, 2410, 2411, 2420, 2419, 2743, 2744, 2753, 2752
  200903, 2411, 2412, 2421, 2420, 2744, 2745, 2754, 2753
  200904, 2413, 2414, 2423, 2422, 2746, 2747, 2756, 2755
  200905, 2414, 2415, 2424, 2423, 2747, 2748, 2757, 2756
  200906, 2415, 2416, 2425, 2424, 2748, 2749, 2758, 2757
  200907, 2416, 2417, 2426, 2425, 2749, 2750, 2759, 2758
  200908, 2417, 2418, 2427, 2426, 2750, 2751, 2760, 2759
  200909, 2418, 2419, 2428, 2427, 2751, 2752, 2761, 2760
  200910, 2419, 2420, 2429, 2428, 2752, 2753, 2762, 2761
  200911, 2420, 2421, 2430, 2429, 2753, 2754, 2763, 2762
  200912, 2422, 2423, 2432, 2431, 2755, 2756, 2765, 2764
  200913, 2423, 2424, 2433, 2432, 2756, 2757, 2766, 2765
  200914, 2424, 2425, 2434, 2433, 2757, 2758, 2767, 2766
  200915, 2425, 2426, 2435, 2434, 2758, 2759, 2768, 2767
  200916, 2426, 2427, 2436, 2435, 2759, 2760, 2769, 2768
  200917, 2427, 2428, 2437, 2436, 2760, 2761, 2770, 2769
  200918, 2428, 2429, 2438, 2437, 2761, 2762, 2771, 2770
  200919, 2429, 2430, 2439, 2438, 2762, 2763, 2772, 2771
  200920, 2431, 2432, 2441, 2440, 2764, 2765, 2774, 2773
  200921, 2432, 2433, 2442, 2441, 2765, 2766, 2775, 2774
  200922, 2433, 2434, 2443, 2442, 2766, 2767, 2776, 2775
  200923, 2434, 2435, 2444, 2443, 2767, 2768, 2777, 2776
  200924, 2435, 2436, 2445, 2444, 2768, 2769, 2778, 2777
  200925, 2436, 2437, 2446, 2445, 2769, 2770, 2779, 2778
  200926, 2437, 2438, 2447, 2446, 2770, 2771, 2780, 2779
  200927, 2438, 2439, 2448, 2447, 2771, 2772, 2781, 2780
  200928, 2440, 2441, 2450, 2449, 2773, 2774, 2783, 2782
  200929, 2441, 2442, 2451, 2450, 2774, 2775, 2784, 2783
  200930, 2442, 2443, 2452, 2451, 2775, 2776, 2785, 2784
  200931, 2443, 2444, 2453, 2452, 2776, 2777, 2786, 2785
  200932, 2444, 2445, 2454, 2453, 2777, 2778, 2787, 2786
  200933, 2445, 2446, 2455, 2454, 2778, 2779, 2788, 2787
  200934, 2446, 2447, 2456, 2455, 2779, 2780, 2789, 2788
  200935, 2447, 2448, 2457, 2456, 2780, 2781, 2790, 2789
  200936, 2449, 2450, 2459, 2458, 2782, 2783, 2792, 2791
  200937, 2450, 2451, 2460, 2459, 2783, 2784, 2793, 2792
  200938, 2451, 2452, 2461, 2460, 2784, 2785, 2794, 2793
  200939, 2452, 2453, 2462, 2461, 2785, 2786, 2795, 2794
  200940, 2453, 2454, 2463, 2462, 2786, 2787, 2796, 2795
  200941, 2454, 2455, 2464, 2463, 2787, 2788, 2797, 2796
  200942, 2455, 2456, 2465, 2464, 2788, 2789, 2798, 2797
  200943, 2456, 2457, 2466, 2465, 2789, 2790, 2799, 2798
  200944, 2458, 2459, 2468, 2467, 2791, 2792, 2801, 2800
  200945, 2459, 2460, 2469, 2468, 2792, 2793, 2802, 2801
  200946, 2460, 2461, 2470, 2469, 2793, 2794, 2803, 2802
  200947, 2461, 2462, 2471, 2470, 2794, 2795, 2804, 2803
  200948, 2462, 2463, 2472, 2471, 2795, 2796, 2805, 2804
  200949, 2463, 2464, 2473, 2472, 2796, 2797, 2806, 2805
  200950, 2464, 2465, 2474, 2473, 2797, 2798, 2807, 2806
  200951, 2465, 2466, 2475, 2474, 2798, 2799, 2808, 2807
  200952, 2467, 2468, 2477, 2476, 2800, 2801, 2810, 2809
  200953, 2468, 2469, 2478, 2477, 2801, 2802, 2811, 2810
  200954, 2469, 2470, 2479, 2478, 2802, 2803, 2812, 2811
  200955, 2470, 2471, 2480, 2479, 2803, 2804, 2813, 2812
  200956, 2471, 2472, 2481, 2480, 2804, 2805, 2814, 2813
  200957, 2472, 2473, 2482, 2481, 2805, 2806, 2815, 2814
  200958, 2473, 2474, 2483, 2482, 2806, 2807, 2816, 2815
  200959, 2474, 2475, 2484, 2483, 2807, 2808, 2817, 2816
  200960, 2476, 2477, 2486, 2485, 2809, 2810, 2819, 2818
  200961, 2477, 2478, 2487, 2486, 2810, 2811, 2820, 2819
  200962, 2478, 2479, 2488, 2487, 2811, 2812, 2821, 2820
  200963, 2479, 2480, 2489, 2488, 2812, 2813, 2822, 2821
  200964, 2480, 2481, 2490, 2489, 2813, 2814, 2823, 2822
  200965, 2481, 2482, 2491, 2490, 2814, 2815, 2824, 2823
  200966, 2482, 2483, 2492, 2491, 2815, 2816, 2825, 2824
  200967, 2483, 2484, 2493, 2492, 2816, 2817, 2826, 2825
  200968, 2485, 2486, 2495, 2494, 2818, 2819, 2828, 2827
  200969, 2486, 2487, 2496, 2495, 2819, 2820, 2829, 2828
  200970, 2487, 2488, 2497, 2496, 2820, 2821, 2830, 2829
  200971, 2488, 2489, 2498, 2497, 2821, 2822, 2831, 2830
  200972, 2489, 2490, 2499, 2498, 2822, 2823, 2832, 2831
  200973, 2490, 2491, 2500, 2499, 2823, 2824, 2833, 2832
  200974, 2491, 2492, 2501, 2500, 2824, 2825, 2834, 2833
  200975, 2492, 2493, 2502, 2501, 2825, 2826, 2835, 2834
  200976, 2494, 2495, 2504, 2503, 2827, 2828, 2837, 2836
  200977, 2495, 2496, 2505, 2504, 2828, 2829, 2838, 2837
  200978, 2496, 2497, 2506, 2505, 2829, 2830, 2839, 2838
  200979, 2497, 2498, 2507, 2506, 2830, 2831, 2840, 2839
  200980, 2498, 2499, 2508, 2507, 2831, 2832, 2841, 2840
  200981, 2499, 2500, 2509, 2508, 2832, 2833, 2842, 2841
  200982, 2500, 2501, 2510, 2509, 2833, 2834, 2843, 2842
  200983, 2501, 2502, 2511, 2510, 2834, 2835, 2844, 2843
  200984, 2503, 2504, 2513, 2512, 2836, 2837, 2846, 2845
  200985, 2504, 2505, 2514, 2513, 2837, 2838, 2847, 2846
  200986, 2505, 2506, 2515, 2514, 2838, 2839, 2848, 2847
  200987, 2506, 2507, 2516, 2515, 2839, 2840, 2849, 2848
  200988, 2507, 2508, 2517, 2516, 2840, 2841, 2850, 2849
  200989, 2508, 2509, 2518, 2517, 2841, 2842, 2851, 2850
  200990, 2509, 2510, 2519, 2518, 2842, 2843, 2852, 2851
  200991, 2510, 2511, 2520, 2519, 2843, 2844, 2853, 2852
  200992, 2512, 2513, 2522, 2521, 2845, 2846, 2855, 2854
  200993, 2513, 2514, 2523, 2522, 2846, 2847, 2856, 2855
  200994, 2514, 2515, 2524, 2523, 2847, 2848, 2857, 2856
  200995, 2515, 2516, 2525, 2524, 2848, 2849, 2858, 2857
  200996, 2516, 2517, 2526, 2525, 2849, 2850, 2859, 2858
  200997, 2517, 2518, 2527, 2526, 2850, 2851, 2860, 2859
  200998, 2518, 2519, 2528, 2527, 2851, 2852, 2861, 2860
  200999, 2519, 2520, 2529, 2528, 2852, 2853, 2862, 2861
  201000, 2521, 2522, 2531, 2530, 2854, 2855, 2864, 2863
  201001, 2522, 2523, 2532, 2531, 2855, 2856, 2865, 2864
  201002, 2523, 2524, 2533, 2532, 2856, 2857, 2866, 2865
  201003, 2524, 2525, 2534, 2533, 2857, 2858, 2867, 2866
  201004, 2525, 2526, 2535, 2534, 2858, 2859, 2868, 2867
  201005, 2526, 2527, 2536, 2535, 2859, 2860, 2869, 2868
  201006, 2527, 2528, 2537, 2536, 2860, 2861, 2870, 2869
  201007, 2528, 2529, 2538, 2537, 2861, 2862, 2871, 2870
  201008, 2530, 2531, 2540, 2539, 2863, 2864, 2873, 2872
  201009, 2531, 2532, 2541, 2540, 2864, 2865, 2874, 2873
  201010, 2532, 2533, 2542, 2541, 2865, 2866, 2875, 2874
  201011, 2533, 2534, 2543, 2542, 2866, 2867, 2876, 2875
  201012, 2534, 2535, 2544, 2543, 2867, 2868, 2877, 2876
  201013, 2535, 2536, 2545, 2544, 2868, 2869, 2878, 2877
  201014, 2536, 2537, 2546, 2545, 2869, 2870, 2879, 2878
  201015, 2537, 2538, 2547, 2546, 2870, 2871, 2880, 2879
  201016, 2539, 2540, 2549, 2548, 2872, 2873, 2882, 2881
  201017, 2540, 2541, 2550, 2549, 2873, 2874, 2883, 2882
  201018, 2541, 2542, 2551, 2550, 2874, 2875, 2884, 2883
  201019, 2542, 2543, 2552, 2551, 2875, 2876, 2885, 2884
  201020, 2543, 2544, 2553, 2552, 2876, 2877, 2886, 2885
  201021, 2544, 2545, 2554, 2553, 2877, 2878, 2887, 2886
  201022, 2545, 2546, 2555, 2554, 2878, 2879, 2888, 2887
  201023, 2546, 2547, 2556, 2555, 2879, 2880, 2889, 2888
  201024, 2548, 2549, 2558, 2557, 2881, 2882, 2891, 2890
  201025, 2549, 2550, 2559, 2558, 2882, 2883, 2892, 2891
  201026, 2550, 2551, 2560, 2559, 2883, 2884, 2893, 2892
  201027, 2551, 2552, 2561, 2560, 2884, 2885, 2894, 2893
  201028, 2552, 2553, 2562, 2561, 2885, 2886, 2895, 2894
  201029, 2553, 2554, 2563, 2562, 2886, 2887, 2896, 2895
  201030, 2554, 2555, 2564, 2563, 2887, 2888, 2897, 2896
  201031, 2555, 2556, 2565, 2564, 2888, 2889, 2898, 2897
  201032, 2557, 2558, 2567, 2566, 2890, 2891, 2900, 2899
  201033, 2558, 2559, 2568, 2567, 2891, 2892, 2901, 2900
  201034, 2559, 2560, 2569, 2568, 2892, 2893, 2902, 2901
  201035, 2560, 2561, 2570, 2569, 2893, 2894, 2903, 2902
  201036, 2561, 2562, 2571, 2570, 2894, 2895, 2904, 2903
  201037, 2562, 2563, 2572, 2571, 2895, 2896, 2905, 2904
  201038, 2563, 2564, 2573, 2572, 2896, 2897, 2906, 2905
  201039, 2564, 2565, 2574, 2573, 2897, 2898, 2907, 2906
  201040, 2566, 2567, 2576, 2575, 2899, 2900, 2909, 2908
  201041, 2567, 2568, 2577, 2576, 2900, 2901, 2910, 2909
  201042, 2568, 2569, 2578, 2577, 2901, 2902, 2911, 2910
  201043, 2569, 2570, 2579, 2578, 2902, 2903, 2912, 2911
  201044, 2570, 2571, 2580, 2579, 2903, 2904, 2913, 2912
  201045, 2571, 2572, 2581, 2580, 2904, 2905, 2914, 2913
  201046, 2572, 2573, 2582, 2581, 2905, 2906, 2915, 2914
  201047, 2573, 2574, 2583, 2582, 2906, 2907, 2916, 2915
  201048, 2575, 2576, 2585, 2584, 2908, 2909, 2918, 2917
  201049, 2576, 2577, 2586, 2585, 2909, 2910, 2919, 2918
  201050, 2577, 2578, 2587, 2586, 2910, 2911, 2920, 2919
  201051, 2578, 2579, 2588, 2587, 2911, 2912, 2921, 2920
  201052, 2579, 2580, 2589, 2588, 2912, 2913, 2922, 2921
  201053, 2580, 2581, 2590, 2589, 2913, 2914, 2923, 2922
  201054, 2581, 2582, 2591, 2590, 2914, 2915, 2924, 2923
  201055, 2582, 2583, 2592, 2591, 2915, 2916, 2925, 2924
  201056, 2584, 2585, 2594, 2593, 2917, 2918, 2927, 2926
  201057, 2585, 2586, 2595, 2594, 2918, 2919, 2928, 2927
  201058, 2586, 2587, 2596, 2595, 2919, 2920, 2929, 2928
  201059, 2587, 2588, 2597, 2596, 2920, 2921, 2930, 2929
  201060, 2588, 2589, 2598, 2597, 2921, 2922, 2931, 2930
  201061, 2589, 2590, 2599, 2598, 2922, 2923, 2932, 2931
  201062, 2590, 2591, 2600, 2599, 2923, 2924, 2933, 2932
  201063, 2591, 2592, 2601, 2600, 2924, 2925, 2934, 2933
  201064, 2593, 2594, 2603, 2602, 2926, 2927, 2936, 2935
  201065, 2594, 2595, 2604, 2603, 2927, 2928, 2937, 2936
  201066, 2595, 2596, 2605, 2604, 2928, 2929, 2938, 2937
  201067, 2596, 2597, 2606, 2605, 2929, 2930, 2939, 2938
  201068, 2597, 2598, 2607, 2606, 2930, 2931, 2940, 2939
  201069, 2598, 2599, 2608, 2607, 2931, 2932, 2941, 2940
  201070, 2599, 2600, 2609, 2608, 2932, 2933, 2942, 2941
  201071, 2600, 2601, 2610, 2609, 2933, 2934, 2943, 2942
  201072, 2602, 2603, 2612, 2611, 2935, 2936, 2945, 2944
  201073, 2603, 2604, 2613, 2612, 2936, 2937, 2946, 2945
  201074, 2604, 2605, 2614, 2613, 2937, 2938, 2947, 2946
  201075, 2605, 2606, 2615, 2614, 2938, 2939, 2948, 2947
  201076, 2606, 2607, 2616, 2615, 2939, 2940, 2949, 2948
  201077, 2607, 2608, 2617, 2616, 2940, 2941, 2950, 2949
  201078, 2608, 2609, 2618, 2617, 2941, 2942, 2951, 2950
  201079, 2609, 2610, 2619, 2618, 2942, 2943, 2952, 2951
  201080, 2611, 2612, 2621, 2620, 2944, 2945, 2954, 2953
  201081, 2612, 2613, 2622, 2621, 2945, 2946, 2955, 2954
  201082, 2613, 2614, 2623, 2622, 2946, 2947, 2956, 2955
  201083, 2614, 2615, 2624, 2623, 2947, 2948, 2957, 2956
  201084, 2615, 2616, 2625, 2624, 2948, 2949, 2958, 2957
  201085, 2616, 2617, 2626, 2625, 2949, 2950, 2959, 2958
  201086, 2617, 2618, 2627, 2626, 2950, 2951, 2960, 2959
  201087, 2618, 2619, 2628, 2627, 2951, 2952, 2961, 2960
  201088, 2620, 2621, 2630, 2629, 2953, 2954, 2963, 2962
  201089, 2621, 2622, 2631, 2630, 2954, 2955, 2964, 2963
  201090, 2622, 2623, 2632, 2631, 2955, 2956, 2965, 2964
  201091, 2623, 2624, 2633, 2632, 2956, 2957, 2966, 2965
  201092, 2624, 2625, 2634, 2633, 2957, 2958, 2967, 2966
  201093, 2625, 2626, 2635, 2634, 2958, 2959, 2968, 2967
  201094, 2626, 2627, 2636, 2635, 2959, 2960, 2969, 2968
  201095, 2627, 2628, 2637, 2636, 2960, 2961, 2970, 2969
  201096, 2629, 2630, 2639, 2638, 2962, 2963, 2972, 2971
  201097, 2630, 2631, 2640, 2639, 2963, 2964, 2973, 2972
  201098, 2631, 2632, 2641, 2640, 2964, 2965, 2974, 2973
  201099, 2632, 2633, 2642, 2641, 2965, 2966, 2975, 2974
  201100, 2633, 2634, 2643, 2642, 2966, 2967, 2976, 2975
  201101, 2634, 2635, 2644, 2643, 2967, 2968, 2977, 2976
  201102, 2635, 2636, 2645, 2644, 2968, 2969, 2978, 2977
  201103, 2636, 2637, 2646, 2645, 2969, 2970, 2979, 2978
  201104, 2638, 2639, 2648, 2647, 2971, 2972, 2981, 2980
  201105, 2639, 2640, 2649, 2648, 2972, 2973, 2982, 2981
  201106, 2640, 2641, 2650, 2649, 2973, 2974, 2983, 2982
  201107, 2641, 2642, 2651, 2650, 2974, 2975, 2984, 2983
  201108, 2642, 2643, 2652, 2651, 2975, 2976, 2985, 2984
  201109, 2643, 2644, 2653, 2652, 2976, 2977, 2986, 2985
  201110, 2644, 2645, 2654, 2653, 2977, 2978, 2987, 2986
  201111, 2645, 2646, 2655, 2654, 2978, 2979, 2988, 2987
  201112, 2647, 2648, 2657, 2656, 2980, 2981, 2990, 2989
  201113, 2648, 2649, 2658, 2657, 2981, 2982, 2991, 2990
  201114, 2649, 2650, 2659, 2658, 2982, 2983, 2992, 2991
  201115, 2650, 2651, 2660, 2659, 2983, 2984, 2993, 2992
  201116, 2651, 2652, 2661, 2660, 2984, 2985, 2994, 2993
  201117, 2652, 2653, 2662, 2661, 2985, 2986, 2995, 2994
  201118, 2653, 2654, 2663, 2662, 2986, 2987, 2996, 2995
  201119, 2654, 2655, 2664, 2663, 2987, 2988, 2997, 2996
  201120, 2656, 2657, 2666, 2665, 2989, 2990, 2999, 2998
  201121, 2657, 2658, 2667, 2666, 2990, 2991, 3000, 2999
  201122, 2658, 2659, 2668, 2667, 2991, 2992, 3001, 3000
  201123, 2659, 2660, 2669, 2668, 2992, 2993, 3002, 3001
  201124, 2660, 2661, 2670, 2669, 2993, 2994, 3003, 3002
  201125, 2661, 2662, 2671, 2670, 2994, 2995, 3004, 3003
  201126, 2662, 2663, 2672, 2671, 2995, 2996, 3005, 3004
  201127, 2663, 2664, 2673, 2672, 2996, 2997, 3006, 3005
  201128, 2665, 2666, 2675, 2674, 2998, 2999, 3008, 3007
  201129, 2666, 2667, 2676, 2675, 2999, 3000, 3009, 3008
  201130, 2667, 2668, 2677, 2676, 3000, 3001, 3010, 3009
  201131, 2668, 2669, 2678, 2677, 3001, 3002, 3011, 3010
  201132, 2669, 2670, 2679, 2678, 3002, 3003, 3012, 3011
  201133, 2670, 2671, 2680, 2679, 3003, 3004, 3013, 3012
  201134, 2671, 2672, 2681, 2680, 3004, 3005, 3014, 3013
  201135, 2672, 2673, 2682, 2681, 3005, 3006, 3015, 3014
  201136, 2674, 2675, 2684, 2683, 3007, 3008, 3017, 3016
  201137, 2675, 2676, 2685, 2684, 3008, 3009, 3018, 3017
  201138, 2676, 2677, 2686, 2685, 3009, 3010, 3019, 3018
  201139, 2677, 2678, 2687, 2686, 3010, 3011, 3020, 3019
  201140, 2678, 2679, 2688, 2687, 3011, 3012, 3021, 3020
  201141, 2679, 2680, 2689, 2688, 3012, 3013, 3022, 3021
  201142, 2680, 2681, 2690, 2689, 3013, 3014, 3023, 3022
  201143, 2681, 2682, 2691, 2690, 3014, 3015, 3024, 3023
  201144, 2683, 2684, 2693, 2692, 3016, 3017, 3026, 3025
  201145, 2684, 2685, 2694, 2693, 3017, 3018, 3027, 3026
  201146, 2685, 2686, 2695, 2694, 3018, 3019, 3028, 3027
  201147, 2686, 2687, 2696, 2695, 3019, 3020, 3029, 3028
  201148, 2687, 2688, 2697, 2696, 3020, 3021, 3030, 3029
  201149, 2688, 2689, 2698, 2697, 3021, 3022, 3031, 3030
  201150, 2689, 2690, 2699, 2698, 3022, 3023, 3032, 3031
  201151, 2690, 2691, 2700, 2699, 3023, 3024, 3033, 3032
  201152, 2701, 2702, 2711, 2710, 3034, 3035, 3044, 3043
  201153, 2702, 2703, 2712, 2711, 3035, 3036, 3045, 3044
  201154, 2703, 2704, 2713, 2712, 3036, 3037, 3046, 3045
  201155, 2704, 2705, 2714, 2713, 3037, 3038, 3047, 3046
  201156, 2705, 2706, 2715, 2714, 3038, 3039, 3048, 3047
  201157, 2706, 2707, 2716, 2715, 3039, 3040, 3049, 3048
  201158, 2707, 2708, 2717, 2716, 3040, 3041, 3050, 3049
  201159, 2708, 2709, 2718, 2717, 3041, 3042, 3051, 3050
  201160, 2710, 2711, 2720, 2719, 3043, 3044, 3053, 3052
  201161, 2711, 2712, 2721, 2720, 3044, 3045, 3054, 3053
  201162, 2712, 2713, 2722, 2721, 3045, 3046, 3055, 3054
  201163, 2713, 2714, 2723, 2722, 3046, 3047, 3056, 3055
  201164, 2714, 2715, 2724, 2723, 3047, 3048, 3057, 3056
  201165, 2715, 2716, 2725, 2724, 3048, 3049, 3058, 3057
  201166, 2716, 2717, 2726, 2725, 3049, 3050, 3059, 3058
  201167, 2717, 2718, 2727, 2726, 3050, 3051, 3060, 3059
  201168, 2719, 2720, 2729, 2728, 3052, 3053, 3062, 3061
  201169, 2720, 2721, 2730, 2729, 3053, 3054, 3063, 3062
  201170, 2721, 2722, 2731, 2730, 3054, 3055, 3064, 3063
  201171, 2722, 2723, 2732, 2731, 3055, 3056, 3065, 3064
  201172, 2723, 2724, 2733, 2732, 3056, 3057, 3066, 3065
  201173, 2724, 2725, 2734, 2733, 3057, 3058, 3067, 3066
  201174, 2725, 2726, 2735, 2734, 3058, 3059, 3068, 3067
  201175, 2726, 2727, 2736, 2735, 3059, 3060, 3069, 3068
  201176, 2728, 2729, 2738, 2737, 3061, 3062, 3071, 3070
  201177, 2729, 2730, 2739, 2738, 3062, 3063, 3072, 3071
  201178, 2730, 2731, 2740, 2739, 3063, 3064, 3073, 3072
  201179, 2731, 2732, 2741, 2740, 3064, 3065, 3074, 3073
  201180, 2732, 2733, 2742, 2741, 3065, 3066, 3075, 3074
  201181, 2733, 2734, 2743, 2742, 3066, 3067, 3076, 3075
  201182, 2734, 2735, 2744, 2743, 3067, 3068, 3077, 3076
  201183, 2735, 2736, 2745, 2744, 3068, 3069, 3078, 3077
  201184, 2737, 2738, 2747, 2746, 3070, 3071, 3080, 3079
  201185, 2738, 2739, 2748, 2747, 3071, 3072, 3081, 3080
  201186, 2739, 2740, 2749, 2748, 3072, 3073, 3082, 3081
  201187, 2740, 2741, 2750, 2749, 3073, 3074, 3083, 3082
  201188, 2741, 2742, 2751, 2750, 3074, 3075, 3084, 3083
  201189, 2742, 2743, 2752, 2751, 3075, 3076, 3085, 3084
  201190, 2743, 2744, 2753, 2752, 3076, 3077, 3086, 3085
  201191, 2744, 2745, 2754, 2753, 3077, 3078, 3087, 3086
  201192, 2746, 2747, 2756, 2755, 3079, 3080, 3089, 3088
  201193, 2747, 2748, 2757, 2756, 3080, 3081, 3090, 3089
  201194, 2748, 2749, 2758, 2757, 3081, 3082, 3091, 3090
  201195, 2749, 2750, 2759, 2758, 3082, 3083, 3092, 3091
  201196, 2750, 2751, 2760, 2759, 3083, 3084, 3093, 3092
  201197, 2751, 2752, 2761, 2760, 3084, 3085, 3094, 3093
  201198, 2752, 2753, 2762, 2761, 3085, 3086, 3095, 3094
  201199, 2753, 2754, 2763, 2762, 3086, 3087, 3096, 3095
  201200, 2755, 2756, 2765, 2764, 3088, 3089, 3098, 3097
  201201, 2756, 2757, 2766, 2765, 3089, 3090, 3099, 3098
  201202, 2757, 2758, 2767, 2766, 3090, 3091, 3100, 3099
  201203, 2758, 2759, 2768, 2767, 3091, 3092, 3101, 3100
  201204, 2759, 2760, 2769, 2768, 3092, 3093, 3102, 3101
  201205, 2760, 2761, 2770, 2769, 3093, 3094, 3103, 3102
  201206, 2761, 2762, 2771, 2770, 3094, 3095, 3104, 3103
  201207, 2762, 2763, 2772, 2771, 3095, 3096, 3105, 3104
  201208, 2764, 2765, 2774, 2773, 3097, 3098, 3107, 3106
  201209, 2765, 2766, 2775, 2774, 3098, 3099, 3108, 3107
  201210, 2766, 2767, 2776, 2775, 3099, 3100, 3109, 3108
  201211, 2767, 2768, 2777, 2776, 3100, 3101, 3110, 3109
  201212, 2768, 2769, 2778, 2777, 3101, 3102, 3111, 3110
  201213, 2769, 2770, 2779, 2778, 3102, 3103, 3112, 3111
  201214, 2770, 2771, 2780, 2779, 3103, 3104, 3113, 3112
  201215, 2771, 2772, 2781, 2780, 3104, 3105, 3114, 3113
  201216, 2773, 2774, 2783, 2782, 3106, 3107, 3116, 3115
  201217, 2774, 2775, 2784, 2783, 3107, 3108, 3117, 3116
  201218, 2775, 2776, 2785, 2784, 3108, 3109, 3118, 3117
  201219, 2776, 2777, 2786, 2785, 3109, 3110, 3119, 3118
  201220, 2777, 2778, 2787, 2786, 3110, 3111, 3120, 3119
  201221, 2778, 2779, 2788, 2787, 3111, 3112, 3121, 3120
  201222, 2779, 2780, 2789, 2788, 3112, 3113, 3122, 3121
  201223, 2780, 2781, 2790, 2789, 3113, 3114, 3123, 3122
  201224, 2782, 2783, 2792, 2791, 3115, 3116, 3125, 3124
  201225, 2783, 2784, 2793, 2792, 3116, 3117, 3126, 3125
  201226, 2784, 2785, 2794, 2793, 3117, 3118, 3127, 3126
  201227, 2785, 2786, 2795, 2794, 3118, 3119, 3128, 3127
  201228, 2786, 2787, 2796, 2795, 3119, 3120, 3129, 3128
  201229, 2787, 2788, 2797, 2796, 3120, 3121, 3130, 3129
  201230, 2788, 2789, 2798, 2797, 3121, 3122, 3131, 3130
  201231, 2789, 2790, 2799, 2798, 3122, 3123, 3132, 3131
  201232, 2791, 2792, 2801, 2800, 3124, 3125, 3134, 3133
  201233, 2792, 2793, 2802, 2801, 3125, 3126, 3135, 3134
  201234, 2793, 2794, 2803, 2802, 3126, 3127, 3136, 3135
  201235, 2794, 2795, 2804, 2803, 3127, 3128, 3137, 3136
  201236, 2795, 2796, 2805, 2804, 3128, 3129, 3138, 3137
  201237, 2796, 2797, 2806, 2805, 3129, 3130, 3139, 3138
  201238, 2797, 2798, 2807, 2806, 3130, 3131, 3140, 3139
  201239, 2798, 2799, 2808, 2807, 3131, 3132, 3141, 3140
  201240, 2800, 2801, 2810, 2809, 3133, 3134, 3143, 3142
  201241, 2801, 2802, 2811, 2810, 3134, 3135, 3144, 3143
  201242, 2802, 2803, 2812, 2811, 3135, 3136, 3145, 3144
  201243, 2803, 2804, 2813, 2812, 3136, 3137, 3146, 3145
  201244, 2804, 2805, 2814, 2813, 3137, 3138, 3147, 3146
  201245, 2805, 2806, 2815, 2814, 3138, 3139, 3148, 3147
  201246, 2806, 2807, 2816, 2815, 3139, 3140, 3149, 3148
  201247, 2807, 2808, 2817, 2816, 3140, 3141, 3150, 3149
  201248, 2809, 2810, 2819, 2818, 3142, 3143, 3152, 3151
  201249, 2810, 2811, 2820, 2819, 3143, 3144, 3153, 3152
  201250, 2811, 2812, 2821, 2820, 3144, 3145, 3154, 3153
  201251, 2812, 2813, 2822, 2821, 3145, 3146, 3155, 3154
  201252, 2813, 2814, 2823, 2822, 3146, 3147, 3156, 3155
  201253, 2814, 2815, 2824, 2823, 3147, 3148, 3157, 3156
  201254, 2815, 2816, 2825, 2824, 3148, 3149, 3158, 3157
  201255, 2816, 2817, 2826, 2825, 3149, 3150, 3159, 3158
  201256, 2818, 2819, 2828, 2827, 3151, 3152, 3161, 3160
  201257, 2819, 2820, 2829, 2828, 3152, 3153, 3162, 3161
  201258, 2820, 2821, 2830, 2829, 3153, 3154, 3163, 3162
  201259, 2821, 2822, 2831, 2830, 3154, 3155, 3164, 3163
  201260, 2822, 2823, 2832, 2831, 3155, 3156, 3165, 3164
  201261, 2823, 2824, 2833, 2832, 3156, 3157, 3166, 3165
  201262, 2824, 2825, 2834, 2833, 3157, 3158, 3167, 3166
  201263, 2825, 2826, 2835, 2834, 3158, 3159, 3168, 3167
  201264, 2827, 2828, 2837, 2836, 3160, 3161, 3170, 3169
  201265, 2828, 2829, 2838, 2837, 3161, 3162, 3171, 3170
  201266, 2829, 2830, 2839, 2838, 3162, 3163, 3172, 3171
  201267, 2830, 2831, 2840, 2839, 3163, 3164, 3173, 3172
  201268, 2831, 2832, 2841, 2840, 3164, 3165, 3174, 3173
  201269, 2832, 2833, 2842, 2841, 3165, 3166, 3175, 3174
  201270, 2833, 2834, 2843, 2842, 3166, 3167, 3176, 3175
  201271, 2834, 2835, 2844, 2843, 3167, 3168, 3177, 3176
  201272, 2836, 2837, 2846, 2845, 3169, 3170, 3179, 3178
  201273, 2837, 2838, 2847, 2846, 3170, 3171, 3180, 3179
  201274, 2838, 2839, 2848, 2847, 3171, 3172, 3181, 3180
  201275, 2839, 2840, 2849, 2848, 3172, 3173, 3182, 3181
  201276, 2840, 2841, 2850, 2849, 3173, 3174, 3183, 3182
  201277, 2841, 2842, 2851, 2850, 3174, 3175, 3184, 3183
  201278, 2842, 2843, 2852, 2851, 3175, 3176, 3185, 3184
  201279, 2843, 2844, 2853, 2852, 3176, 3177, 3186, 3185
  201280, 2845, 2846, 2855, 2854, 3178, 3179, 3188, 3187
  201281, 2846, 2847, 2856, 2855, 3179, 3180, 3189, 3188
  201282, 2847, 2848, 2857, 2856, 3180, 3181, 3190, 3189
  201283, 2848, 2849, 2858, 2857, 3181, 3182, 3191, 3190
  201284, 2849, 2850, 2859, 2858, 3182, 3183, 3192, 3191
  201285, 2850, 2851, 2860, 2859, 3183, 3184, 3193, 3192
  201286, 2851, 2852, 2861, 2860, 3184, 3185, 3194, 3193
  201287, 2852, 2853, 2862, 2861, 3185, 3186, 3195, 3194
  201288, 2854, 2855, 2864, 2863, 3187, 3188, 3197, 3196
  201289, 2855, 2856, 2865, 2864, 3188, 3189, 3198, 3197
  201290, 2856, 2857, 2866, 2865, 3189, 3190, 3199, 3198
  201291, 2857, 2858, 2867, 2866, 3190, 3191, 3200, 3199
  201292, 2858, 2859, 2868, 2867, 3191, 3192, 3201, 3200
  201293, 2859, 2860, 2869, 2868, 3192, 3193, 3202, 3201
  201294, 2860, 2861, 2870, 2869, 3193, 3194, 3203, 3202
  201295, 2861, 2862, 2871, 2870, 3194, 3195, 3204, 3203
  201296, 2863, 2864, 2873, 2872, 3196, 3197, 3206, 3205
  201297, 2864, 2865, 2874, 2873, 3197, 3198, 3207, 3206
  201298, 2865, 2866, 2875, 2874, 3198, 3199, 3208, 3207
  201299, 2866, 2867, 2876, 2875, 3199, 3200, 3209, 3208
  201300, 2867, 2868, 2877, 2876, 3200, 3201, 3210, 3209
  201301, 2868, 2869, 2878, 2877, 3201, 3202, 3211, 3210
  201302, 2869, 2870, 2879, 2878, 3202, 3203, 3212, 3211
  201303, 2870, 2871, 2880, 2879, 3203, 3204, 3213, 3212
  201304, 2872, 2873, 2882, 2881, 3205, 3206, 3215, 3214
  201305, 2873, 2874, 2883, 2882, 3206, 3207, 3216, 3215
  201306, 2874, 2875, 2884, 2883, 3207, 3208, 3217, 3216
  201307, 2875, 2876, 2885, 2884, 3208, 3209, 3218, 3217
  201308, 2876, 2877, 2886, 2885, 3209, 3210, 3219, 3218
  201309, 2877, 2878, 2887, 2886, 3210, 3211, 3220, 3219
  201310, 2878, 2879, 2888, 2887, 3211, 3212, 3221, 3220
  201311, 2879, 2880, 2889, 2888, 3212, 3213, 3222, 3221
  201312, 2881, 2882, 2891, 2890, 3214, 3215, 3224, 3223
  201313, 2882, 2883, 2892, 2891, 3215, 3216, 3225, 3224
  201314, 2883, 2884, 2893, 2892, 3216, 3217, 3226, 3225
  201315, 2884, 2885, 2894, 2893, 3217, 3218, 3227, 3226
  201316, 2885, 2886, 2895, 2894, 3218, 3219, 3228, 3227
  201317, 2886, 2887, 2896, 2895, 3219, 3220, 3229, 3228
  201318, 2887, 2888, 2897, 2896, 3220, 3221, 3230, 3229
  201319, 2888, 2889, 2898, 2897, 3221, 3222, 3231, 3230
  201320, 2890, 2891, 2900, 2899, 3223, 3224, 3233, 3232
  201321, 2891, 2892, 2901, 2900, 3224, 3225, 3234, 3233
  201322, 2892, 2893, 2902, 2901, 3225, 3226, 3235, 3234
  201323, 2893, 2894, 2903, 2902, 3226, 3227, 3236, 3235
  201324, 2894, 2895, 2904, 2903, 3227, 3228, 3237, 3236
  201325, 2895, 2896, 2905, 2904, 3228, 3229, 3238, 3237
  201326, 2896, 2897, 2906, 2905, 3229, 3230, 3239, 3238
  201327, 2897, 2898, 2907, 2906, 3230, 3231, 3240, 3239
  201328, 2899, 2900, 2909, 2908, 3232, 3233, 3242, 3241
  201329, 2900, 2901, 2910, 2909, 3233, 3234, 3243, 3242
  201330, 2901, 2902, 2911, 2910, 3234, 3235, 3244, 3243
  201331, 2902, 2903, 2912, 2911, 3235, 3236, 3245, 3244
  201332, 2903, 2904, 2913, 2912, 3236, 3237, 3246, 3245
  201333, 2904, 2905, 2914, 2913, 3237, 3238, 3247, 3246
  201334, 2905, 2906, 2915, 2914, 3238, 3239, 3248, 3247
  201335, 2906, 2907, 2916, 2915, 3239, 3240, 3249, 3248
  201336, 2908, 2909, 2918, 2917, 3241, 3242, 3251, 3250
  201337, 2909, 2910, 2919, 2918, 3242, 3243, 3252, 3251
  201338, 2910, 2911, 2920, 2919, 3243, 3244, 3253, 3252
  201339, 2911, 2912, 2921, 2920, 3244, 3245, 3254, 3253
  201340, 2912, 2913, 2922, 2921, 3245, 3246, 3255, 3254
  201341, 2913, 2914, 2923, 2922, 3246, 3247, 3256, 3255
  201342, 2914, 2915, 2924, 2923, 3247, 3248, 3257, 3256
  201343, 2915, 2916, 2925, 2924, 3248, 3249, 3258, 3257
  201344, 2917, 2918, 2927, 2926, 3250, 3251, 3260, 3259
  201345, 2918, 2919, 2928, 2927, 3251, 3252, 3261, 3260
  201346, 2919, 2920, 2929, 2928, 3252, 3253, 3262, 3261
  201347, 2920, 2921, 2930, 2929, 3253, 3254, 3263, 3262
  201348, 2921, 2922, 2931, 2930, 3254, 3255, 3264, 3263
  201349, 2922, 2923, 2932, 2931, 3255, 3256, 3265, 3264
  201350, 2923, 2924, 2933, 2932, 3256, 3257, 3266, 3265
  201351, 2924, 2925, 2934, 2933, 3257, 3258, 3267, 3266
  201352, 2926, 2927, 2936, 2935, 3259, 3260, 3269, 3268
  201353, 2927, 2928, 2937, 2936, 3260, 3261, 3270, 3269
  201354, 2928, 2929, 2938, 2937, 3261, 3262, 3271, 3270
  201355, 2929, 2930, 2939, 2938, 3262, 3263, 3272, 3271
  201356, 2930, 2931, 2940, 2939, 3263, 3264, 3273, 3272
  201357, 2931, 2932, 2941, 2940, 3264, 3265, 3274, 3273
  201358, 2932, 2933, 2942, 2941, 3265, 3266, 3275, 3274
  201359, 2933, 2934, 2943, 2942, 3266, 3267, 3276, 3275
  201360, 2935, 2936, 2945, 2944, 3268, 3269, 3278, 3277
  201361, 2936, 2937, 2946, 2945, 3269, 3270, 3279, 3278
  201362, 2937, 2938, 2947, 2946, 3270, 3271, 3280, 3279
  201363, 2938, 2939, 2948, 2947, 3271, 3272, 3281, 3280
  201364, 2939, 2940, 2949, 2948, 3272, 3273, 3282, 3281
  201365, 2940, 2941, 2950, 2949, 3273, 3274, 3283, 3282
  201366, 2941, 2942, 2951, 2950, 3274, 3275, 3284, 3283
  201367, 2942, 2943, 2952, 2951, 3275, 3276, 3285, 3284
  201368, 2944, 2945, 2954, 2953, 3277, 3278, 3287, 3286
  201369, 2945, 2946, 2955, 2954, 3278, 3279, 3288, 3287
  201370, 2946, 2947, 2956, 2955, 3279, 3280, 3289, 3288
  201371, 2947, 2948, 2957, 2956, 3280, 3281, 3290, 3289
  201372, 2948, 2949, 2958, 2957, 3281, 3282, 3291, 3290
  201373, 2949, 2950, 2959, 2958, 3282, 3283, 3292, 3291
  201374, 2950, 2951, 2960, 2959, 3283, 3284, 3293, 3292
  201375, 2951, 2952, 2961, 2960, 3284, 3285, 3294, 3293
  201376, 2953, 2954, 2963, 2962, 3286, 3287, 3296, 3295
  201377, 2954, 2955, 2964, 2963, 3287, 3288, 3297, 3296
  201378, 2955, 2956, 2965, 2964, 3288, 3289, 3298, 3297
  201379, 2956, 2957, 2966, 2965, 3289, 3290, 3299, 3298
  201380, 2957, 2958, 2967, 2966, 3290, 3291, 3300, 3299
  201381, 2958, 2959, 2968, 2967, 3291, 3292, 3301, 3300
  201382, 2959, 2960, 2969, 2968, 3292, 3293, 3302, 3301
  201383, 2960, 2961, 2970, 2969, 3293, 3294, 3303, 3302
  201384, 2962, 2963, 2972, 2971, 3295, 3296, 3305, 3304
  201385, 2963, 2964, 2973, 2972, 3296, 3297, 3306, 3305
  201386, 2964, 2965, 2974, 2973, 3297, 3298, 3307, 3306
  201387, 2965, 2966, 2975, 2974, 3298, 3299, 3308, 3307
  201388, 2966, 2967, 2976, 2975, 3299, 3300, 3309, 3308
  201389, 2967, 2968, 2977, 2976, 3300, 3301, 3310, 3309
  201390, 2968, 2969, 2978, 2977, 3301, 3302, 3311, 3310
  201391, 2969, 2970, 2979, 2978, 3302, 3303, 3312, 3311
  201392, 2971, 2972, 2981, 2980, 3304, 3305, 3314, 3313
  201393, 2972, 2973, 2982, 2981, 3305, 3306, 3315, 3314
  201394, 2973, 2974, 2983, 2982, 3306, 3307, 3316, 3315
  201395, 2974, 2975, 2984, 2983, 3307, 3308, 3317, 3316
  201396, 2975, 2976, 2985, 2984, 3308, 3309, 3318, 3317
  201397, 2976, 2977, 2986, 2985, 3309, 3310, 3319, 3318
  201398, 2977, 2978, 2987, 2986, 3310, 3311, 3320, 3319
  201399, 2978, 2979, 2988, 2987, 3311, 3312, 3321, 3320
  201400, 2980, 2981, 2990, 2989, 3313, 3314, 3323, 3322
  201401, 2981, 2982, 2991, 2990, 3314, 3315, 3324, 3323
  201402, 2982, 2983, 2992, 2991, 3315, 3316, 3325, 3324
  201403, 2983, 2984, 2993, 2992, 3316, 3317, 3326, 3325
  201404, 2984, 2985, 2994, 2993, 3317, 3318, 3327, 3326
  201405, 2985, 2986, 2995, 2994, 3318, 3319, 3328, 3327
  201406, 2986, 2987, 2996, 2995, 3319, 3320, 3329, 3328
  201407, 2987, 2988, 2997, 2996, 3320, 3321, 3330, 3329
  201408, 2989, 2990, 2999, 2998, 3322, 3323, 3332, 3331
  201409, 2990, 2991, 3000, 2999, 3323, 3324, 3333, 3332
  201410, 2991, 2992, 3001, 3000, 3324, 3325, 3334, 3333
  201411, 2992, 2993, 3002, 3001, 3325, 3326, 3335, 3334
  201412, 2993, 2994, 3003, 3002, 3326, 3327, 3336, 3335
  201413, 2994, 2995, 3004, 3003, 3327, 3328, 3337, 3336
  201414, 2995, 2996, 3005, 3004, 3328, 3329, 3338, 3337
  201415, 2996, 2997, 3006, 3005, 3329, 3330, 3339, 3338
  201416, 2998, 2999, 3008, 3007, 3331, 3332, 3341, 3340
  201417, 2999, 3000, 3009, 3008, 3332, 3333, 3342, 3341
  201418, 3000, 3001, 3010, 3009, 3333, 3334, 3343, 3342
  201419, 3001, 3002, 3011, 3010, 3334, 3335, 3344, 3343
  201420, 3002, 3003, 3012, 3011, 3335, 3336, 3345, 3344
  201421, 3003, 3004, 3013, 3012, 3336, 3337, 3346, 3345
  201422, 3004, 3005, 3014, 3013, 3337, 3338, 3347, 3346
  201423, 3005, 3006, 3015, 3014, 3338, 3339, 3348, 3347
  201424, 3007, 3008, 3017, 3016, 3340, 3341, 3350, 3349
  201425, 3008, 3009, 3018, 3017, 3341, 3342, 3351, 3350
  201426, 3009, 3010, 3019, 3018, 3342, 3343, 3352, 3351
  201427, 3010, 3011, 3020, 3019, 3343, 3344, 3353, 3352
  201428, 3011, 3012, 3021, 3020, 3344, 3345, 3354, 3353
  201429, 3012, 3013, 3022, 3021, 3345, 3346, 3355, 3354
  201430, 3013, 3014, 3023, 3022, 3346, 3347, 3356, 3355
  201431, 3014, 3015, 3024, 3023, 3347, 3348, 3357, 3356
  201432, 3016, 3017, 3026, 3025, 3349, 3350, 3359, 3358
  201433, 3017, 3018, 3027, 3026, 3350, 3351, 3360, 3359
  201434, 3018, 3019, 3028, 3027, 3351, 3352, 3361, 3360
  201435, 3019, 3020, 3029, 3028, 3352, 3353, 3362, 3361
  201436, 3020, 3021, 3030, 3029, 3353, 3354, 3363, 3362
  201437, 3021, 3022, 3031, 3030, 3354, 3355, 3364, 3363
  201438, 3022, 3023, 3032, 3031, 3355, 3356, 3365, 3364
  201439, 3023, 3024, 3033, 3032, 3356, 3357, 3366, 3365
  201440, 3034, 3035, 3044, 3043, 3367, 3368, 3377, 3376
  201441, 3035, 3036, 3045, 3044, 3368, 3369, 3378, 3377
  201442, 3036, 3037, 3046, 3045, 3369, 3370, 3379, 3378
  201443, 3037, 3038, 3047, 3046, 3370, 3371, 3380, 3379
  201444, 3038, 3039, 3048, 3047, 3371, 3372, 3381, 3380
  201445, 3039, 3040, 3049, 3048, 3372, 3373, 3382, 3381
  201446, 3040, 3041, 3050, 3049, 3373, 3374, 3383, 3382
  201447, 3041, 3042, 3051, 3050, 3374, 3375, 3384, 3383
  201448, 3043, 3044, 3053, 3052, 3376, 3377, 3386, 3385
  201449, 3044, 3045, 3054, 3053, 3377, 3378, 3387, 3386
  201450, 3045, 3046, 3055, 3054, 3378, 3379, 3388, 3387
  201451, 3046, 3047, 3056, 3055, 3379, 3380, 3389, 3388
  201452, 3047, 3048, 3057, 3056, 3380, 3381, 3390, 3389
  201453, 3048, 3049, 3058, 3057, 3381, 3382, 3391, 3390
  201454, 3049, 3050, 3059, 3058, 3382, 3383, 3392, 3391
  201455, 3050, 3051, 3060, 3059, 3383, 3384, 3393, 3392
  201456, 3052, 3053, 3062, 3061, 3385, 3386, 3395, 3394
  201457, 3053, 3054, 3063, 3062, 3386, 3387, 3396, 3395
  201458, 3054, 3055, 3064, 3063, 3387, 3388, 3397, 3396
  201459, 3055, 3056, 3065, 3064, 3388, 3389, 3398, 3397
  201460, 3056, 3057, 3066, 3065, 3389, 3390, 3399, 3398
  201461, 3057, 3058, 3067, 3066, 3390, 3391, 3400, 3399
  201462, 3058, 3059, 3068, 3067, 3391, 3392, 3401, 3400
  201463, 3059, 3060, 3069, 3068, 3392, 3393, 3402, 3401
  201464, 3061, 3062, 3071, 3070, 3394, 3395, 3404, 3403
  201465, 3062, 3063, 3072, 3071, 3395, 3396, 3405, 3404
  201466, 3063, 3064, 3073, 3072, 3396, 3397, 3406, 3405
  201467, 3064, 3065, 3074, 3073, 3397, 3398, 3407, 3406
  201468, 3065, 3066, 3075, 3074, 3398, 3399, 3408, 3407
  201469, 3066, 3067, 3076, 3075, 3399, 3400, 3409, 3408
  201470, 3067, 3068, 3077, 3076, 3400, 3401, 3410, 3409
  201471, 3068, 3069, 3078, 3077, 3401, 3402, 3411, 3410
  201472, 3070, 3071, 3080, 3079, 3403, 3404, 3413, 3412
  201473, 3071, 3072, 3081, 3080, 3404, 3405, 3414, 3413
  201474, 3072, 3073, 3082, 3081, 3405, 3406, 3415, 3414
  201475, 3073, 3074, 3083, 3082, 3406, 3407, 3416, 3415
  201476, 3074, 3075, 3084, 3083, 3407, 3408, 3417, 3416
  201477, 3075, 3076, 3085, 3084, 3408, 3409, 3418, 3417
  201478, 3076, 3077, 3086, 3085, 3409, 3410, 3419, 3418
  201479, 3077, 3078, 3087, 3086, 3410, 3411, 3420, 3419
  201480, 3079, 3080, 3089, 3088, 3412, 3413, 3422, 3421
  201481, 3080, 3081, 3090, 3089, 3413, 3414, 3423, 3422
  201482, 3081, 3082, 3091, 3090, 3414, 3415, 3424, 3423
  201483, 3082, 3083, 3092, 3091, 3415, 3416, 3425, 3424
  201484, 3083, 3084, 3093, 3092, 3416, 3417, 3426, 3425
  201485, 3084, 3085, 3094, 3093, 3417, 3418, 3427, 3426
  201486, 3085, 3086, 3095, 3094, 3418, 3419, 3428, 3427
  201487, 3086, 3087, 3096, 3095, 3419, 3420, 3429, 3428
  201488, 3088, 3089, 3098, 3097, 3421, 3422, 3431, 3430
  201489, 3089, 3090, 3099, 3098, 3422, 3423, 3432, 3431
  201490, 3090, 3091, 3100, 3099, 3423, 3424, 3433, 3432
  201491, 3091, 3092, 3101, 3100, 3424, 3425, 3434, 3433
  201492, 3092, 3093, 3102, 3101, 3425, 3426, 3435, 3434
  201493, 3093, 3094, 3103, 3102, 3426, 3427, 3436, 3435
  201494, 3094, 3095, 3104, 3103, 3427, 3428, 3437, 3436
  201495, 3095, 3096, 3105, 3104, 3428, 3429, 3438, 3437
  201496, 3097, 3098, 3107, 3106, 3430, 3431, 3440, 3439
  201497, 3098, 3099, 3108, 3107, 3431, 3432, 3441, 3440
  201498, 3099, 3100, 3109, 3108, 3432, 3433, 3442, 3441
  201499, 3100, 3101, 3110, 3109, 3433, 3434, 3443, 3442
  201500, 3101, 3102, 3111, 3110, 3434, 3435, 3444, 3443
  201501, 3102, 3103, 3112, 3111, 3435, 3436, 3445, 3444
  201502, 3103, 3104, 3113, 3112, 3436, 3437, 3446, 3445
  201503, 3104, 3105, 3114, 3113, 3437, 3438, 3447, 3446
  201504, 3106, 3107, 3116, 3115, 3439, 3440, 3449, 3448
  201505, 3107, 3108, 3117, 3116, 3440, 3441, 3450, 3449
  201506, 3108, 3109, 3118, 3117, 3441, 3442, 3451, 3450
  201507, 3109, 3110, 3119, 3118, 3442, 3443, 3452, 3451
  201508, 3110, 3111, 3120, 3119, 3443, 3444, 3453, 3452
  201509, 3111, 3112, 3121, 3120, 3444, 3445, 3454, 3453
  201510, 3112, 3113, 3122, 3121, 3445, 3446, 3455, 3454
  201511, 3113, 3114, 3123, 3122, 3446, 3447, 3456, 3455
  201512, 3115, 3116, 3125, 3124, 3448, 3449, 3458, 3457
  201513, 3116, 3117, 3126, 3125, 3449, 3450, 3459, 3458
  201514, 3117, 3118, 3127, 3126, 3450, 3451, 3460, 3459
  201515, 3118, 3119, 3128, 3127, 3451, 3452, 3461, 3460
  201516, 3119, 3120, 3129, 3128, 3452, 3453, 3462, 3461
  201517, 3120, 3121, 3130, 3129, 3453, 3454, 3463, 3462
  201518, 3121, 3122, 3131, 3130, 3454, 3455, 3464, 3463
  201519, 3122, 3123, 3132, 3131, 3455, 3456, 3465, 3464
  201520, 3124, 3125, 3134, 3133, 3457, 3458, 3467, 3466
  201521, 3125, 3126, 3135, 3134, 3458, 3459, 3468, 3467
  201522, 3126, 3127, 3136, 3135, 3459, 3460, 3469, 3468
  201523, 3127, 3128, 3137, 3136, 3460, 3461, 3470, 3469
  201524, 3128, 3129, 3138, 3137, 3461, 3462, 3471, 3470
  201525, 3129, 3130, 3139, 3138, 3462, 3463, 3472, 3471
  201526, 3130, 3131, 3140, 3139, 3463, 3464, 3473, 3472
  201527, 3131, 3132, 3141, 3140, 3464, 3465, 3474, 3473
  201528, 3133, 3134, 3143, 3142, 3466, 3467, 3476, 3475
  201529, 3134, 3135, 3144, 3143, 3467, 3468, 3477, 3476
  201530, 3135, 3136, 3145, 3144, 3468, 3469, 3478, 3477
  201531, 3136, 3137, 3146, 3145, 3469, 3470, 3479, 3478
  201532, 3137, 3138, 3147, 3146, 3470, 3471, 3480, 3479
  201533, 3138, 3139, 3148, 3147, 3471, 3472, 3481, 3480
  201534, 3139, 3140, 3149, 3148, 3472, 3473, 3482, 3481
  201535, 3140, 3141, 3150, 3149, 3473, 3474, 3483, 3482
  201536, 3142, 3143, 3152, 3151, 3475, 3476, 3485, 3484
  201537, 3143, 3144, 3153, 3152, 3476, 3477, 3486, 3485
  201538, 3144, 3145, 3154, 3153, 3477, 3478, 3487, 3486
  201539, 3145, 3146, 3155, 3154, 3478, 3479, 3488, 3487
  201540, 3146, 3147, 3156, 3155, 3479, 3480, 3489, 3488
  201541, 3147, 3148, 3157, 3156, 3480, 3481, 3490, 3489
  201542, 3148, 3149, 3158, 3157, 3481, 3482, 3491, 3490
  201543, 3149, 3150, 3159, 3158, 3482, 3483, 3492, 3491
  201544, 3151, 3152, 3161, 3160, 3484, 3485, 3494, 3493
  201545, 3152, 3153, 3162, 3161, 3485, 3486, 3495, 3494
  201546, 3153, 3154, 3163, 3162, 3486, 3487, 3496, 3495
  201547, 3154, 3155, 3164, 3163, 3487, 3488, 3497, 3496
  201548, 3155, 3156, 3165, 3164, 3488, 3489, 3498, 3497
  201549, 3156, 3157, 3166, 3165, 3489, 3490, 3499, 3498
  201550, 3157, 3158, 3167, 3166, 3490, 3491, 3500, 3499
  201551, 3158, 3159, 3168, 3167, 3491, 3492, 3501, 3500
  201552, 3160, 3161, 3170, 3169, 3493, 3494, 3503, 3502
  201553, 3161, 3162, 3171, 3170, 3494, 3495, 3504, 3503
  201554, 3162, 3163, 3172, 3171, 3495, 3496, 3505, 3504
  201555, 3163, 3164, 3173, 3172, 3496, 3497, 3506, 3505
  201556, 3164, 3165, 3174, 3173, 3497, 3498, 3507, 3506
  201557, 3165, 3166, 3175, 3174, 3498, 3499, 3508, 3507
  201558, 3166, 3167, 3176, 3175, 3499, 3500, 3509, 3508
  201559, 3167, 3168, 3177, 3176, 3500, 3501, 3510, 3509
  201560, 3169, 3170, 3179, 3178, 3502, 3503, 3512, 3511
  201561, 3170, 3171, 3180, 3179, 3503, 3504, 3513, 3512
  201562, 3171, 3172, 3181, 3180, 3504, 3505, 3514, 3513
  201563, 3172, 3173, 3182, 3181, 3505, 3506, 3515, 3514
  201564, 3173, 3174, 3183, 3182, 3506, 3507, 3516, 3515
  201565, 3174, 3175, 3184, 3183, 3507, 3508, 3517, 3516
  201566, 3175, 3176, 3185, 3184, 3508, 3509, 3518, 3517
  201567, 3176, 3177, 3186, 3185, 3509, 3510, 3519, 3518
  201568, 3178, 3179, 3188, 3187, 3511, 3512, 3521, 3520
  201569, 3179, 3180, 3189, 3188, 3512, 3513, 3522, 3521
  201570, 3180, 3181, 3190, 3189, 3513, 3514, 3523, 3522
  201571, 3181, 3182, 3191, 3190, 3514, 3515, 3524, 3523
  201572, 3182, 3183, 3192, 3191, 3515, 3516, 3525, 3524
  201573, 3183, 3184, 3193, 3192, 3516, 3517, 3526, 3525
  201574, 3184, 3185, 3194, 3193, 3517, 3518, 3527, 3526
  201575, 3185, 3186, 3195, 3194, 3518, 3519, 3528, 3527
  201576, 3187, 3188, 3197, 3196, 3520, 3521, 3530, 3529
  201577, 3188, 3189, 3198, 3197, 3521, 3522, 3531, 3530
  201578, 3189, 3190, 3199, 3198, 3522, 3523, 3532, 3531
  201579, 3190, 3191, 3200, 3199, 3523, 3524, 3533, 3532
  201580, 3191, 3192, 3201, 3200, 3524, 3525, 3534, 3533
  201581, 3192, 3193, 3202, 3201, 3525, 3526, 3535, 3534
  201582, 3193, 3194, 3203, 3202, 3526, 3527, 3536, 3535
  201583, 3194, 3195, 3204, 3203, 3527, 3528, 3537, 3536
  201584, 3196, 3197, 3206, 3205, 3529, 3530, 3539, 3538
  201585, 3197, 3198, 3207, 3206, 3530, 3531, 3540, 3539
  201586, 3198, 3199, 3208, 3207, 3531, 3532, 3541, 3540
  201587, 3199, 3200, 3209, 3208, 3532, 3533, 3542, 3541
  201588, 3200, 3201, 3210, 3209, 3533, 3534, 3543, 3542
  201589, 3201, 3202, 3211, 3210, 3534, 3535, 3544, 3543
  201590, 3202, 3203, 3212, 3211, 3535, 3536, 3545, 3544
  201591, 3203, 3204, 3213, 3212, 3536, 3537, 3546, 3545
  201592, 3205, 3206, 3215, 3214, 3538, 3539, 3548, 3547
  201593, 3206, 3207, 3216, 3215, 3539, 3540, 3549, 3548
  201594, 3207, 3208, 3217, 3216, 3540, 3541, 3550, 3549
  201595, 3208, 3209, 3218, 3217, 3541, 3542, 3551, 3550
  201596, 3209, 3210, 3219, 3218, 3542, 3543, 3552, 3551
  201597, 3210, 3211, 3220, 3219, 3543, 3544, 3553, 3552
  201598, 3211, 3212, 3221, 3220, 3544, 3545, 3554, 3553
  201599, 3212, 3213, 3222, 3221, 3545, 3546, 3555, 3554
  201600, 3214, 3215, 3224, 3223, 3547, 3548, 3557, 3556
  201601, 3215, 3216, 3225, 3224, 3548, 3549, 3558, 3557
  201602, 3216, 3217, 3226, 3225, 3549, 3550, 3559, 3558
  201603, 3217, 3218, 3227, 3226, 3550, 3551, 3560, 3559
  201604, 3218, 3219, 3228, 3227, 3551, 3552, 3561, 3560
  201605, 3219, 3220, 3229, 3228, 3552, 3553, 3562, 3561
  201606, 3220, 3221, 3230, 3229, 3553, 3554, 3563, 3562
  201607, 3221, 3222, 3231, 3230, 3554, 3555, 3564, 3563
  201608, 3223, 3224, 3233, 3232, 3556, 3557, 3566, 3565
  201609, 3224, 3225, 3234, 3233, 3557, 3558, 3567, 3566
  201610, 3225, 3226, 3235, 3234, 3558, 3559, 3568, 3567
  201611, 3226, 3227, 3236, 3235, 3559, 3560, 3569, 3568
  201612, 3227, 3228, 3237, 3236, 3560, 3561, 3570, 3569
  201613, 3228, 3229, 3238, 3237, 3561, 3562, 3571, 3570
  201614, 3229, 3230, 3239, 3238, 3562, 3563, 3572, 3571
  201615, 3230, 3231, 3240, 3239, 3563, 3564, 3573, 3572
  201616, 3232, 3233, 3242, 3241, 3565, 3566, 3575, 3574
  201617, 3233, 3234, 3243, 3242, 3566, 3567, 3576, 3575
  201618, 3234, 3235, 3244, 3243, 3567, 3568, 3577, 3576
  201619, 3235, 3236, 3245, 3244, 3568, 3569, 3578, 3577
  201620, 3236, 3237, 3246, 3245, 3569, 3570, 3579, 3578
  201621, 3237, 3238, 3247, 3246, 3570, 3571, 3580, 3579
  201622, 3238, 3239, 3248, 3247, 3571, 3572, 3581, 3580
  201623, 3239, 3240, 3249, 3248, 3572, 3573, 3582, 3581
  201624, 3241, 3242, 3251, 3250, 3574, 3575, 3584, 3583
  201625, 3242, 3243, 3252, 3251, 3575, 3576, 3585, 3584
  201626, 3243, 3244, 3253, 3252, 3576, 3577, 3586, 3585
  201627, 3244, 3245, 3254, 3253, 3577, 3578, 3587, 3586
  201628, 3245, 3246, 3255, 3254, 3578, 3579, 3588, 3587
  201629, 3246, 3247, 3256, 3255, 3579, 3580, 3589, 3588
  201630, 3247, 3248, 3257, 3256, 3580, 3581, 3590, 3589
  201631, 3248, 3249, 3258, 3257, 3581, 3582, 3591, 3590
  201632, 3250, 3251, 3260, 3259, 3583, 3584, 3593, 3592
  201633, 3251, 3252, 3261, 3260, 3584, 3585, 3594, 3593
  201634, 3252, 3253, 3262, 3261, 3585, 3586, 3595, 3594
  201635, 3253, 3254, 3263, 3262, 3586, 3587, 3596, 3595
  201636, 3254, 3255, 3264, 3263, 3587, 3588, 3597, 3596
  201637, 3255, 3256, 3265, 3264, 3588, 3589, 3598, 3597
  201638, 3256, 3257, 3266, 3265, 3589, 3590, 3599, 3598
  201639, 3257, 3258, 3267, 3266, 3590, 3591, 3600, 3599
  201640, 3259, 3260, 3269, 3268, 3592, 3593, 3602, 3601
  201641, 3260, 3261, 3270, 3269, 3593, 3594, 3603, 3602
  201642, 3261, 3262, 3271, 3270, 3594, 3595, 3604, 3603
  201643, 3262, 3263, 3272, 3271, 3595, 3596, 3605, 3604
  201644, 3263, 3264, 3273, 3272, 3596, 3597, 3606, 3605
  201645, 3264, 3265, 3274, 3273, 3597, 3598, 3607, 3606
  201646, 3265, 3266, 3275, 3274, 3598, 3599, 3608, 3607
  201647, 3266, 3267, 3276, 3275, 3599, 3600, 3609, 3608
  201648, 3268, 3269, 3278, 3277, 3601, 3602, 3611, 3610
  201649, 3269, 3270, 3279, 3278, 3602, 3603, 3612, 3611
  201650, 3270, 3271, 3280, 3279, 3603, 3604, 3613, 3612
  201651, 3271, 3272, 3281, 3280, 3604, 3605, 3614, 3613
  201652, 3272, 3273, 3282, 3281, 3605, 3606, 3615, 3614
  201653, 3273, 3274, 3283, 3282, 3606, 3607, 3616, 3615
  201654, 3274, 3275, 3284, 3283, 3607, 3608, 3617, 3616
  201655, 3275, 3276, 3285, 3284, 3608, 3609, 3618, 3617
  201656, 3277, 3278, 3287, 3286, 3610, 3611, 3620, 3619
  201657, 3278, 3279, 3288, 3287, 3611, 3612, 3621, 3620
  201658, 3279, 3280, 3289, 3288, 3612, 3613, 3622, 3621
  201659, 3280, 3281, 3290, 3289, 3613, 3614, 3623, 3622
  201660, 3281, 3282, 3291, 3290, 3614, 3615, 3624, 3623
  201661, 3282, 3283, 3292, 3291, 3615, 3616, 3625, 3624
  201662, 3283, 3284, 3293, 3292, 3616, 3617, 3626, 3625
  201663, 3284, 3285, 3294, 3293, 3617, 3618, 3627, 3626
  201664, 3286, 3287, 3296, 3295, 3619, 3620, 3629, 3628
  201665, 3287, 3288, 3297, 3296, 3620, 3621, 3630, 3629
  201666, 3288, 3289, 3298, 3297, 3621, 3622, 3631, 3630
  201667, 3289, 3290, 3299, 3298, 3622, 3623, 3632, 3631
  201668, 3290, 3291, 3300, 3299, 3623, 3624, 3633, 3632
  201669, 3291, 3292, 3301, 3300, 3624, 3625, 3634, 3633
  201670, 3292, 3293, 3302, 3301, 3625, 3626, 3635, 3634
  201671, 3293, 3294, 3303, 3302, 3626, 3627, 3636, 3635
  201672, 3295, 3296, 3305, 3304, 3628, 3629, 3638, 3637
  201673, 3296, 3297, 3306, 3305, 3629, 3630, 3639, 3638
  201674, 3297, 3298, 3307, 3306, 3630, 3631, 3640, 3639
  201675, 3298, 3299, 3308, 3307, 3631, 3632, 3641, 3640
  201676, 3299, 3300, 3309, 3308, 3632, 3633, 3642, 3641
  201677, 3300, 3301, 3310, 3309, 3633, 3634, 3643, 3642
  201678, 3301, 3302, 3311, 3310, 3634, 3635, 3644, 3643
  201679, 3302, 3303, 3312, 3311, 3635, 3636, 3645, 3644
  201680, 3304, 3305, 3314, 3313, 3637, 3638, 3647, 3646
  201681, 3305, 3306, 3315, 3314, 3638, 3639, 3648, 3647
  201682, 3306, 3307, 3316, 3315, 3639, 3640, 3649, 3648
  201683, 3307, 3308, 3317, 3316, 3640, 3641, 3650, 3649
  201684, 3308, 3309, 3318, 3317, 3641, 3642, 3651, 3650
  201685, 3309, 3310, 3319, 3318, 3642, 3643, 3652, 3651
  201686, 3310, 3311, 3320, 3319, 3643, 3644, 3653, 3652
  201687, 3311, 3312, 3321, 3320, 3644, 3645, 3654, 3653
  201688, 3313, 3314, 3323, 3322, 3646, 3647, 3656, 3655
  201689, 3314, 3315, 3324, 3323, 3647, 3648, 3657, 3656
  201690, 3315, 3316, 3325, 3324, 3648, 3649, 3658, 3657
  201691, 3316, 3317, 3326, 3325, 3649, 3650, 3659, 3658
  201692, 3317, 3318, 3327, 3326, 3650, 3651, 3660, 3659
  201693, 3318, 3319, 3328, 3327, 3651, 3652, 3661, 3660
  201694, 3319, 3320, 3329, 3328, 3652, 3653, 3662, 3661
  201695, 3320, 3321, 3330, 3329, 3653, 3654, 3663, 3662
  201696, 3322, 3323, 3332, 3331, 3655, 3656, 3665, 3664
  201697, 3323, 3324, 3333, 3332, 3656, 3657, 3666, 3665
  201698, 3324, 3325, 3334, 3333, 3657, 3658, 3667, 3666
  201699, 3325, 3326, 3335, 3334, 3658, 3659, 3668, 3667
  201700, 3326, 3327, 3336, 3335, 3659, 3660, 3669, 3668
  201701, 3327, 3328, 3337, 3336, 3660, 3661, 3670, 3669
  201702, 3328, 3329, 3338, 3337, 3661, 3662, 3671, 3670
  201703, 3329, 3330, 3339, 3338, 3662, 3663, 3672, 3671
  201704, 3331, 3332, 3341, 3340, 3664, 3665, 3674, 3673
  201705, 3332, 3333, 3342, 3341, 3665, 3666, 3675, 3674
  201706, 3333, 3334, 3343, 3342, 3666, 3667, 3676, 3675
  201707, 3334, 3335, 3344, 3343, 3667, 3668, 3677, 3676
  201708, 3335, 3336, 3345, 3344, 3668, 3669, 3678, 3677
  201709, 3336, 3337, 3346, 3345, 3669, 3670, 3679, 3678
  201710, 3337, 3338, 3347, 3346, 3670, 3671, 3680, 3679
  201711, 3338, 3339, 3348, 3347, 3671, 3672, 3681, 3680
  201712, 3340, 3341, 3350, 3349, 3673, 3674, 3683, 3682
  201713, 3341, 3342, 3351, 3350, 3674, 3675, 3684, 3683
  201714, 3342, 3343, 3352, 3351, 3675, 3676, 3685, 3684
  201715, 3343, 3344, 3353, 3352, 3676, 3677, 3686, 3685
  201716, 3344, 3345, 3354, 3353, 3677, 3678, 3687, 3686
  201717, 3345, 3346, 3355, 3354, 3678, 3679, 3688, 3687
  201718, 3346, 3347, 3356, 3355, 3679, 3680, 3689, 3688
  201719, 3347, 3348, 3357, 3356, 3680, 3681, 3690, 3689
  201720, 3349, 3350, 3359, 3358, 3682, 3683, 3692, 3691
  201721, 3350, 3351, 3360, 3359, 3683, 3684, 3693, 3692
  201722, 3351, 3352, 3361, 3360, 3684, 3685, 3694, 3693
  201723, 3352, 3353, 3362, 3361, 3685, 3686, 3695, 3694
  201724, 3353, 3354, 3363, 3362, 3686, 3687, 3696, 3695
  201725, 3354, 3355, 3364, 3363, 3687, 3688, 3697, 3696
  201726, 3355, 3356, 3365, 3364, 3688, 3689, 3698, 3697
  201727, 3356, 3357, 3366, 3365, 3689, 3690, 3699, 3698
  201728, 3367, 3368, 3377, 3376, 3700, 3701, 3710, 3709
  201729, 3368, 3369, 3378, 3377, 3701, 3702, 3711, 3710
  201730, 3369, 3370, 3379, 3378, 3702, 3703, 3712, 3711
  201731, 3370, 3371, 3380, 3379, 3703, 3704, 3713, 3712
  201732, 3371, 3372, 3381, 3380, 3704, 3705, 3714, 3713
  201733, 3372, 3373, 3382, 3381, 3705, 3706, 3715, 3714
  201734, 3373, 3374, 3383, 3382, 3706, 3707, 3716, 3715
  201735, 3374, 3375, 3384, 3383, 3707, 3708, 3717, 3716
  201736, 3376, 3377, 3386, 3385, 3709, 3710, 3719, 3718
  201737, 3377, 3378, 3387, 3386, 3710, 3711, 3720, 3719
  201738, 3378, 3379, 3388, 3387, 3711, 3712, 3721, 3720
  201739, 3379, 3380, 3389, 3388, 3712, 3713, 3722, 3721
  201740, 3380, 3381, 3390, 3389, 3713, 3714, 3723, 3722
  201741, 3381, 3382, 3391, 3390, 3714, 3715, 3724, 3723
  201742, 3382, 3383, 3392, 3391, 3715, 3716, 3725, 3724
  201743, 3383, 3384, 3393, 3392, 3716, 3717, 3726, 3725
  201744, 3385, 3386, 3395, 3394, 3718, 3719, 3728, 3727
  201745, 3386, 3387, 3396, 3395, 3719, 3720, 3729, 3728
  201746, 3387, 3388, 3397, 3396, 3720, 3721, 3730, 3729
  201747, 3388, 3389, 3398, 3397, 3721, 3722, 3731, 3730
  201748, 3389, 3390, 3399, 3398, 3722, 3723, 3732, 3731
  201749, 3390, 3391, 3400, 3399, 3723, 3724, 3733, 3732
  201750, 3391, 3392, 3401, 3400, 3724, 3725, 3734, 3733
  201751, 3392, 3393, 3402, 3401, 3725, 3726, 3735, 3734
  201752, 3394, 3395, 3404, 3403, 3727, 3728, 3737, 3736
  201753, 3395, 3396, 3405, 3404, 3728, 3729, 3738, 3737
  201754, 3396, 3397, 3406, 3405, 3729, 3730, 3739, 3738
  201755, 3397, 3398, 3407, 3406, 3730, 3731, 3740, 3739
  201756, 3398, 3399, 3408, 3407, 3731, 3732, 3741, 3740
  201757, 3399, 3400, 3409, 3408, 3732, 3733, 3742, 3741
  201758, 3400, 3401, 3410, 3409, 3733, 3734, 3743, 3742
  201759, 3401, 3402, 3411, 3410, 3734, 3735, 3744, 3743
  201760, 3403, 3404, 3413, 3412, 3736, 3737, 3746, 3745
  201761, 3404, 3405, 3414, 3413, 3737, 3738, 3747, 3746
  201762, 3405, 3406, 3415, 3414, 3738, 3739, 3748, 3747
  201763, 3406, 3407, 3416, 3415, 3739, 3740, 3749, 3748
  201764, 3407, 3408, 3417, 3416, 3740, 3741, 3750, 3749
  201765, 3408, 3409, 3418, 3417, 3741, 3742, 3751, 3750
  201766, 3409, 3410, 3419, 3418, 3742, 3743, 3752, 3751
  201767, 3410, 3411, 3420, 3419, 3743, 3744, 3753, 3752
  201768, 3412, 3413, 3422, 3421, 3745, 3746, 3755, 3754
  201769, 3413, 3414, 3423, 3422, 3746, 3747, 3756, 3755
  201770, 3414, 3415, 3424, 3423, 3747, 3748, 3757, 3756
  201771, 3415, 3416, 3425, 3424, 3748, 3749, 3758, 3757
  201772, 3416, 3417, 3426, 3425, 3749, 3750, 3759, 3758
  201773, 3417, 3418, 3427, 3426, 3750, 3751, 3760, 3759
  201774, 3418, 3419, 3428, 3427, 3751, 3752, 3761, 3760
  201775, 3419, 3420, 3429, 3428, 3752, 3753, 3762, 3761
  201776, 3421, 3422, 3431, 3430, 3754, 3755, 3764, 3763
  201777, 3422, 3423, 3432, 3431, 3755, 3756, 3765, 3764
  201778, 3423, 3424, 3433, 3432, 3756, 3757, 3766, 3765
  201779, 3424, 3425, 3434, 3433, 3757, 3758, 3767, 3766
  201780, 3425, 3426, 3435, 3434, 3758, 3759, 3768, 3767
  201781, 3426, 3427, 3436, 3435, 3759, 3760, 3769, 3768
  201782, 3427, 3428, 3437, 3436, 3760, 3761, 3770, 3769
  201783, 3428, 3429, 3438, 3437, 3761, 3762, 3771, 3770
  201784, 3430, 3431, 3440, 3439, 3763, 3764, 3773, 3772
  201785, 3431, 3432, 3441, 3440, 3764, 3765, 3774, 3773
  201786, 3432, 3433, 3442, 3441, 3765, 3766, 3775, 3774
  201787, 3433, 3434, 3443, 3442, 3766, 3767, 3776, 3775
  201788, 3434, 3435, 3444, 3443, 3767, 3768, 3777, 3776
  201789, 3435, 3436, 3445, 3444, 3768, 3769, 3778, 3777
  201790, 3436, 3437, 3446, 3445, 3769, 3770, 3779, 3778
  201791, 3437, 3438, 3447, 3446, 3770, 3771, 3780, 3779
  201792, 3439, 3440, 3449, 3448, 3772, 3773, 3782, 3781
  201793, 3440, 3441, 3450, 3449, 3773, 3774, 3783, 3782
  201794, 3441, 3442, 3451, 3450, 3774, 3775, 3784, 3783
  201795, 3442, 3443, 3452, 3451, 3775, 3776, 3785, 3784
  201796, 3443, 3444, 3453, 3452, 3776, 3777, 3786, 3785
  201797, 3444, 3445, 3454, 3453, 3777, 3778, 3787, 3786
  201798, 3445, 3446, 3455, 3454, 3778, 3779, 3788, 3787
  201799, 3446, 3447, 3456, 3455, 3779, 3780, 3789, 3788
  201800, 3448, 3449, 3458, 3457, 3781, 3782, 3791, 3790
  201801, 3449, 3450, 3459, 3458, 3782, 3783, 3792, 3791
  201802, 3450, 3451, 3460, 3459, 3783, 3784, 3793, 3792
  201803, 3451, 3452, 3461, 3460, 3784, 3785, 3794, 3793
  201804, 3452, 3453, 3462, 3461, 3785, 3786, 3795, 3794
  201805, 3453, 3454, 3463, 3462, 3786, 3787, 3796, 3795
  201806, 3454, 3455, 3464, 3463, 3787, 3788, 3797, 3796
  201807, 3455, 3456, 3465, 3464, 3788, 3789, 3798, 3797
  201808, 3457, 3458, 3467, 3466, 3790, 3791, 3800, 3799
  201809, 3458, 3459, 3468, 3467, 3791, 3792, 3801, 3800
  201810, 3459, 3460, 3469, 3468, 3792, 3793, 3802, 3801
  201811, 3460, 3461, 3470, 3469, 3793, 3794, 3803, 3802
  201812, 3461, 3462, 3471, 3470, 3794, 3795, 3804, 3803
  201813, 3462, 3463, 3472, 3471, 3795, 3796, 3805, 3804
  201814, 3463, 3464, 3473, 3472, 3796, 3797, 3806, 3805
  201815, 3464, 3465, 3474, 3473, 3797, 3798, 3807, 3806
  201816, 3466, 3467, 3476, 3475, 3799, 3800, 3809, 3808
  201817, 3467, 3468, 3477, 3476, 3800, 3801, 3810, 3809
  201818, 3468, 3469, 3478, 3477, 3801, 3802, 3811, 3810
  201819, 3469, 3470, 3479, 3478, 3802, 3803, 3812, 3811
  201820, 3470, 3471, 3480, 3479, 3803, 3804, 3813, 3812
  201821, 3471, 3472, 3481, 3480, 3804, 3805, 3814, 3813
  201822, 3472, 3473, 3482, 3481, 3805, 3806, 3815, 3814
  201823, 3473, 3474, 3483, 3482, 3806, 3807, 3816, 3815
  201824, 3475, 3476, 3485, 3484, 3808, 3809, 3818, 3817
  201825, 3476, 3477, 3486, 3485, 3809, 3810, 3819, 3818
  201826, 3477, 3478, 3487, 3486, 3810, 3811, 3820, 3819
  201827, 3478, 3479, 3488, 3487, 3811, 3812, 3821, 3820
  201828, 3479, 3480, 3489, 3488, 3812, 3813, 3822, 3821
  201829, 3480, 3481, 3490, 3489, 3813, 3814, 3823, 3822
  201830, 3481, 3482, 3491, 3490, 3814, 3815, 3824, 3823
  201831, 3482, 3483, 3492, 3491, 3815, 3816, 3825, 3824
  201832, 3484, 3485, 3494, 3493, 3817, 3818, 3827, 3826
  201833, 3485, 3486, 3495, 3494, 3818, 3819, 3828, 3827
  201834, 3486, 3487, 3496, 3495, 3819, 3820, 3829, 3828
  201835, 3487, 3488, 3497, 3496, 3820, 3821, 3830, 3829
  201836, 3488, 3489, 3498, 3497, 3821, 3822, 3831, 3830
  201837, 3489, 3490, 3499, 3498, 3822, 3823, 3832, 3831
  201838, 3490, 3491, 3500, 3499, 3823, 3824, 3833, 3832
  201839, 3491, 3492, 3501, 3500, 3824, 3825, 3834, 3833
  201840, 3493, 3494, 3503, 3502, 3826, 3827, 3836, 3835
  201841, 3494, 3495, 3504, 3503, 3827, 3828, 3837, 3836
  201842, 3495, 3496, 3505, 3504, 3828, 3829, 3838, 3837
  201843, 3496, 3497, 3506, 3505, 3829, 3830, 3839, 3838
  201844, 3497, 3498, 3507, 3506, 3830, 3831, 3840, 3839
  201845, 3498, 3499, 3508, 3507, 3831, 3832, 3841, 3840
  201846, 3499, 3500, 3509, 3508, 3832, 3833, 3842, 3841
  201847, 3500, 3501, 3510, 3509, 3833, 3834, 3843, 3842
  201848, 3502, 3503, 3512, 3511, 3835, 3836, 3845, 3844
  201849, 3503, 3504, 3513, 3512, 3836, 3837, 3846, 3845
  201850, 3504, 3505, 3514, 3513, 3837, 3838, 3847, 3846
  201851, 3505, 3506, 3515, 3514, 3838, 3839, 3848, 3847
  201852, 3506, 3507, 3516, 3515, 3839, 3840, 3849, 3848
  201853, 3507, 3508, 3517, 3516, 3840, 3841, 3850, 3849
  201854, 3508, 3509, 3518, 3517, 3841, 3842, 3851, 3850
  201855, 3509, 3510, 3519, 3518, 3842, 3843, 3852, 3851
  201856, 3511, 3512, 3521, 3520, 3844, 3845, 3854, 3853
  201857, 3512, 3513, 3522, 3521, 3845, 3846, 3855, 3854
  201858, 3513, 3514, 3523, 3522, 3846, 3847, 3856, 3855
  201859, 3514, 3515, 3524, 3523, 3847, 3848, 3857, 3856
  201860, 3515, 3516, 3525, 3524, 3848, 3849, 3858, 3857
  201861, 3516, 3517, 3526, 3525, 3849, 3850, 3859, 3858
  201862, 3517, 3518, 3527, 3526, 3850, 3851, 3860, 3859
  201863, 3518, 3519, 3528, 3527, 3851, 3852, 3861, 3860
  201864, 3520, 3521, 3530, 3529, 3853, 3854, 3863, 3862
  201865, 3521, 3522, 3531, 3530, 3854, 3855, 3864, 3863
  201866, 3522, 3523, 3532, 3531, 3855, 3856, 3865, 3864
  201867, 3523, 3524, 3533, 3532, 3856, 3857, 3866, 3865
  201868, 3524, 3525, 3534, 3533, 3857, 3858, 3867, 3866
  201869, 3525, 3526, 3535, 3534, 3858, 3859, 3868, 3867
  201870, 3526, 3527, 3536, 3535, 3859, 3860, 3869, 3868
  201871, 3527, 3528, 3537, 3536, 3860, 3861, 3870, 3869
  201872, 3529, 3530, 3539, 3538, 3862, 3863, 3872, 3871
  201873, 3530, 3531, 3540, 3539, 3863, 3864, 3873, 3872
  201874, 3531, 3532, 3541, 3540, 3864, 3865, 3874, 3873
  201875, 3532, 3533, 3542, 3541, 3865, 3866, 3875, 3874
  201876, 3533, 3534, 3543, 3542, 3866, 3867, 3876, 3875
  201877, 3534, 3535, 3544, 3543, 3867, 3868, 3877, 3876
  201878, 3535, 3536, 3545, 3544, 3868, 3869, 3878, 3877
  201879, 3536, 3537, 3546, 3545, 3869, 3870, 3879, 3878
  201880, 3538, 3539, 3548, 3547, 3871, 3872, 3881, 3880
  201881, 3539, 3540, 3549, 3548, 3872, 3873, 3882, 3881
  201882, 3540, 3541, 3550, 3549, 3873, 3874, 3883, 3882
  201883, 3541, 3542, 3551, 3550, 3874, 3875, 3884, 3883
  201884, 3542, 3543, 3552, 3551, 3875, 3876, 3885, 3884
  201885, 3543, 3544, 3553, 3552, 3876, 3877, 3886, 3885
  201886, 3544, 3545, 3554, 3553, 3877, 3878, 3887, 3886
  201887, 3545, 3546, 3555, 3554, 3878, 3879, 3888, 3887
  201888, 3547, 3548, 3557, 3556, 3880, 3881, 3890, 3889
  201889, 3548, 3549, 3558, 3557, 3881, 3882, 3891, 3890
  201890, 3549, 3550, 3559, 3558, 3882, 3883, 3892, 3891
  201891, 3550, 3551, 3560, 3559, 3883, 3884, 3893, 3892
  201892, 3551, 3552, 3561, 3560, 3884, 3885, 3894, 3893
  201893, 3552, 3553, 3562, 3561, 3885, 3886, 3895, 3894
  201894, 3553, 3554, 3563, 3562, 3886, 3887, 3896, 3895
  201895, 3554, 3555, 3564, 3563, 3887, 3888, 3897, 3896
  201896, 3556, 3557, 3566, 3565, 3889, 3890, 3899, 3898
  201897, 3557, 3558, 3567, 3566, 3890, 3891, 3900, 3899
  201898, 3558, 3559, 3568, 3567, 3891, 3892, 3901, 3900
  201899, 3559, 3560, 3569, 3568, 3892, 3893, 3902, 3901
  201900, 3560, 3561, 3570, 3569, 3893, 3894, 3903, 3902
  201901, 3561, 3562, 3571, 3570, 3894, 3895, 3904, 3903
  201902, 3562, 3563, 3572, 3571, 3895, 3896, 3905, 3904
  201903, 3563, 3564, 3573, 3572, 3896, 3897, 3906, 3905
  201904, 3565, 3566, 3575, 3574, 3898, 3899, 3908, 3907
  201905, 3566, 3567, 3576, 3575, 3899, 3900, 3909, 3908
  201906, 3567, 3568, 3577, 3576, 3900, 3901, 3910, 3909
  201907, 3568, 3569, 3578, 3577, 3901, 3902, 3911, 3910
  201908, 3569, 3570, 3579, 3578, 3902, 3903, 3912, 3911
  201909, 3570, 3571, 3580, 3579, 3903, 3904, 3913, 3912
  201910, 3571, 3572, 3581, 3580, 3904, 3905, 3914, 3913
  201911, 3572, 3573, 3582, 3581, 3905, 3906, 3915, 3914
  201912, 3574, 3575, 3584, 3583, 3907, 3908, 3917, 3916
  201913, 3575, 3576, 3585, 3584, 3908, 3909, 3918, 3917
  201914, 3576, 3577, 3586, 3585, 3909, 3910, 3919, 3918
  201915, 3577, 3578, 3587, 3586, 3910, 3911, 3920, 3919
  201916, 3578, 3579, 3588, 3587, 3911, 3912, 3921, 3920
  201917, 3579, 3580, 3589, 3588, 3912, 3913, 3922, 3921
  201918, 3580, 3581, 3590, 3589, 3913, 3914, 3923, 3922
  201919, 3581, 3582, 3591, 3590, 3914, 3915, 3924, 3923
  201920, 3583, 3584, 3593, 3592, 3916, 3917, 3926, 3925
  201921, 3584, 3585, 3594, 3593, 3917, 3918, 3927, 3926
  201922, 3585, 3586, 3595, 3594, 3918, 3919, 3928, 3927
  201923, 3586, 3587, 3596, 3595, 3919, 3920, 3929, 3928
  201924, 3587, 3588, 3597, 3596, 3920, 3921, 3930, 3929
  201925, 3588, 3589, 3598, 3597, 3921, 3922, 3931, 3930
  201926, 3589, 3590, 3599, 3598, 3922, 3923, 3932, 3931
  201927, 3590, 3591, 3600, 3599, 3923, 3924, 3933, 3932
  201928, 3592, 3593, 3602, 3601, 3925, 3926, 3935, 3934
  201929, 3593, 3594, 3603, 3602, 3926, 3927, 3936, 3935
  201930, 3594, 3595, 3604, 3603, 3927, 3928, 3937, 3936
  201931, 3595, 3596, 3605, 3604, 3928, 3929, 3938, 3937
  201932, 3596, 3597, 3606, 3605, 3929, 3930, 3939, 3938
  201933, 3597, 3598, 3607, 3606, 3930, 3931, 3940, 3939
  201934, 3598, 3599, 3608, 3607, 3931, 3932, 3941, 3940
  201935, 3599, 3600, 3609, 3608, 3932, 3933, 3942, 3941
  201936, 3601, 3602, 3611, 3610, 3934, 3935, 3944, 3943
  201937, 3602, 3603, 3612, 3611, 3935, 3936, 3945, 3944
  201938, 3603, 3604, 3613, 3612, 3936, 3937, 3946, 3945
  201939, 3604, 3605, 3614, 3613, 3937, 3938, 3947, 3946
  201940, 3605, 3606, 3615, 3614, 3938, 3939, 3948, 3947
  201941, 3606, 3607, 3616, 3615, 3939, 3940, 3949, 3948
  201942, 3607, 3608, 3617, 3616, 3940, 3941, 3950, 3949
  201943, 3608, 3609, 3618, 3617, 3941, 3942, 3951, 3950
  201944, 3610, 3611, 3620, 3619, 3943, 3944, 3953, 3952
  201945, 3611, 3612, 3621, 3620, 3944, 3945, 3954, 3953
  201946, 3612, 3613, 3622, 3621, 3945, 3946, 3955, 3954
  201947, 3613, 3614, 3623, 3622, 3946, 3947, 3956, 3955
  201948, 3614, 3615, 3624, 3623, 3947, 3948, 3957, 3956
  201949, 3615, 3616, 3625, 3624, 3948, 3949, 3958, 3957
  201950, 3616, 3617, 3626, 3625, 3949, 3950, 3959, 3958
  201951, 3617, 3618, 3627, 3626, 3950, 3951, 3960, 3959
  201952, 3619, 3620, 3629, 3628, 3952, 3953, 3962, 3961
  201953, 3620, 3621, 3630, 3629, 3953, 3954, 3963, 3962
  201954, 3621, 3622, 3631, 3630, 3954, 3955, 3964, 3963
  201955, 3622, 3623, 3632, 3631, 3955, 3956, 3965, 3964
  201956, 3623, 3624, 3633, 3632, 3956, 3957, 3966, 3965
  201957, 3624, 3625, 3634, 3633, 3957, 3958, 3967, 3966
  201958, 3625, 3626, 3635, 3634, 3958, 3959, 3968, 3967
  201959, 3626, 3627, 3636, 3635, 3959, 3960, 3969, 3968
  201960, 3628, 3629, 3638, 3637, 3961, 3962, 3971, 3970
  201961, 3629, 3630, 3639, 3638, 3962, 3963, 3972, 3971
  201962, 3630, 3631, 3640, 3639, 3963, 3964, 3973, 3972
  201963, 3631, 3632, 3641, 3640, 3964, 3965, 3974, 3973
  201964, 3632, 3633, 3642, 3641, 3965, 3966, 3975, 3974
  201965, 3633, 3634, 3643, 3642, 3966, 3967, 3976, 3975
  201966, 3634, 3635, 3644, 3643, 3967, 3968, 3977, 3976
  201967, 3635, 3636, 3645, 3644, 3968, 3969, 3978, 3977
  201968, 3637, 3638, 3647, 3646, 3970, 3971, 3980, 3979
  201969, 3638, 3639, 3648, 3647, 3971, 3972, 3981, 3980
  201970, 3639, 3640, 3649, 3648, 3972, 3973, 3982, 3981
  201971, 3640, 3641, 3650, 3649, 3973, 3974, 3983, 3982
  201972, 3641, 3642, 3651, 3650, 3974, 3975, 3984, 3983
  201973, 3642, 3643, 3652, 3651, 3975, 3976, 3985, 3984
  201974, 3643, 3644, 3653, 3652, 3976, 3977, 3986, 3985
  201975, 3644, 3645, 3654, 3653, 3977, 3978, 3987, 3986
  201976, 3646, 3647, 3656, 3655, 3979, 3980, 3989, 3988
  201977, 3647, 3648, 3657, 3656, 3980, 3981, 3990, 3989
  201978, 3648, 3649, 3658, 3657, 3981, 3982, 3991, 3990
  201979, 3649, 3650, 3659, 3658, 3982, 3983, 3992, 3991
  201980, 3650, 3651, 3660, 3659, 3983, 3984, 3993, 3992
  201981, 3651, 3652, 3661, 3660, 3984, 3985, 3994, 3993
  201982, 3652, 3653, 3662, 3661, 3985, 3986, 3995, 3994
  201983, 3653, 3654, 3663, 3662, 3986, 3987, 3996, 3995
  201984, 3655, 3656, 3665, 3664, 3988, 3989, 3998, 3997
  201985, 3656, 3657, 3666, 3665, 3989, 3990, 3999, 3998
  201986, 3657, 3658, 3667, 3666, 3990, 3991, 4000, 3999
  201987, 3658, 3659, 3668, 3667, 3991, 3992, 4001, 4000
  201988, 3659, 3660, 3669, 3668, 3992, 3993, 4002, 4001
  201989, 3660, 3661, 3670, 3669, 3993, 3994, 4003, 4002
  201990, 3661, 3662, 3671, 3670, 3994, 3995, 4004, 4003
  201991, 3662, 3663, 3672, 3671, 3995, 3996, 4005, 4004
  201992, 3664, 3665, 3674, 3673, 3997, 3998, 4007, 4006
  201993, 3665, 3666, 3675, 3674, 3998, 3999, 4008, 4007
  201994, 3666, 3667, 3676, 3675, 3999, 4000, 4009, 4008
  201995, 3667, 3668, 3677, 3676, 4000, 4001, 4010, 4009
  201996, 3668, 3669, 3678, 3677, 4001, 4002, 4011, 4010
  201997, 3669, 3670, 3679, 3678, 4002, 4003, 4012, 4011
  201998, 3670, 3671, 3680, 3679, 4003, 4004, 4013, 4012
  201999, 3671, 3672, 3681, 3680, 4004, 4005, 4014, 4013
  202000, 3673, 3674, 3683, 3682, 4006, 4007, 4016, 4015
  202001, 3674, 3675, 3684, 3683, 4007, 4008, 4017, 4016
  202002, 3675, 3676, 3685, 3684, 4008, 4009, 4018, 4017
  202003, 3676, 3677, 3686, 3685, 4009, 4010, 4019, 4018
  202004, 3677, 3678, 3687, 3686, 4010, 4011, 4020, 4019
  202005, 3678, 3679, 3688, 3687, 4011, 4012, 4021, 4020
  202006, 3679, 3680, 3689, 3688, 4012, 4013, 4022, 4021
  202007, 3680, 3681, 3690, 3689, 4013, 4014, 4023, 4022
  202008, 3682, 3683, 3692, 3691, 4015, 4016, 4025, 4024
  202009, 3683, 3684, 3693, 3692, 4016, 4017, 4026, 4025
  202010, 3684, 3685, 3694, 3693, 4017, 4018, 4027, 4026
  202011, 3685, 3686, 3695, 3694, 4018, 4019, 4028, 4027
  202012, 3686, 3687, 3696, 3695, 4019, 4020, 4029, 4028
  202013, 3687, 3688, 3697, 3696, 4020, 4021, 4030, 4029
  202014, 3688, 3689, 3698, 3697, 4021, 4022, 4031, 4030
  202015, 3689, 3690, 3699, 3698, 4022, 4023, 4032, 4031
  202016, 3700, 3701, 3710, 3709, 4033, 4034, 4043, 4042
  202017, 3701, 3702, 3711, 3710, 4034, 4035, 4044, 4043
  202018, 3702, 3703, 3712, 3711, 4035, 4036, 4045, 4044
  202019, 3703, 3704, 3713, 3712, 4036, 4037, 4046, 4045
  202020, 3704, 3705, 3714, 3713, 4037, 4038, 4047, 4046
  202021, 3705, 3706, 3715, 3714, 4038, 4039, 4048, 4047
  202022, 3706, 3707, 3716, 3715, 4039, 4040, 4049, 4048
  202023, 3707, 3708, 3717, 3716, 4040, 4041, 4050, 4049
  202024, 3709, 3710, 3719, 3718, 4042, 4043, 4052, 4051
  202025, 3710, 3711, 3720, 3719, 4043, 4044, 4053, 4052
  202026, 3711, 3712, 3721, 3720, 4044, 4045, 4054, 4053
  202027, 3712, 3713, 3722, 3721, 4045, 4046, 4055, 4054
  202028, 3713, 3714, 3723, 3722, 4046, 4047, 4056, 4055
  202029, 3714, 3715, 3724, 3723, 4047, 4048, 4057, 4056
  202030, 3715, 3716, 3725, 3724, 4048, 4049, 4058, 4057
  202031, 3716, 3717, 3726, 3725, 4049, 4050, 4059, 4058
  202032, 3718, 3719, 3728, 3727, 4051, 4052, 4061, 4060
  202033, 3719, 3720, 3729, 3728, 4052, 4053, 4062, 4061
  202034, 3720, 3721, 3730, 3729, 4053, 4054, 4063, 4062
  202035, 3721, 3722, 3731, 3730, 4054, 4055, 4064, 4063
  202036, 3722, 3723, 3732, 3731, 4055, 4056, 4065, 4064
  202037, 3723, 3724, 3733, 3732, 4056, 4057, 4066, 4065
  202038, 3724, 3725, 3734, 3733, 4057, 4058, 4067, 4066
  202039, 3725, 3726, 3735, 3734, 4058, 4059, 4068, 4067
  202040, 3727, 3728, 3737, 3736, 4060, 4061, 4070, 4069
  202041, 3728, 3729, 3738, 3737, 4061, 4062, 4071, 4070
  202042, 3729, 3730, 3739, 3738, 4062, 4063, 4072, 4071
  202043, 3730, 3731, 3740, 3739, 4063, 4064, 4073, 4072
  202044, 3731, 3732, 3741, 3740, 4064, 4065, 4074, 4073
  202045, 3732, 3733, 3742, 3741, 4065, 4066, 4075, 4074
  202046, 3733, 3734, 3743, 3742, 4066, 4067, 4076, 4075
  202047, 3734, 3735, 3744, 3743, 4067, 4068, 4077, 4076
  202048, 3736, 3737, 3746, 3745, 4069, 4070, 4079, 4078
  202049, 3737, 3738, 3747, 3746, 4070, 4071, 4080, 4079
  202050, 3738, 3739, 3748, 3747, 4071, 4072, 4081, 4080
  202051, 3739, 3740, 3749, 3748, 4072, 4073, 4082, 4081
  202052, 3740, 3741, 3750, 3749, 4073, 4074, 4083, 4082
  202053, 3741, 3742, 3751, 3750, 4074, 4075, 4084, 4083
  202054, 3742, 3743, 3752, 3751, 4075, 4076, 4085, 4084
  202055, 3743, 3744, 3753, 3752, 4076, 4077, 4086, 4085
  202056, 3745, 3746, 3755, 3754, 4078, 4079, 4088, 4087
  202057, 3746, 3747, 3756, 3755, 4079, 4080, 4089, 4088
  202058, 3747, 3748, 3757, 3756, 4080, 4081, 4090, 4089
  202059, 3748, 3749, 3758, 3757, 4081, 4082, 4091, 4090
  202060, 3749, 3750, 3759, 3758, 4082, 4083, 4092, 4091
  202061, 3750, 3751, 3760, 3759, 4083, 4084, 4093, 4092
  202062, 3751, 3752, 3761, 3760, 4084, 4085, 4094, 4093
  202063, 3752, 3753, 3762, 3761, 4085, 4086, 4095, 4094
  202064, 3754, 3755, 3764, 3763, 4087, 4088, 4097, 4096
  202065, 3755, 3756, 3765, 3764, 4088, 4089, 4098, 4097
  202066, 3756, 3757, 3766, 3765, 4089, 4090, 4099, 4098
  202067, 3757, 3758, 3767, 3766, 4090, 4091, 4100, 4099
  202068, 3758, 3759, 3768, 3767, 4091, 4092, 4101, 4100
  202069, 3759, 3760, 3769, 3768, 4092, 4093, 4102, 4101
  202070, 3760, 3761, 3770, 3769, 4093, 4094, 4103, 4102
  202071, 3761, 3762, 3771, 3770, 4094, 4095, 4104, 4103
  202072, 3763, 3764, 3773, 3772, 4096, 4097, 4106, 4105
  202073, 3764, 3765, 3774, 3773, 4097, 4098, 4107, 4106
  202074, 3765, 3766, 3775, 3774, 4098, 4099, 4108, 4107
  202075, 3766, 3767, 3776, 3775, 4099, 4100, 4109, 4108
  202076, 3767, 3768, 3777, 3776, 4100, 4101, 4110, 4109
  202077, 3768, 3769, 3778, 3777, 4101, 4102, 4111, 4110
  202078, 3769, 3770, 3779, 3778, 4102, 4103, 4112, 4111
  202079, 3770, 3771, 3780, 3779, 4103, 4104, 4113, 4112
  202080, 3772, 3773, 3782, 3781, 4105, 4106, 4115, 4114
  202081, 3773, 3774, 3783, 3782, 4106, 4107, 4116, 4115
  202082, 3774, 3775, 3784, 3783, 4107, 4108, 4117, 4116
  202083, 3775, 3776, 3785, 3784, 4108, 4109, 4118, 4117
  202084, 3776, 3777, 3786, 3785, 4109, 4110, 4119, 4118
  202085, 3777, 3778, 3787, 3786, 4110, 4111, 4120, 4119
  202086, 3778, 3779, 3788, 3787, 4111, 4112, 4121, 4120
  202087, 3779, 3780, 3789, 3788, 4112, 4113, 4122, 4121
  202088, 3781, 3782, 3791, 3790, 4114, 4115, 4124, 4123
  202089, 3782, 3783, 3792, 3791, 4115, 4116, 4125, 4124
  202090, 3783, 3784, 3793, 3792, 4116, 4117, 4126, 4125
  202091, 3784, 3785, 3794, 3793, 4117, 4118, 4127, 4126
  202092, 3785, 3786, 3795, 3794, 4118, 4119, 4128, 4127
  202093, 3786, 3787, 3796, 3795, 4119, 4120, 4129, 4128
  202094, 3787, 3788, 3797, 3796, 4120, 4121, 4130, 4129
  202095, 3788, 3789, 3798, 3797, 4121, 4122, 4131, 4130
  202096, 3790, 3791, 3800, 3799, 4123, 4124, 4133, 4132
  202097, 3791, 3792, 3801, 3800, 4124, 4125, 4134, 4133
  202098, 3792, 3793, 3802, 3801, 4125, 4126, 4135, 4134
  202099, 3793, 3794, 3803, 3802, 4126, 4127, 4136, 4135
  202100, 3794, 3795, 3804, 3803, 4127, 4128, 4137, 4136
  202101, 3795, 3796, 3805, 3804, 4128, 4129, 4138, 4137
  202102, 3796, 3797, 3806, 3805, 4129, 4130, 4139, 4138
  202103, 3797, 3798, 3807, 3806, 4130, 4131, 4140, 4139
  202104, 3799, 3800, 3809, 3808, 4132, 4133, 4142, 4141
  202105, 3800, 3801, 3810, 3809, 4133, 4134, 4143, 4142
  202106, 3801, 3802, 3811, 3810, 4134, 4135, 4144, 4143
  202107, 3802, 3803, 3812, 3811, 4135, 4136, 4145, 4144
  202108, 3803, 3804, 3813, 3812, 4136, 4137, 4146, 4145
  202109, 3804, 3805, 3814, 3813, 4137, 4138, 4147, 4146
  202110, 3805, 3806, 3815, 3814, 4138, 4139, 4148, 4147
  202111, 3806, 3807, 3816, 3815, 4139, 4140, 4149, 4148
  202112, 3808, 3809, 3818, 3817, 4141, 4142, 4151, 4150
  202113, 3809, 3810, 3819, 3818, 4142, 4143, 4152, 4151
  202114, 3810, 3811, 3820, 3819, 4143, 4144, 4153, 4152
  202115, 3811, 3812, 3821, 3820, 4144, 4145, 4154, 4153
  202116, 3812, 3813, 3822, 3821, 4145, 4146, 4155, 4154
  202117, 3813, 3814, 3823, 3822, 4146, 4147, 4156, 4155
  202118, 3814, 3815, 3824, 3823, 4147, 4148, 4157, 4156
  202119, 3815, 3816, 3825, 3824, 4148, 4149, 4158, 4157
  202120, 3817, 3818, 3827, 3826, 4150, 4151, 4160, 4159
  202121, 3818, 3819, 3828, 3827, 4151, 4152, 4161, 4160
  202122, 3819, 3820, 3829, 3828, 4152, 4153, 4162, 4161
  202123, 3820, 3821, 3830, 3829, 4153, 4154, 4163, 4162
  202124, 3821, 3822, 3831, 3830, 4154, 4155, 4164, 4163
  202125, 3822, 3823, 3832, 3831, 4155, 4156, 4165, 4164
  202126, 3823, 3824, 3833, 3832, 4156, 4157, 4166, 4165
  202127, 3824, 3825, 3834, 3833, 4157, 4158, 4167, 4166
  202128, 3826, 3827, 3836, 3835, 4159, 4160, 4169, 4168
  202129, 3827, 3828, 3837, 3836, 4160, 4161, 4170, 4169
  202130, 3828, 3829, 3838, 3837, 4161, 4162, 4171, 4170
  202131, 3829, 3830, 3839, 3838, 4162, 4163, 4172, 4171
  202132, 3830, 3831, 3840, 3839, 4163, 4164, 4173, 4172
  202133, 3831, 3832, 3841, 3840, 4164, 4165, 4174, 4173
  202134, 3832, 3833, 3842, 3841, 4165, 4166, 4175, 4174
  202135, 3833, 3834, 3843, 3842, 4166, 4167, 4176, 4175
  202136, 3835, 3836, 3845, 3844, 4168, 4169, 4178, 4177
  202137, 3836, 3837, 3846, 3845, 4169, 4170, 4179, 4178
  202138, 3837, 3838, 3847, 3846, 4170, 4171, 4180, 4179
  202139, 3838, 3839, 3848, 3847, 4171, 4172, 4181, 4180
  202140, 3839, 3840, 3849, 3848, 4172, 4173, 4182, 4181
  202141, 3840, 3841, 3850, 3849, 4173, 4174, 4183, 4182
  202142, 3841, 3842, 3851, 3850, 4174, 4175, 4184, 4183
  202143, 3842, 3843, 3852, 3851, 4175, 4176, 4185, 4184
  202144, 3844, 3845, 3854, 3853, 4177, 4178, 4187, 4186
  202145, 3845, 3846, 3855, 3854, 4178, 4179, 4188, 4187
  202146, 3846, 3847, 3856, 3855, 4179, 4180, 4189, 4188
  202147, 3847, 3848, 3857, 3856, 4180, 4181, 4190, 4189
  202148, 3848, 3849, 3858, 3857, 4181, 4182, 4191, 4190
  202149, 3849, 3850, 3859, 3858, 4182, 4183, 4192, 4191
  202150, 3850, 3851, 3860, 3859, 4183, 4184, 4193, 4192
  202151, 3851, 3852, 3861, 3860, 4184, 4185, 4194, 4193
  202152, 3853, 3854, 3863, 3862, 4186, 4187, 4196, 4195
  202153, 3854, 3855, 3864, 3863, 4187, 4188, 4197, 4196
  202154, 3855, 3856, 3865, 3864, 4188, 4189, 4198, 4197
  202155, 3856, 3857, 3866, 3865, 4189, 4190, 4199, 4198
  202156, 3857, 3858, 3867, 3866, 4190, 4191, 4200, 4199
  202157, 3858, 3859, 3868, 3867, 4191, 4192, 4201, 4200
  202158, 3859, 3860, 3869, 3868, 4192, 4193, 4202, 4201
  202159, 3860, 3861, 3870, 3869, 4193, 4194, 4203, 4202
  202160, 3862, 3863, 3872, 3871, 4195, 4196, 4205, 4204
  202161, 3863, 3864, 3873, 3872, 4196, 4197, 4206, 4205
  202162, 3864, 3865, 3874, 3873, 4197, 4198, 4207, 4206
  202163, 3865, 3866, 3875, 3874, 4198, 4199, 4208, 4207
  202164, 3866, 3867, 3876, 3875, 4199, 4200, 4209, 4208
  202165, 3867, 3868, 3877, 3876, 4200, 4201, 4210, 4209
  202166, 3868, 3869, 3878, 3877, 4201, 4202, 4211, 4210
  202167, 3869, 3870, 3879, 3878, 4202, 4203, 4212, 4211
  202168, 3871, 3872, 3881, 3880, 4204, 4205, 4214, 4213
  202169, 3872, 3873, 3882, 3881, 4205, 4206, 4215, 4214
  202170, 3873, 3874, 3883, 3882, 4206, 4207, 4216, 4215
  202171, 3874, 3875, 3884, 3883, 4207, 4208, 4217, 4216
  202172, 3875, 3876, 3885, 3884, 4208, 4209, 4218, 4217
  202173, 3876, 3877, 3886, 3885, 4209, 4210, 4219, 4218
  202174, 3877, 3878, 3887, 3886, 4210, 4211, 4220, 4219
  202175, 3878, 3879, 3888, 3887, 4211, 4212, 4221, 4220
  202176, 3880, 3881, 3890, 3889, 4213, 4214, 4223, 4222
  202177, 3881, 3882, 3891, 3890, 4214, 4215, 4224, 4223
  202178, 3882, 3883, 3892, 3891, 4215, 4216, 4225, 4224
  202179, 3883, 3884, 3893, 3892, 4216, 4217, 4226, 4225
  202180, 3884, 3885, 3894, 3893, 4217, 4218, 4227, 4226
  202181, 3885, 3886, 3895, 3894, 4218, 4219, 4228, 4227
  202182, 3886, 3887, 3896, 3895, 4219, 4220, 4229, 4228
  202183, 3887, 3888, 3897, 3896, 4220, 4221, 4230, 4229
  202184, 3889, 3890, 3899, 3898, 4222, 4223, 4232, 4231
  202185, 3890, 3891, 3900, 3899, 4223, 4224, 4233, 4232
  202186, 3891, 3892, 3901, 3900, 4224, 4225, 4234, 4233
  202187, 3892, 3893, 3902, 3901, 4225, 4226, 4235, 4234
  202188, 3893, 3894, 3903, 3902, 4226, 4227, 4236, 4235
  202189, 3894, 3895, 3904, 3903, 4227, 4228, 4237, 4236
  202190, 3895, 3896, 3905, 3904, 4228, 4229, 4238, 4237
  202191, 3896, 3897, 3906, 3905, 4229, 4230, 4239, 4238
  202192, 3898, 3899, 3908, 3907, 4231, 4232, 4241, 4240
  202193, 3899, 3900, 3909, 3908, 4232, 4233, 4242, 4241
  202194, 3900, 3901, 3910, 3909, 4233, 4234, 4243, 4242
  202195, 3901, 3902, 3911, 3910, 4234, 4235, 4244, 4243
  202196, 3902, 3903, 3912, 3911, 4235, 4236, 4245, 4244
  202197, 3903, 3904, 3913, 3912, 4236, 4237, 4246, 4245
  202198, 3904, 3905, 3914, 3913, 4237, 4238, 4247, 4246
  202199, 3905, 3906, 3915, 3914, 4238, 4239, 4248, 4247
  202200, 3907, 3908, 3917, 3916, 4240, 4241, 4250, 4249
  202201, 3908, 3909, 3918, 3917, 4241, 4242, 4251, 4250
  202202, 3909, 3910, 3919, 3918, 4242, 4243, 4252, 4251
  202203, 3910, 3911, 3920, 3919, 4243, 4244, 4253, 4252
  202204, 3911, 3912, 3921, 3920, 4244, 4245, 4254, 4253
  202205, 3912, 3913, 3922, 3921, 4245, 4246, 4255, 4254
  202206, 3913, 3914, 3923, 3922, 4246, 4247, 4256, 4255
  202207, 3914, 3915, 3924, 3923, 4247, 4248, 4257, 4256
  202208, 3916, 3917, 3926, 3925, 4249, 4250, 4259, 4258
  202209, 3917, 3918, 3927, 3926, 4250, 4251, 4260, 4259
  202210, 3918, 3919, 3928, 3927, 4251, 4252, 4261, 4260
  202211, 3919, 3920, 3929, 3928, 4252, 4253, 4262, 4261
  202212, 3920, 3921, 3930, 3929, 4253, 4254, 4263, 4262
  202213, 3921, 3922, 3931, 3930, 4254, 4255, 4264, 4263
  202214, 3922, 3923, 3932, 3931, 4255, 4256, 4265, 4264
  202215, 3923, 3924, 3933, 3932, 4256, 4257, 4266, 4265
  202216, 3925, 3926, 3935, 3934, 4258, 4259, 4268, 4267
  202217, 3926, 3927, 3936, 3935, 4259, 4260, 4269, 4268
  202218, 3927, 3928, 3937, 3936, 4260, 4261, 4270, 4269
  202219, 3928, 3929, 3938, 3937, 4261, 4262, 4271, 4270
  202220, 3929, 3930, 3939, 3938, 4262, 4263, 4272, 4271
  202221, 3930, 3931, 3940, 3939, 4263, 4264, 4273, 4272
  202222, 3931, 3932, 3941, 3940, 4264, 4265, 4274, 4273
  202223, 3932, 3933, 3942, 3941, 4265, 4266, 4275, 4274
  202224, 3934, 3935, 3944, 3943, 4267, 4268, 4277, 4276
  202225, 3935, 3936, 3945, 3944, 4268, 4269, 4278, 4277
  202226, 3936, 3937, 3946, 3945, 4269, 4270, 4279, 4278
  202227, 3937, 3938, 3947, 3946, 4270, 4271, 4280, 4279
  202228, 3938, 3939, 3948, 3947, 4271, 4272, 4281, 4280
  202229, 3939, 3940, 3949, 3948, 4272, 4273, 4282, 4281
  202230, 3940, 3941, 3950, 3949, 4273, 4274, 4283, 4282
  202231, 3941, 3942, 3951, 3950, 4274, 4275, 4284, 4283
  202232, 3943, 3944, 3953, 3952, 4276, 4277, 4286, 4285
  202233, 3944, 3945, 3954, 3953, 4277, 4278, 4287, 4286
  202234, 3945, 3946, 3955, 3954, 4278, 4279, 4288, 4287
  202235, 3946, 3947, 3956, 3955, 4279, 4280, 4289, 4288
  202236, 3947, 3948, 3957, 3956, 4280, 4281, 4290, 4289
  202237, 3948, 3949, 3958, 3957, 4281, 4282, 4291, 4290
  202238, 3949, 3950, 3959, 3958, 4282, 4283, 4292, 4291
  202239, 3950, 3951, 3960, 3959, 4283, 4284, 4293, 4292
  202240, 3952, 3953, 3962, 3961, 4285, 4286, 4295, 4294
  202241, 3953, 3954, 3963, 3962, 4286, 4287, 4296, 4295
  202242, 3954, 3955, 3964, 3963, 4287, 4288, 4297, 4296
  202243, 3955, 3956, 3965, 3964, 4288, 4289, 4298, 4297
  202244, 3956, 3957, 3966, 3965, 4289, 4290, 4299, 4298
  202245, 3957, 3958, 3967, 3966, 4290, 4291, 4300, 4299
  202246, 3958, 3959, 3968, 3967, 4291, 4292, 4301, 4300
  202247, 3959, 3960, 3969, 3968, 4292, 4293, 4302, 4301
  202248, 3961, 3962, 3971, 3970, 4294, 4295, 4304, 4303
  202249, 3962, 3963, 3972, 3971, 4295, 4296, 4305, 4304
  202250, 3963, 3964, 3973, 3972, 4296, 4297, 4306, 4305
  202251, 3964, 3965, 3974, 3973, 4297, 4298, 4307, 4306
  202252, 3965, 3966, 3975, 3974, 4298, 4299, 4308, 4307
  202253, 3966, 3967, 3976, 3975, 4299, 4300, 4309, 4308
  202254, 3967, 3968, 3977, 3976, 4300, 4301, 4310, 4309
  202255, 3968, 3969, 3978, 3977, 4301, 4302, 4311, 4310
  202256, 3970, 3971, 3980, 3979, 4303, 4304, 4313, 4312
  202257, 3971, 3972, 3981, 3980, 4304, 4305, 4314, 4313
  202258, 3972, 3973, 3982, 3981, 4305, 4306, 4315, 4314
  202259, 3973, 3974, 3983, 3982, 4306, 4307, 4316, 4315
  202260, 3974, 3975, 3984, 3983, 4307, 4308, 4317, 4316
  202261, 3975, 3976, 3985, 3984, 4308, 4309, 4318, 4317
  202262, 3976, 3977, 3986, 3985, 4309, 4310, 4319, 4318
  202263, 3977, 3978, 3987, 3986, 4310, 4311, 4320, 4319
  202264, 3979, 3980, 3989, 3988, 4312, 4313, 4322, 4321
  202265, 3980, 3981, 3990, 3989, 4313, 4314, 4323, 4322
  202266, 3981, 3982, 3991, 3990, 4314, 4315, 4324, 4323
  202267, 3982, 3983, 3992, 3991, 4315, 4316, 4325, 4324
  202268, 3983, 3984, 3993, 3992, 4316, 4317, 4326, 4325
  202269, 3984, 3985, 3994, 3993, 4317, 4318, 4327, 4326
  202270, 3985, 3986, 3995, 3994, 4318, 4319, 4328, 4327
  202271, 3986, 3987, 3996, 3995, 4319, 4320, 4329, 4328
  202272, 3988, 3989, 3998, 3997, 4321, 4322, 4331, 4330
  202273, 3989, 3990, 3999, 3998, 4322, 4323, 4332, 4331
  202274, 3990, 3991, 4000, 3999, 4323, 4324, 4333, 4332
  202275, 3991, 3992, 4001, 4000, 4324, 4325, 4334, 4333
  202276, 3992, 3993, 4002, 4001, 4325, 4326, 4335, 4334
  202277, 3993, 3994, 4003, 4002, 4326, 4327, 4336, 4335
  202278, 3994, 3995, 4004, 4003, 4327, 4328, 4337, 4336
  202279, 3995, 3996, 4005, 4004, 4328, 4329, 4338, 4337
  202280, 3997, 3998, 4007, 4006, 4330, 4331, 4340, 4339
  202281, 3998, 3999, 4008, 4007, 4331, 4332, 4341, 4340
  202282, 3999, 4000, 4009, 4008, 4332, 4333, 4342, 4341
  202283, 4000, 4001, 4010, 4009, 4333, 4334, 4343, 4342
  202284, 4001, 4002, 4011, 4010, 4334, 4335, 4344, 4343
  202285, 4002, 4003, 4012, 4011, 4335, 4336, 4345, 4344
  202286, 4003, 4004, 4013, 4012, 4336, 4337, 4346, 4345
  202287, 4004, 4005, 4014, 4013, 4337, 4338, 4347, 4346
  202288, 4006, 4007, 4016, 4015, 4339, 4340, 4349, 4348
  202289, 4007, 4008, 4017, 4016, 4340, 4341, 4350, 4349
  202290, 4008, 4009, 4018, 4017, 4341, 4342, 4351, 4350
  202291, 4009, 4010, 4019, 4018, 4342, 4343, 4352, 4351
  202292, 4010, 4011, 4020, 4019, 4343, 4344, 4353, 4352
  202293, 4011, 4012, 4021, 4020, 4344, 4345, 4354, 4353
  202294, 4012, 4013, 4022, 4021, 4345, 4346, 4355, 4354
  202295, 4013, 4014, 4023, 4022, 4346, 4347, 4356, 4355
  202296, 4015, 4016, 4025, 4024, 4348, 4349, 4358, 4357
  202297, 4016, 4017, 4026, 4025, 4349, 4350, 4359, 4358
  202298, 4017, 4018, 4027, 4026, 4350, 4351, 4360, 4359
  202299, 4018, 4019, 4028, 4027, 4351, 4352, 4361, 4360
  202300, 4019, 4020, 4029, 4028, 4352, 4353, 4362, 4361
  202301, 4020, 4021, 4030, 4029, 4353, 4354, 4363, 4362
  202302, 4021, 4022, 4031, 4030, 4354, 4355, 4364, 4363
  202303, 4022, 4023, 4032, 4031, 4355, 4356, 4365, 4364
  202304, 4033, 4034, 4043, 4042, 4366, 4367, 4376, 4375
  202305, 4034, 4035, 4044, 4043, 4367, 4368, 4377, 4376
  202306, 4035, 4036, 4045, 4044, 4368, 4369, 4378, 4377
  202307, 4036, 4037, 4046, 4045, 4369, 4370, 4379, 4378
  202308, 4037, 4038, 4047, 4046, 4370, 4371, 4380, 4379
  202309, 4038, 4039, 4048, 4047, 4371, 4372, 4381, 4380
  202310, 4039, 4040, 4049, 4048, 4372, 4373, 4382, 4381
  202311, 4040, 4041, 4050, 4049, 4373, 4374, 4383, 4382
  202312, 4042, 4043, 4052, 4051, 4375, 4376, 4385, 4384
  202313, 4043, 4044, 4053, 4052, 4376, 4377, 4386, 4385
  202314, 4044, 4045, 4054, 4053, 4377, 4378, 4387, 4386
  202315, 4045, 4046, 4055, 4054, 4378, 4379, 4388, 4387
  202316, 4046, 4047, 4056, 4055, 4379, 4380, 4389, 4388
  202317, 4047, 4048, 4057, 4056, 4380, 4381, 4390, 4389
  202318, 4048, 4049, 4058, 4057, 4381, 4382, 4391, 4390
  202319, 4049, 4050, 4059, 4058, 4382, 4383, 4392, 4391
  202320, 4051, 4052, 4061, 4060, 4384, 4385, 4394, 4393
  202321, 4052, 4053, 4062, 4061, 4385, 4386, 4395, 4394
  202322, 4053, 4054, 4063, 4062, 4386, 4387, 4396, 4395
  202323, 4054, 4055, 4064, 4063, 4387, 4388, 4397, 4396
  202324, 4055, 4056, 4065, 4064, 4388, 4389, 4398, 4397
  202325, 4056, 4057, 4066, 4065, 4389, 4390, 4399, 4398
  202326, 4057, 4058, 4067, 4066, 4390, 4391, 4400, 4399
  202327, 4058, 4059, 4068, 4067, 4391, 4392, 4401, 4400
  202328, 4060, 4061, 4070, 4069, 4393, 4394, 4403, 4402
  202329, 4061, 4062, 4071, 4070, 4394, 4395, 4404, 4403
  202330, 4062, 4063, 4072, 4071, 4395, 4396, 4405, 4404
  202331, 4063, 4064, 4073, 4072, 4396, 4397, 4406, 4405
  202332, 4064, 4065, 4074, 4073, 4397, 4398, 4407, 4406
  202333, 4065, 4066, 4075, 4074, 4398, 4399, 4408, 4407
  202334, 4066, 4067, 4076, 4075, 4399, 4400, 4409, 4408
  202335, 4067, 4068, 4077, 4076, 4400, 4401, 4410, 4409
  202336, 4069, 4070, 4079, 4078, 4402, 4403, 4412, 4411
  202337, 4070, 4071, 4080, 4079, 4403, 4404, 4413, 4412
  202338, 4071, 4072, 4081, 4080, 4404, 4405, 4414, 4413
  202339, 4072, 4073, 4082, 4081, 4405, 4406, 4415, 4414
  202340, 4073, 4074, 4083, 4082, 4406, 4407, 4416, 4415
  202341, 4074, 4075, 4084, 4083, 4407, 4408, 4417, 4416
  202342, 4075, 4076, 4085, 4084, 4408, 4409, 4418, 4417
  202343, 4076, 4077, 4086, 4085, 4409, 4410, 4419, 4418
  202344, 4078, 4079, 4088, 4087, 4411, 4412, 4421, 4420
  202345, 4079, 4080, 4089, 4088, 4412, 4413, 4422, 4421
  202346, 4080, 4081, 4090, 4089, 4413, 4414, 4423, 4422
  202347, 4081, 4082, 4091, 4090, 4414, 4415, 4424, 4423
  202348, 4082, 4083, 4092, 4091, 4415, 4416, 4425, 4424
  202349, 4083, 4084, 4093, 4092, 4416, 4417, 4426, 4425
  202350, 4084, 4085, 4094, 4093, 4417, 4418, 4427, 4426
  202351, 4085, 4086, 4095, 4094, 4418, 4419, 4428, 4427
  202352, 4087, 4088, 4097, 4096, 4420, 4421, 4430, 4429
  202353, 4088, 4089, 4098, 4097, 4421, 4422, 4431, 4430
  202354, 4089, 4090, 4099, 4098, 4422, 4423, 4432, 4431
  202355, 4090, 4091, 4100, 4099, 4423, 4424, 4433, 4432
  202356, 4091, 4092, 4101, 4100, 4424, 4425, 4434, 4433
  202357, 4092, 4093, 4102, 4101, 4425, 4426, 4435, 4434
  202358, 4093, 4094, 4103, 4102, 4426, 4427, 4436, 4435
  202359, 4094, 4095, 4104, 4103, 4427, 4428, 4437, 4436
  202360, 4096, 4097, 4106, 4105, 4429, 4430, 4439, 4438
  202361, 4097, 4098, 4107, 4106, 4430, 4431, 4440, 4439
  202362, 4098, 4099, 4108, 4107, 4431, 4432, 4441, 4440
  202363, 4099, 4100, 4109, 4108, 4432, 4433, 4442, 4441
  202364, 4100, 4101, 4110, 4109, 4433, 4434, 4443, 4442
  202365, 4101, 4102, 4111, 4110, 4434, 4435, 4444, 4443
  202366, 4102, 4103, 4112, 4111, 4435, 4436, 4445, 4444
  202367, 4103, 4104, 4113, 4112, 4436, 4437, 4446, 4445
  202368, 4105, 4106, 4115, 4114, 4438, 4439, 4448, 4447
  202369, 4106, 4107, 4116, 4115, 4439, 4440, 4449, 4448
  202370, 4107, 4108, 4117, 4116, 4440, 4441, 4450, 4449
  202371, 4108, 4109, 4118, 4117, 4441, 4442, 4451, 4450
  202372, 4109, 4110, 4119, 4118, 4442, 4443, 4452, 4451
  202373, 4110, 4111, 4120, 4119, 4443, 4444, 4453, 4452
  202374, 4111, 4112, 4121, 4120, 4444, 4445, 4454, 4453
  202375, 4112, 4113, 4122, 4121, 4445, 4446, 4455, 4454
  202376, 4114, 4115, 4124, 4123, 4447, 4448, 4457, 4456
  202377, 4115, 4116, 4125, 4124, 4448, 4449, 4458, 4457
  202378, 4116, 4117, 4126, 4125, 4449, 4450, 4459, 4458
  202379, 4117, 4118, 4127, 4126, 4450, 4451, 4460, 4459
  202380, 4118, 4119, 4128, 4127, 4451, 4452, 4461, 4460
  202381, 4119, 4120, 4129, 4128, 4452, 4453, 4462, 4461
  202382, 4120, 4121, 4130, 4129, 4453, 4454, 4463, 4462
  202383, 4121, 4122, 4131, 4130, 4454, 4455, 4464, 4463
  202384, 4123, 4124, 4133, 4132, 4456, 4457, 4466, 4465
  202385, 4124, 4125, 4134, 4133, 4457, 4458, 4467, 4466
  202386, 4125, 4126, 4135, 4134, 4458, 4459, 4468, 4467
  202387, 4126, 4127, 4136, 4135, 4459, 4460, 4469, 4468
  202388, 4127, 4128, 4137, 4136, 4460, 4461, 4470, 4469
  202389, 4128, 4129, 4138, 4137, 4461, 4462, 4471, 4470
  202390, 4129, 4130, 4139, 4138, 4462, 4463, 4472, 4471
  202391, 4130, 4131, 4140, 4139, 4463, 4464, 4473, 4472
  202392, 4132, 4133, 4142, 4141, 4465, 4466, 4475, 4474
  202393, 4133, 4134, 4143, 4142, 4466, 4467, 4476, 4475
  202394, 4134, 4135, 4144, 4143, 4467, 4468, 4477, 4476
  202395, 4135, 4136, 4145, 4144, 4468, 4469, 4478, 4477
  202396, 4136, 4137, 4146, 4145, 4469, 4470, 4479, 4478
  202397, 4137, 4138, 4147, 4146, 4470, 4471, 4480, 4479
  202398, 4138, 4139, 4148, 4147, 4471, 4472, 4481, 4480
  202399, 4139, 4140, 4149, 4148, 4472, 4473, 4482, 4481
  202400, 4141, 4142, 4151, 4150, 4474, 4475, 4484, 4483
  202401, 4142, 4143, 4152, 4151, 4475, 4476, 4485, 4484
  202402, 4143, 4144, 4153, 4152, 4476, 4477, 4486, 4485
  202403, 4144, 4145, 4154, 4153, 4477, 4478, 4487, 4486
  202404, 4145, 4146, 4155, 4154, 4478, 4479, 4488, 4487
  202405, 4146, 4147, 4156, 4155, 4479, 4480, 4489, 4488
  202406, 4147, 4148, 4157, 4156, 4480, 4481, 4490, 4489
  202407, 4148, 4149, 4158, 4157, 4481, 4482, 4491, 4490
  202408, 4150, 4151, 4160, 4159, 4483, 4484, 4493, 4492
  202409, 4151, 4152, 4161, 4160, 4484, 4485, 4494, 4493
  202410, 4152, 4153, 4162, 4161, 4485, 4486, 4495, 4494
  202411, 4153, 4154, 4163, 4162, 4486, 4487, 4496, 4495
  202412, 4154, 4155, 4164, 4163, 4487, 4488, 4497, 4496
  202413, 4155, 4156, 4165, 4164, 4488, 4489, 4498, 4497
  202414, 4156, 4157, 4166, 4165, 4489, 4490, 4499, 4498
  202415, 4157, 4158, 4167, 4166, 4490, 4491, 4500, 4499
  202416, 4159, 4160, 4169, 4168, 4492, 4493, 4502, 4501
  202417, 4160, 4161, 4170, 4169, 4493, 4494, 4503, 4502
  202418, 4161, 4162, 4171, 4170, 4494, 4495, 4504, 4503
  202419, 4162, 4163, 4172, 4171, 4495, 4496, 4505, 4504
  202420, 4163, 4164, 4173, 4172, 4496, 4497, 4506, 4505
  202421, 4164, 4165, 4174, 4173, 4497, 4498, 4507, 4506
  202422, 4165, 4166, 4175, 4174, 4498, 4499, 4508, 4507
  202423, 4166, 4167, 4176, 4175, 4499, 4500, 4509, 4508
  202424, 4168, 4169, 4178, 4177, 4501, 4502, 4511, 4510
  202425, 4169, 4170, 4179, 4178, 4502, 4503, 4512, 4511
  202426, 4170, 4171, 4180, 4179, 4503, 4504, 4513, 4512
  202427, 4171, 4172, 4181, 4180, 4504, 4505, 4514, 4513
  202428, 4172, 4173, 4182, 4181, 4505, 4506, 4515, 4514
  202429, 4173, 4174, 4183, 4182, 4506, 4507, 4516, 4515
  202430, 4174, 4175, 4184, 4183, 4507, 4508, 4517, 4516
  202431, 4175, 4176, 4185, 4184, 4508, 4509, 4518, 4517
  202432, 4177, 4178, 4187, 4186, 4510, 4511, 4520, 4519
  202433, 4178, 4179, 4188, 4187, 4511, 4512, 4521, 4520
  202434, 4179, 4180, 4189, 4188, 4512, 4513, 4522, 4521
  202435, 4180, 4181, 4190, 4189, 4513, 4514, 4523, 4522
  202436, 4181, 4182, 4191, 4190, 4514, 4515, 4524, 4523
  202437, 4182, 4183, 4192, 4191, 4515, 4516, 4525, 4524
  202438, 4183, 4184, 4193, 4192, 4516, 4517, 4526, 4525
  202439, 4184, 4185, 4194, 4193, 4517, 4518, 4527, 4526
  202440, 4186, 4187, 4196, 4195, 4519, 4520, 4529, 4528
  202441, 4187, 4188, 4197, 4196, 4520, 4521, 4530, 4529
  202442, 4188, 4189, 4198, 4197, 4521, 4522, 4531, 4530
  202443, 4189, 4190, 4199, 4198, 4522, 4523, 4532, 4531
  202444, 4190, 4191, 4200, 4199, 4523, 4524, 4533, 4532
  202445, 4191, 4192, 4201, 4200, 4524, 4525, 4534, 4533
  202446, 4192, 4193, 4202, 4201, 4525, 4526, 4535, 4534
  202447, 4193, 4194, 4203, 4202, 4526, 4527, 4536, 4535
  202448, 4195, 4196, 4205, 4204, 4528, 4529, 4538, 4537
  202449, 4196, 4197, 4206, 4205, 4529, 4530, 4539, 4538
  202450, 4197, 4198, 4207, 4206, 4530, 4531, 4540, 4539
  202451, 4198, 4199, 4208, 4207, 4531, 4532, 4541, 4540
  202452, 4199, 4200, 4209, 4208, 4532, 4533, 4542, 4541
  202453, 4200, 4201, 4210, 4209, 4533, 4534, 4543, 4542
  202454, 4201, 4202, 4211, 4210, 4534, 4535, 4544, 4543
  202455, 4202, 4203, 4212, 4211, 4535, 4536, 4545, 4544
  202456, 4204, 4205, 4214, 4213, 4537, 4538, 4547, 4546
  202457, 4205, 4206, 4215, 4214, 4538, 4539, 4548, 4547
  202458, 4206, 4207, 4216, 4215, 4539, 4540, 4549, 4548
  202459, 4207, 4208, 4217, 4216, 4540, 4541, 4550, 4549
  202460, 4208, 4209, 4218, 4217, 4541, 4542, 4551, 4550
  202461, 4209, 4210, 4219, 4218, 4542, 4543, 4552, 4551
  202462, 4210, 4211, 4220, 4219, 4543, 4544, 4553, 4552
  202463, 4211, 4212, 4221, 4220, 4544, 4545, 4554, 4553
  202464, 4213, 4214, 4223, 4222, 4546, 4547, 4556, 4555
  202465, 4214, 4215, 4224, 4223, 4547, 4548, 4557, 4556
  202466, 4215, 4216, 4225, 4224, 4548, 4549, 4558, 4557
  202467, 4216, 4217, 4226, 4225, 4549, 4550, 4559, 4558
  202468, 4217, 4218, 4227, 4226, 4550, 4551, 4560, 4559
  202469, 4218, 4219, 4228, 4227, 4551, 4552, 4561, 4560
  202470, 4219, 4220, 4229, 4228, 4552, 4553, 4562, 4561
  202471, 4220, 4221, 4230, 4229, 4553, 4554, 4563, 4562
  202472, 4222, 4223, 4232, 4231, 4555, 4556, 4565, 4564
  202473, 4223, 4224, 4233, 4232, 4556, 4557, 4566, 4565
  202474, 4224, 4225, 4234, 4233, 4557, 4558, 4567, 4566
  202475, 4225, 4226, 4235, 4234, 4558, 4559, 4568, 4567
  202476, 4226, 4227, 4236, 4235, 4559, 4560, 4569, 4568
  202477, 4227, 4228, 4237, 4236, 4560, 4561, 4570, 4569
  202478, 4228, 4229, 4238, 4237, 4561, 4562, 4571, 4570
  202479, 4229, 4230, 4239, 4238, 4562, 4563, 4572, 4571
  202480, 4231, 4232, 4241, 4240, 4564, 4565, 4574, 4573
  202481, 4232, 4233, 4242, 4241, 4565, 4566, 4575, 4574
  202482, 4233, 4234, 4243, 4242, 4566, 4567, 4576, 4575
  202483, 4234, 4235, 4244, 4243, 4567, 4568, 4577, 4576
  202484, 4235, 4236, 4245, 4244, 4568, 4569, 4578, 4577
  202485, 4236, 4237, 4246, 4245, 4569, 4570, 4579, 4578
  202486, 4237, 4238, 4247, 4246, 4570, 4571, 4580, 4579
  202487, 4238, 4239, 4248, 4247, 4571, 4572, 4581, 4580
  202488, 4240, 4241, 4250, 4249, 4573, 4574, 4583, 4582
  202489, 4241, 4242, 4251, 4250, 4574, 4575, 4584, 4583
  202490, 4242, 4243, 4252, 4251, 4575, 4576, 4585, 4584
  202491, 4243, 4244, 4253, 4252, 4576, 4577, 4586, 4585
  202492, 4244, 4245, 4254, 4253, 4577, 4578, 4587, 4586
  202493, 4245, 4246, 4255, 4254, 4578, 4579, 4588, 4587
  202494, 4246, 4247, 4256, 4255, 4579, 4580, 4589, 4588
  202495, 4247, 4248, 4257, 4256, 4580, 4581, 4590, 4589
  202496, 4249, 4250, 4259, 4258, 4582, 4583, 4592, 4591
  202497, 4250, 4251, 4260, 4259, 4583, 4584, 4593, 4592
  202498, 4251, 4252, 4261, 4260, 4584, 4585, 4594, 4593
  202499, 4252, 4253, 4262, 4261, 4585, 4586, 4595, 4594
  202500, 4253, 4254, 4263, 4262, 4586, 4587, 4596, 4595
  202501, 4254, 4255, 4264, 4263, 4587, 4588, 4597, 4596
  202502, 4255, 4256, 4265, 4264, 4588, 4589, 4598, 4597
  202503, 4256, 4257, 4266, 4265, 4589, 4590, 4599, 4598
  202504, 4258, 4259, 4268, 4267, 4591, 4592, 4601, 4600
  202505, 4259, 4260, 4269, 4268, 4592, 4593, 4602, 4601
  202506, 4260, 4261, 4270, 4269, 4593, 4594, 4603, 4602
  202507, 4261, 4262, 4271, 4270, 4594, 4595, 4604, 4603
  202508, 4262, 4263, 4272, 4271, 4595, 4596, 4605, 4604
  202509, 4263, 4264, 4273, 4272, 4596, 4597, 4606, 4605
  202510, 4264, 4265, 4274, 4273, 4597, 4598, 4607, 4606
  202511, 4265, 4266, 4275, 4274, 4598, 4599, 4608, 4607
  202512, 4267, 4268, 4277, 4276, 4600, 4601, 4610, 4609
  202513, 4268, 4269, 4278, 4277, 4601, 4602, 4611, 4610
  202514, 4269, 4270, 4279, 4278, 4602, 4603, 4612, 4611
  202515, 4270, 4271, 4280, 4279, 4603, 4604, 4613, 4612
  202516, 4271, 4272, 4281, 4280, 4604, 4605, 4614, 4613
  202517, 4272, 4273, 4282, 4281, 4605, 4606, 4615, 4614
  202518, 4273, 4274, 4283, 4282, 4606, 4607, 4616, 4615
  202519, 4274, 4275, 4284, 4283, 4607, 4608, 4617, 4616
  202520, 4276, 4277, 4286, 4285, 4609, 4610, 4619, 4618
  202521, 4277, 4278, 4287, 4286, 4610, 4611, 4620, 4619
  202522, 4278, 4279, 4288, 4287, 4611, 4612, 4621, 4620
  202523, 4279, 4280, 4289, 4288, 4612, 4613, 4622, 4621
  202524, 4280, 4281, 4290, 4289, 4613, 4614, 4623, 4622
  202525, 4281, 4282, 4291, 4290, 4614, 4615, 4624, 4623
  202526, 4282, 4283, 4292, 4291, 4615, 4616, 4625, 4624
  202527, 4283, 4284, 4293, 4292, 4616, 4617, 4626, 4625
  202528, 4285, 4286, 4295, 4294, 4618, 4619, 4628, 4627
  202529, 4286, 4287, 4296, 4295, 4619, 4620, 4629, 4628
  202530, 4287, 4288, 4297, 4296, 4620, 4621, 4630, 4629
  202531, 4288, 4289, 4298, 4297, 4621, 4622, 4631, 4630
  202532, 4289, 4290, 4299, 4298, 4622, 4623, 4632, 4631
  202533, 4290, 4291, 4300, 4299, 4623, 4624, 4633, 4632
  202534, 4291, 4292, 4301, 4300, 4624, 4625, 4634, 4633
  202535, 4292, 4293, 4302, 4301, 4625, 4626, 4635, 4634
  202536, 4294, 4295, 4304, 4303, 4627, 4628, 4637, 4636
  202537, 4295, 4296, 4305, 4304, 4628, 4629, 4638, 4637
  202538, 4296, 4297, 4306, 4305, 4629, 4630, 4639, 4638
  202539, 4297, 4298, 4307, 4306, 4630, 4631, 4640, 4639
  202540, 4298, 4299, 4308, 4307, 4631, 4632, 4641, 4640
  202541, 4299, 4300, 4309, 4308, 4632, 4633, 4642, 4641
  202542, 4300, 4301, 4310, 4309, 4633, 4634, 4643, 4642
  202543, 4301, 4302, 4311, 4310, 4634, 4635, 4644, 4643
  202544, 4303, 4304, 4313, 4312, 4636, 4637, 4646, 4645
  202545, 4304, 4305, 4314, 4313, 4637, 4638, 4647, 4646
  202546, 4305, 4306, 4315, 4314, 4638, 4639, 4648, 4647
  202547, 4306, 4307, 4316, 4315, 4639, 4640, 4649, 4648
  202548, 4307, 4308, 4317, 4316, 4640, 4641, 4650, 4649
  202549, 4308, 4309, 4318, 4317, 4641, 4642, 4651, 4650
  202550, 4309, 4310, 4319, 4318, 4642, 4643, 4652, 4651
  202551, 4310, 4311, 4320, 4319, 4643, 4644, 4653, 4652
  202552, 4312, 4313, 4322, 4321, 4645, 4646, 4655, 4654
  202553, 4313, 4314, 4323, 4322, 4646, 4647, 4656, 4655
  202554, 4314, 4315, 4324, 4323, 4647, 4648, 4657, 4656
  202555, 4315, 4316, 4325, 4324, 4648, 4649, 4658, 4657
  202556, 4316, 4317, 4326, 4325, 4649, 4650, 4659, 4658
  202557, 4317, 4318, 4327, 4326, 4650, 4651, 4660, 4659
  202558, 4318, 4319, 4328, 4327, 4651, 4652, 4661, 4660
  202559, 4319, 4320, 4329, 4328, 4652, 4653, 4662, 4661
  202560, 4321, 4322, 4331, 4330, 4654, 4655, 4664, 4663
  202561, 4322, 4323, 4332, 4331, 4655, 4656, 4665, 4664
  202562, 4323, 4324, 4333, 4332, 4656, 4657, 4666, 4665
  202563, 4324, 4325, 4334, 4333, 4657, 4658, 4667, 4666
  202564, 4325, 4326, 4335, 4334, 4658, 4659, 4668, 4667
  202565, 4326, 4327, 4336, 4335, 4659, 4660, 4669, 4668
  202566, 4327, 4328, 4337, 4336, 4660, 4661, 4670, 4669
  202567, 4328, 4329, 4338, 4337, 4661, 4662, 4671, 4670
  202568, 4330, 4331, 4340, 4339, 4663, 4664, 4673, 4672
  202569, 4331, 4332, 4341, 4340, 4664, 4665, 4674, 4673
  202570, 4332, 4333, 4342, 4341, 4665, 4666, 4675, 4674
  202571, 4333, 4334, 4343, 4342, 4666, 4667, 4676, 4675
  202572, 4334, 4335, 4344, 4343, 4667, 4668, 4677, 4676
  202573, 4335, 4336, 4345, 4344, 4668, 4669, 4678, 4677
  202574, 4336, 4337, 4346, 4345, 4669, 4670, 4679, 4678
  202575, 4337, 4338, 4347, 4346, 4670, 4671, 4680, 4679
  202576, 4339, 4340, 4349, 4348, 4672, 4673, 4682, 4681
  202577, 4340, 4341, 4350, 4349, 4673, 4674, 4683, 4682
  202578, 4341, 4342, 4351, 4350, 4674, 4675, 4684, 4683
  202579, 4342, 4343, 4352, 4351, 4675, 4676, 4685, 4684
  202580, 4343, 4344, 4353, 4352, 4676, 4677, 4686, 4685
  202581, 4344, 4345, 4354, 4353, 4677, 4678, 4687, 4686
  202582, 4345, 4346, 4355, 4354, 4678, 4679, 4688, 4687
  202583, 4346, 4347, 4356, 4355, 4679, 4680, 4689, 4688
  202584, 4348, 4349, 4358, 4357, 4681, 4682, 4691, 4690
  202585, 4349, 4350, 4359, 4358, 4682, 4683, 4692, 4691
  202586, 4350, 4351, 4360, 4359, 4683, 4684, 4693, 4692
  202587, 4351, 4352, 4361, 4360, 4684, 4685, 4694, 4693
  202588, 4352, 4353, 4362, 4361, 4685, 4686, 4695, 4694
  202589, 4353, 4354, 4363, 4362, 4686, 4687, 4696, 4695
  202590, 4354, 4355, 4364, 4363, 4687, 4688, 4697, 4696
  202591, 4355, 4356, 4365, 4364, 4688, 4689, 4698, 4697
  202592, 4366, 4367, 4376, 4375, 4699, 4700, 4709, 4708
  202593, 4367, 4368, 4377, 4376, 4700, 4701, 4710, 4709
  202594, 4368, 4369, 4378, 4377, 4701, 4702, 4711, 4710
  202595, 4369, 4370, 4379, 4378, 4702, 4703, 4712, 4711
  202596, 4370, 4371, 4380, 4379, 4703, 4704, 4713, 4712
  202597, 4371, 4372, 4381, 4380, 4704, 4705, 4714, 4713
  202598, 4372, 4373, 4382, 4381, 4705, 4706, 4715, 4714
  202599, 4373, 4374, 4383, 4382, 4706, 4707, 4716, 4715
  202600, 4375, 4376, 4385, 4384, 4708, 4709, 4718, 4717
  202601, 4376, 4377, 4386, 4385, 4709, 4710, 4719, 4718
  202602, 4377, 4378, 4387, 4386, 4710, 4711, 4720, 4719
  202603, 4378, 4379, 4388, 4387, 4711, 4712, 4721, 4720
  202604, 4379, 4380, 4389, 4388, 4712, 4713, 4722, 4721
  202605, 4380, 4381, 4390, 4389, 4713, 4714, 4723, 4722
  202606, 4381, 4382, 4391, 4390, 4714, 4715, 4724, 4723
  202607, 4382, 4383, 4392, 4391, 4715, 4716, 4725, 4724
  202608, 4384, 4385, 4394, 4393, 4717, 4718, 4727, 4726
  202609, 4385, 4386, 4395, 4394, 4718, 4719, 4728, 4727
  202610, 4386, 4387, 4396, 4395, 4719, 4720, 4729, 4728
  202611, 4387, 4388, 4397, 4396, 4720, 4721, 4730, 4729
  202612, 4388, 4389, 4398, 4397, 4721, 4722, 4731, 4730
  202613, 4389, 4390, 4399, 4398, 4722, 4723, 4732, 4731
  202614, 4390, 4391, 4400, 4399, 4723, 4724, 4733, 4732
  202615, 4391, 4392, 4401, 4400, 4724, 4725, 4734, 4733
  202616, 4393, 4394, 4403, 4402, 4726, 4727, 4736, 4735
  202617, 4394, 4395, 4404, 4403, 4727, 4728, 4737, 4736
  202618, 4395, 4396, 4405, 4404, 4728, 4729, 4738, 4737
  202619, 4396, 4397, 4406, 4405, 4729, 4730, 4739, 4738
  202620, 4397, 4398, 4407, 4406, 4730, 4731, 4740, 4739
  202621, 4398, 4399, 4408, 4407, 4731, 4732, 4741, 4740
  202622, 4399, 4400, 4409, 4408, 4732, 4733, 4742, 4741
  202623, 4400, 4401, 4410, 4409, 4733, 4734, 4743, 4742
  202624, 4402, 4403, 4412, 4411, 4735, 4736, 4745, 4744
  202625, 4403, 4404, 4413, 4412, 4736, 4737, 4746, 4745
  202626, 4404, 4405, 4414, 4413, 4737, 4738, 4747, 4746
  202627, 4405, 4406, 4415, 4414, 4738, 4739, 4748, 4747
  202628, 4406, 4407, 4416, 4415, 4739, 4740, 4749, 4748
  202629, 4407, 4408, 4417, 4416, 4740, 4741, 4750, 4749
  202630, 4408, 4409, 4418, 4417, 4741, 4742, 4751, 4750
  202631, 4409, 4410, 4419, 4418, 4742, 4743, 4752, 4751
  202632, 4411, 4412, 4421, 4420, 4744, 4745, 4754, 4753
  202633, 4412, 4413, 4422, 4421, 4745, 4746, 4755, 4754
  202634, 4413, 4414, 4423, 4422, 4746, 4747, 4756, 4755
  202635, 4414, 4415, 4424, 4423, 4747, 4748, 4757, 4756
  202636, 4415, 4416, 4425, 4424, 4748, 4749, 4758, 4757
  202637, 4416, 4417, 4426, 4425, 4749, 4750, 4759, 4758
  202638, 4417, 4418, 4427, 4426, 4750, 4751, 4760, 4759
  202639, 4418, 4419, 4428, 4427, 4751, 4752, 4761, 4760
  202640, 4420, 4421, 4430, 4429, 4753, 4754, 4763, 4762
  202641, 4421, 4422, 4431, 4430, 4754, 4755, 4764, 4763
  202642, 4422, 4423, 4432, 4431, 4755, 4756, 4765, 4764
  202643, 4423, 4424, 4433, 4432, 4756, 4757, 4766, 4765
  202644, 4424, 4425, 4434, 4433, 4757, 4758, 4767, 4766
  202645, 4425, 4426, 4435, 4434, 4758, 4759, 4768, 4767
  202646, 4426, 4427, 4436, 4435, 4759, 4760, 4769, 4768
  202647, 4427, 4428, 4437, 4436, 4760, 4761, 4770, 4769
  202648, 4429, 4430, 4439, 4438, 4762, 4763, 4772, 4771
  202649, 4430, 4431, 4440, 4439, 4763, 4764, 4773, 4772
  202650, 4431, 4432, 4441, 4440, 4764, 4765, 4774, 4773
  202651, 4432, 4433, 4442, 4441, 4765, 4766, 4775, 4774
  202652, 4433, 4434, 4443, 4442, 4766, 4767, 4776, 4775
  202653, 4434, 4435, 4444, 4443, 4767, 4768, 4777, 4776
  202654, 4435, 4436, 4445, 4444, 4768, 4769, 4778, 4777
  202655, 4436, 4437, 4446, 4445, 4769, 4770, 4779, 4778
  202656, 4438, 4439, 4448, 4447, 4771, 4772, 4781, 4780
  202657, 4439, 4440, 4449, 4448, 4772, 4773, 4782, 4781
  202658, 4440, 4441, 4450, 4449, 4773, 4774, 4783, 4782
  202659, 4441, 4442, 4451, 4450, 4774, 4775, 4784, 4783
  202660, 4442, 4443, 4452, 4451, 4775, 4776, 4785, 4784
  202661, 4443, 4444, 4453, 4452, 4776, 4777, 4786, 4785
  202662, 4444, 4445, 4454, 4453, 4777, 4778, 4787, 4786
  202663, 4445, 4446, 4455, 4454, 4778, 4779, 4788, 4787
  202664, 4447, 4448, 4457, 4456, 4780, 4781, 4790, 4789
  202665, 4448, 4449, 4458, 4457, 4781, 4782, 4791, 4790
  202666, 4449, 4450, 4459, 4458, 4782, 4783, 4792, 4791
  202667, 4450, 4451, 4460, 4459, 4783, 4784, 4793, 4792
  202668, 4451, 4452, 4461, 4460, 4784, 4785, 4794, 4793
  202669, 4452, 4453, 4462, 4461, 4785, 4786, 4795, 4794
  202670, 4453, 4454, 4463, 4462, 4786, 4787, 4796, 4795
  202671, 4454, 4455, 4464, 4463, 4787, 4788, 4797, 4796
  202672, 4456, 4457, 4466, 4465, 4789, 4790, 4799, 4798
  202673, 4457, 4458, 4467, 4466, 4790, 4791, 4800, 4799
  202674, 4458, 4459, 4468, 4467, 4791, 4792, 4801, 4800
  202675, 4459, 4460, 4469, 4468, 4792, 4793, 4802, 4801
  202676, 4460, 4461, 4470, 4469, 4793, 4794, 4803, 4802
  202677, 4461, 4462, 4471, 4470, 4794, 4795, 4804, 4803
  202678, 4462, 4463, 4472, 4471, 4795, 4796, 4805, 4804
  202679, 4463, 4464, 4473, 4472, 4796, 4797, 4806, 4805
  202680, 4465, 4466, 4475, 4474, 4798, 4799, 4808, 4807
  202681, 4466, 4467, 4476, 4475, 4799, 4800, 4809, 4808
  202682, 4467, 4468, 4477, 4476, 4800, 4801, 4810, 4809
  202683, 4468, 4469, 4478, 4477, 4801, 4802, 4811, 4810
  202684, 4469, 4470, 4479, 4478, 4802, 4803, 4812, 4811
  202685, 4470, 4471, 4480, 4479, 4803, 4804, 4813, 4812
  202686, 4471, 4472, 4481, 4480, 4804, 4805, 4814, 4813
  202687, 4472, 4473, 4482, 4481, 4805, 4806, 4815, 4814
  202688, 4474, 4475, 4484, 4483, 4807, 4808, 4817, 4816
  202689, 4475, 4476, 4485, 4484, 4808, 4809, 4818, 4817
  202690, 4476, 4477, 4486, 4485, 4809, 4810, 4819, 4818
  202691, 4477, 4478, 4487, 4486, 4810, 4811, 4820, 4819
  202692, 4478, 4479, 4488, 4487, 4811, 4812, 4821, 4820
  202693, 4479, 4480, 4489, 4488, 4812, 4813, 4822, 4821
  202694, 4480, 4481, 4490, 4489, 4813, 4814, 4823, 4822
  202695, 4481, 4482, 4491, 4490, 4814, 4815, 4824, 4823
  202696, 4483, 4484, 4493, 4492, 4816, 4817, 4826, 4825
  202697, 4484, 4485, 4494, 4493, 4817, 4818, 4827, 4826
  202698, 4485, 4486, 4495, 4494, 4818, 4819, 4828, 4827
  202699, 4486, 4487, 4496, 4495, 4819, 4820, 4829, 4828
  202700, 4487, 4488, 4497, 4496, 4820, 4821, 4830, 4829
  202701, 4488, 4489, 4498, 4497, 4821, 4822, 4831, 4830
  202702, 4489, 4490, 4499, 4498, 4822, 4823, 4832, 4831
  202703, 4490, 4491, 4500, 4499, 4823, 4824, 4833, 4832
  202704, 4492, 4493, 4502, 4501, 4825, 4826, 4835, 4834
  202705, 4493, 4494, 4503, 4502, 4826, 4827, 4836, 4835
  202706, 4494, 4495, 4504, 4503, 4827, 4828, 4837, 4836
  202707, 4495, 4496, 4505, 4504, 4828, 4829, 4838, 4837
  202708, 4496, 4497, 4506, 4505, 4829, 4830, 4839, 4838
  202709, 4497, 4498, 4507, 4506, 4830, 4831, 4840, 4839
  202710, 4498, 4499, 4508, 4507, 4831, 4832, 4841, 4840
  202711, 4499, 4500, 4509, 4508, 4832, 4833, 4842, 4841
  202712, 4501, 4502, 4511, 4510, 4834, 4835, 4844, 4843
  202713, 4502, 4503, 4512, 4511, 4835, 4836, 4845, 4844
  202714, 4503, 4504, 4513, 4512, 4836, 4837, 4846, 4845
  202715, 4504, 4505, 4514, 4513, 4837, 4838, 4847, 4846
  202716, 4505, 4506, 4515, 4514, 4838, 4839, 4848, 4847
  202717, 4506, 4507, 4516, 4515, 4839, 4840, 4849, 4848
  202718, 4507, 4508, 4517, 4516, 4840, 4841, 4850, 4849
  202719, 4508, 4509, 4518, 4517, 4841, 4842, 4851, 4850
  202720, 4510, 4511, 4520, 4519, 4843, 4844, 4853, 4852
  202721, 4511, 4512, 4521, 4520, 4844, 4845, 4854, 4853
  202722, 4512, 4513, 4522, 4521, 4845, 4846, 4855, 4854
  202723, 4513, 4514, 4523, 4522, 4846, 4847, 4856, 4855
  202724, 4514, 4515, 4524, 4523, 4847, 4848, 4857, 4856
  202725, 4515, 4516, 4525, 4524, 4848, 4849, 4858, 4857
  202726, 4516, 4517, 4526, 4525, 4849, 4850, 4859, 4858
  202727, 4517, 4518, 4527, 4526, 4850, 4851, 4860, 4859
  202728, 4519, 4520, 4529, 4528, 4852, 4853, 4862, 4861
  202729, 4520, 4521, 4530, 4529, 4853, 4854, 4863, 4862
  202730, 4521, 4522, 4531, 4530, 4854, 4855, 4864, 4863
  202731, 4522, 4523, 4532, 4531, 4855, 4856, 4865, 4864
  202732, 4523, 4524, 4533, 4532, 4856, 4857, 4866, 4865
  202733, 4524, 4525, 4534, 4533, 4857, 4858, 4867, 4866
  202734, 4525, 4526, 4535, 4534, 4858, 4859, 4868, 4867
  202735, 4526, 4527, 4536, 4535, 4859, 4860, 4869, 4868
  202736, 4528, 4529, 4538, 4537, 4861, 4862, 4871, 4870
  202737, 4529, 4530, 4539, 4538, 4862, 4863, 4872, 4871
  202738, 4530, 4531, 4540, 4539, 4863, 4864, 4873, 4872
  202739, 4531, 4532, 4541, 4540, 4864, 4865, 4874, 4873
  202740, 4532, 4533, 4542, 4541, 4865, 4866, 4875, 4874
  202741, 4533, 4534, 4543, 4542, 4866, 4867, 4876, 4875
  202742, 4534, 4535, 4544, 4543, 4867, 4868, 4877, 4876
  202743, 4535, 4536, 4545, 4544, 4868, 4869, 4878, 4877
  202744, 4537, 4538, 4547, 4546, 4870, 4871, 4880, 4879
  202745, 4538, 4539, 4548, 4547, 4871, 4872, 4881, 4880
  202746, 4539, 4540, 4549, 4548, 4872, 4873, 4882, 4881
  202747, 4540, 4541, 4550, 4549, 4873, 4874, 4883, 4882
  202748, 4541, 4542, 4551, 4550, 4874, 4875, 4884, 4883
  202749, 4542, 4543, 4552, 4551, 4875, 4876, 4885, 4884
  202750, 4543, 4544, 4553, 4552, 4876, 4877, 4886, 4885
  202751, 4544, 4545, 4554, 4553, 4877, 4878, 4887, 4886
  202752, 4546, 4547, 4556, 4555, 4879, 4880, 4889, 4888
  202753, 4547, 4548, 4557, 4556, 4880, 4881, 4890, 4889
  202754, 4548, 4549, 4558, 4557, 4881, 4882, 4891, 4890
  202755, 4549, 4550, 4559, 4558, 4882, 4883, 4892, 4891
  202756, 4550, 4551, 4560, 4559, 4883, 4884, 4893, 4892
  202757, 4551, 4552, 4561, 4560, 4884, 4885, 4894, 4893
  202758, 4552, 4553, 4562, 4561, 4885, 4886, 4895, 4894
  202759, 4553, 4554, 4563, 4562, 4886, 4887, 4896, 4895
  202760, 4555, 4556, 4565, 4564, 4888, 4889, 4898, 4897
  202761, 4556, 4557, 4566, 4565, 4889, 4890, 4899, 4898
  202762, 4557, 4558, 4567, 4566, 4890, 4891, 4900, 4899
  202763, 4558, 4559, 4568, 4567, 4891, 4892, 4901, 4900
  202764, 4559, 4560, 4569, 4568, 4892, 4893, 4902, 4901
  202765, 4560, 4561, 4570, 4569, 4893, 4894, 4903, 4902
  202766, 4561, 4562, 4571, 4570, 4894, 4895, 4904, 4903
  202767, 4562, 4563, 4572, 4571, 4895, 4896, 4905, 4904
  202768, 4564, 4565, 4574, 4573, 4897, 4898, 4907, 4906
  202769, 4565, 4566, 4575, 4574, 4898, 4899, 4908, 4907
  202770, 4566, 4567, 4576, 4575, 4899, 4900, 4909, 4908
  202771, 4567, 4568, 4577, 4576, 4900, 4901, 4910, 4909
  202772, 4568, 4569, 4578, 4577, 4901, 4902, 4911, 4910
  202773, 4569, 4570, 4579, 4578, 4902, 4903, 4912, 4911
  202774, 4570, 4571, 4580, 4579, 4903, 4904, 4913, 4912
  202775, 4571, 4572, 4581, 4580, 4904, 4905, 4914, 4913
  202776, 4573, 4574, 4583, 4582, 4906, 4907, 4916, 4915
  202777, 4574, 4575, 4584, 4583, 4907, 4908, 4917, 4916
  202778, 4575, 4576, 4585, 4584, 4908, 4909, 4918, 4917
  202779, 4576, 4577, 4586, 4585, 4909, 4910, 4919, 4918
  202780, 4577, 4578, 4587, 4586, 4910, 4911, 4920, 4919
  202781, 4578, 4579, 4588, 4587, 4911, 4912, 4921, 4920
  202782, 4579, 4580, 4589, 4588, 4912, 4913, 4922, 4921
  202783, 4580, 4581, 4590, 4589, 4913, 4914, 4923, 4922
  202784, 4582, 4583, 4592, 4591, 4915, 4916, 4925, 4924
  202785, 4583, 4584, 4593, 4592, 4916, 4917, 4926, 4925
  202786, 4584, 4585, 4594, 4593, 4917, 4918, 4927, 4926
  202787, 4585, 4586, 4595, 4594, 4918, 4919, 4928, 4927
  202788, 4586, 4587, 4596, 4595, 4919, 4920, 4929, 4928
  202789, 4587, 4588, 4597, 4596, 4920, 4921, 4930, 4929
  202790, 4588, 4589, 4598, 4597, 4921, 4922, 4931, 4930
  202791, 4589, 4590, 4599, 4598, 4922, 4923, 4932, 4931
  202792, 4591, 4592, 4601, 4600, 4924, 4925, 4934, 4933
  202793, 4592, 4593, 4602, 4601, 4925, 4926, 4935, 4934
  202794, 4593, 4594, 4603, 4602, 4926, 4927, 4936, 4935
  202795, 4594, 4595, 4604, 4603, 4927, 4928, 4937, 4936
  202796, 4595, 4596, 4605, 4604, 4928, 4929, 4938, 4937
  202797, 4596, 4597, 4606, 4605, 4929, 4930, 4939, 4938
  202798, 4597, 4598, 4607, 4606, 4930, 4931, 4940, 4939
  202799, 4598, 4599, 4608, 4607, 4931, 4932, 4941, 4940
  202800, 4600, 4601, 4610, 4609, 4933, 4934, 4943, 4942
  202801, 4601, 4602, 4611, 4610, 4934, 4935, 4944, 4943
  202802, 4602, 4603, 4612, 4611, 4935, 4936, 4945, 4944
  202803, 4603, 4604, 4613, 4612, 4936, 4937, 4946, 4945
  202804, 4604, 4605, 4614, 4613, 4937, 4938, 4947, 4946
  202805, 4605, 4606, 4615, 4614, 4938, 4939, 4948, 4947
  202806, 4606, 4607, 4616, 4615, 4939, 4940, 4949, 4948
  202807, 4607, 4608, 4617, 4616, 4940, 4941, 4950, 4949
  202808, 4609, 4610, 4619, 4618, 4942, 4943, 4952, 4951
  202809, 4610, 4611, 4620, 4619, 4943, 4944, 4953, 4952
  202810, 4611, 4612, 4621, 4620, 4944, 4945, 4954, 4953
  202811, 4612, 4613, 4622, 4621, 4945, 4946, 4955, 4954
  202812, 4613, 4614, 4623, 4622, 4946, 4947, 4956, 4955
  202813, 4614, 4615, 4624, 4623, 4947, 4948, 4957, 4956
  202814, 4615, 4616, 4625, 4624, 4948, 4949, 4958, 4957
  202815, 4616, 4617, 4626, 4625, 4949, 4950, 4959, 4958
  202816, 4618, 4619, 4628, 4627, 4951, 4952, 4961, 4960
  202817, 4619, 4620, 4629, 4628, 4952, 4953, 4962, 4961
  202818, 4620, 4621, 4630, 4629, 4953, 4954, 4963, 4962
  202819, 4621, 4622, 4631, 4630, 4954, 4955, 4964, 4963
  202820, 4622, 4623, 4632, 4631, 4955, 4956, 4965, 4964
  202821, 4623, 4624, 4633, 4632, 4956, 4957, 4966, 4965
  202822, 4624, 4625, 4634, 4633, 4957, 4958, 4967, 4966
  202823, 4625, 4626, 4635, 4634, 4958, 4959, 4968, 4967
  202824, 4627, 4628, 4637, 4636, 4960, 4961, 4970, 4969
  202825, 4628, 4629, 4638, 4637, 4961, 4962, 4971, 4970
  202826, 4629, 4630, 4639, 4638, 4962, 4963, 4972, 4971
  202827, 4630, 4631, 4640, 4639, 4963, 4964, 4973, 4972
  202828, 4631, 4632, 4641, 4640, 4964, 4965, 4974, 4973
  202829, 4632, 4633, 4642, 4641, 4965, 4966, 4975, 4974
  202830, 4633, 4634, 4643, 4642, 4966, 4967, 4976, 4975
  202831, 4634, 4635, 4644, 4643, 4967, 4968, 4977, 4976
  202832, 4636, 4637, 4646, 4645, 4969, 4970, 4979, 4978
  202833, 4637, 4638, 4647, 4646, 4970, 4971, 4980, 4979
  202834, 4638, 4639, 4648, 4647, 4971, 4972, 4981, 4980
  202835, 4639, 4640, 4649, 4648, 4972, 4973, 4982, 4981
  202836, 4640, 4641, 4650, 4649, 4973, 4974, 4983, 4982
  202837, 4641, 4642, 4651, 4650, 4974, 4975, 4984, 4983
  202838, 4642, 4643, 4652, 4651, 4975, 4976, 4985, 4984
  202839, 4643, 4644, 4653, 4652, 4976, 4977, 4986, 4985
  202840, 4645, 4646, 4655, 4654, 4978, 4979, 4988, 4987
  202841, 4646, 4647, 4656, 4655, 4979, 4980, 4989, 4988
  202842, 4647, 4648, 4657, 4656, 4980, 4981, 4990, 4989
  202843, 4648, 4649, 4658, 4657, 4981, 4982, 4991, 4990
  202844, 4649, 4650, 4659, 4658, 4982, 4983, 4992, 4991
  202845, 4650, 4651, 4660, 4659, 4983, 4984, 4993, 4992
  202846, 4651, 4652, 4661, 4660, 4984, 4985, 4994, 4993
  202847, 4652, 4653, 4662, 4661, 4985, 4986, 4995, 4994
  202848, 4654, 4655, 4664, 4663, 4987, 4988, 4997, 4996
  202849, 4655, 4656, 4665, 4664, 4988, 4989, 4998, 4997
  202850, 4656, 4657, 4666, 4665, 4989, 4990, 4999, 4998
  202851, 4657, 4658, 4667, 4666, 4990, 4991, 5000, 4999
  202852, 4658, 4659, 4668, 4667, 4991, 4992, 5001, 5000
  202853, 4659, 4660, 4669, 4668, 4992, 4993, 5002, 5001
  202854, 4660, 4661, 4670, 4669, 4993, 4994, 5003, 5002
  202855, 4661, 4662, 4671, 4670, 4994, 4995, 5004, 5003
  202856, 4663, 4664, 4673, 4672, 4996, 4997, 5006, 5005
  202857, 4664, 4665, 4674, 4673, 4997, 4998, 5007, 5006
  202858, 4665, 4666, 4675, 4674, 4998, 4999, 5008, 5007
  202859, 4666, 4667, 4676, 4675, 4999, 5000, 5009, 5008
  202860, 4667, 4668, 4677, 4676, 5000, 5001, 5010, 5009
  202861, 4668, 4669, 4678, 4677, 5001, 5002, 5011, 5010
  202862, 4669, 4670, 4679, 4678, 5002, 5003, 5012, 5011
  202863, 4670, 4671, 4680, 4679, 5003, 5004, 5013, 5012
  202864, 4672, 4673, 4682, 4681, 5005, 5006, 5015, 5014
  202865, 4673, 4674, 4683, 4682, 5006, 5007, 5016, 5015
  202866, 4674, 4675, 4684, 4683, 5007, 5008, 5017, 5016
  202867, 4675, 4676, 4685, 4684, 5008, 5009, 5018, 5017
  202868, 4676, 4677, 4686, 4685, 5009, 5010, 5019, 5018
  202869, 4677, 4678, 4687, 4686, 5010, 5011, 5020, 5019
  202870, 4678, 4679, 4688, 4687, 5011, 5012, 5021, 5020
  202871, 4679, 4680, 4689, 4688, 5012, 5013, 5022, 5021
  202872, 4681, 4682, 4691, 4690, 5014, 5015, 5024, 5023
  202873, 4682, 4683, 4692, 4691, 5015, 5016, 5025, 5024
  202874, 4683, 4684, 4693, 4692, 5016, 5017, 5026, 5025
  202875, 4684, 4685, 4694, 4693, 5017, 5018, 5027, 5026
  202876, 4685, 4686, 4695, 4694, 5018, 5019, 5028, 5027
  202877, 4686, 4687, 4696, 4695, 5019, 5020, 5029, 5028
  202878, 4687, 4688, 4697, 4696, 5020, 5021, 5030, 5029
  202879, 4688, 4689, 4698, 4697, 5021, 5022, 5031, 5030
  202880, 4699, 4700, 4709, 4708, 5032, 5033, 5042, 5041
  202881, 4700, 4701, 4710, 4709, 5033, 5034, 5043, 5042
  202882, 4701, 4702, 4711, 4710, 5034, 5035, 5044, 5043
  202883, 4702, 4703, 4712, 4711, 5035, 5036, 5045, 5044
  202884, 4703, 4704, 4713, 4712, 5036, 5037, 5046, 5045
  202885, 4704, 4705, 4714, 4713, 5037, 5038, 5047, 5046
  202886, 4705, 4706, 4715, 4714, 5038, 5039, 5048, 5047
  202887, 4706, 4707, 4716, 4715, 5039, 5040, 5049, 5048
  202888, 4708, 4709, 4718, 4717, 5041, 5042, 5051, 5050
  202889, 4709, 4710, 4719, 4718, 5042, 5043, 5052, 5051
  202890, 4710, 4711, 4720, 4719, 5043, 5044, 5053, 5052
  202891, 4711, 4712, 4721, 4720, 5044, 5045, 5054, 5053
  202892, 4712, 4713, 4722, 4721, 5045, 5046, 5055, 5054
  202893, 4713, 4714, 4723, 4722, 5046, 5047, 5056, 5055
  202894, 4714, 4715, 4724, 4723, 5047, 5048, 5057, 5056
  202895, 4715, 4716, 4725, 4724, 5048, 5049, 5058, 5057
  202896, 4717, 4718, 4727, 4726, 5050, 5051, 5060, 5059
  202897, 4718, 4719, 4728, 4727, 5051, 5052, 5061, 5060
  202898, 4719, 4720, 4729, 4728, 5052, 5053, 5062, 5061
  202899, 4720, 4721, 4730, 4729, 5053, 5054, 5063, 5062
  202900, 4721, 4722, 4731, 4730, 5054, 5055, 5064, 5063
  202901, 4722, 4723, 4732, 4731, 5055, 5056, 5065, 5064
  202902, 4723, 4724, 4733, 4732, 5056, 5057, 5066, 5065
  202903, 4724, 4725, 4734, 4733, 5057, 5058, 5067, 5066
  202904, 4726, 4727, 4736, 4735, 5059, 5060, 5069, 5068
  202905, 4727, 4728, 4737, 4736, 5060, 5061, 5070, 5069
  202906, 4728, 4729, 4738, 4737, 5061, 5062, 5071, 5070
  202907, 4729, 4730, 4739, 4738, 5062, 5063, 5072, 5071
  202908, 4730, 4731, 4740, 4739, 5063, 5064, 5073, 5072
  202909, 4731, 4732, 4741, 4740, 5064, 5065, 5074, 5073
  202910, 4732, 4733, 4742, 4741, 5065, 5066, 5075, 5074
  202911, 4733, 4734, 4743, 4742, 5066, 5067, 5076, 5075
  202912, 4735, 4736, 4745, 4744, 5068, 5069, 5078, 5077
  202913, 4736, 4737, 4746, 4745, 5069, 5070, 5079, 5078
  202914, 4737, 4738, 4747, 4746, 5070, 5071, 5080, 5079
  202915, 4738, 4739, 4748, 4747, 5071, 5072, 5081, 5080
  202916, 4739, 4740, 4749, 4748, 5072, 5073, 5082, 5081
  202917, 4740, 4741, 4750, 4749, 5073, 5074, 5083, 5082
  202918, 4741, 4742, 4751, 4750, 5074, 5075, 5084, 5083
  202919, 4742, 4743, 4752, 4751, 5075, 5076, 5085, 5084
  202920, 4744, 4745, 4754, 4753, 5077, 5078, 5087, 5086
  202921, 4745, 4746, 4755, 4754, 5078, 5079, 5088, 5087
  202922, 4746, 4747, 4756, 4755, 5079, 5080, 5089, 5088
  202923, 4747, 4748, 4757, 4756, 5080, 5081, 5090, 5089
  202924, 4748, 4749, 4758, 4757, 5081, 5082, 5091, 5090
  202925, 4749, 4750, 4759, 4758, 5082, 5083, 5092, 5091
  202926, 4750, 4751, 4760, 4759, 5083, 5084, 5093, 5092
  202927, 4751, 4752, 4761, 4760, 5084, 5085, 5094, 5093
  202928, 4753, 4754, 4763, 4762, 5086, 5087, 5096, 5095
  202929, 4754, 4755, 4764, 4763, 5087, 5088, 5097, 5096
  202930, 4755, 4756, 4765, 4764, 5088, 5089, 5098, 5097
  202931, 4756, 4757, 4766, 4765, 5089, 5090, 5099, 5098
  202932, 4757, 4758, 4767, 4766, 5090, 5091, 5100, 5099
  202933, 4758, 4759, 4768, 4767, 5091, 5092, 5101, 5100
  202934, 4759, 4760, 4769, 4768, 5092, 5093, 5102, 5101
  202935, 4760, 4761, 4770, 4769, 5093, 5094, 5103, 5102
  202936, 4762, 4763, 4772, 4771, 5095, 5096, 5105, 5104
  202937, 4763, 4764, 4773, 4772, 5096, 5097, 5106, 5105
  202938, 4764, 4765, 4774, 4773, 5097, 5098, 5107, 5106
  202939, 4765, 4766, 4775, 4774, 5098, 5099, 5108, 5107
  202940, 4766, 4767, 4776, 4775, 5099, 5100, 5109, 5108
  202941, 4767, 4768, 4777, 4776, 5100, 5101, 5110, 5109
  202942, 4768, 4769, 4778, 4777, 5101, 5102, 5111, 5110
  202943, 4769, 4770, 4779, 4778, 5102, 5103, 5112, 5111
  202944, 4771, 4772, 4781, 4780, 5104, 5105, 5114, 5113
  202945, 4772, 4773, 4782, 4781, 5105, 5106, 5115, 5114
  202946, 4773, 4774, 4783, 4782, 5106, 5107, 5116, 5115
  202947, 4774, 4775, 4784, 4783, 5107, 5108, 5117, 5116
  202948, 4775, 4776, 4785, 4784, 5108, 5109, 5118, 5117
  202949, 4776, 4777, 4786, 4785, 5109, 5110, 5119, 5118
  202950, 4777, 4778, 4787, 4786, 5110, 5111, 5120, 5119
  202951, 4778, 4779, 4788, 4787, 5111, 5112, 5121, 5120
  202952, 4780, 4781, 4790, 4789, 5113, 5114, 5123, 5122
  202953, 4781, 4782, 4791, 4790, 5114, 5115, 5124, 5123
  202954, 4782, 4783, 4792, 4791, 5115, 5116, 5125, 5124
  202955, 4783, 4784, 4793, 4792, 5116, 5117, 5126, 5125
  202956, 4784, 4785, 4794, 4793, 5117, 5118, 5127, 5126
  202957, 4785, 4786, 4795, 4794, 5118, 5119, 5128, 5127
  202958, 4786, 4787, 4796, 4795, 5119, 5120, 5129, 5128
  202959, 4787, 4788, 4797, 4796, 5120, 5121, 5130, 5129
  202960, 4789, 4790, 4799, 4798, 5122, 5123, 5132, 5131
  202961, 4790, 4791, 4800, 4799, 5123, 5124, 5133, 5132
  202962, 4791, 4792, 4801, 4800, 5124, 5125, 5134, 5133
  202963, 4792, 4793, 4802, 4801, 5125, 5126, 5135, 5134
  202964, 4793, 4794, 4803, 4802, 5126, 5127, 5136, 5135
  202965, 4794, 4795, 4804, 4803, 5127, 5128, 5137, 5136
  202966, 4795, 4796, 4805, 4804, 5128, 5129, 5138, 5137
  202967, 4796, 4797, 4806, 4805, 5129, 5130, 5139, 5138
  202968, 4798, 4799, 4808, 4807, 5131, 5132, 5141, 5140
  202969, 4799, 4800, 4809, 4808, 5132, 5133, 5142, 5141
  202970, 4800, 4801, 4810, 4809, 5133, 5134, 5143, 5142
  202971, 4801, 4802, 4811, 4810, 5134, 5135, 5144, 5143
  202972, 4802, 4803, 4812, 4811, 5135, 5136, 5145, 5144
  202973, 4803, 4804, 4813, 4812, 5136, 5137, 5146, 5145
  202974, 4804, 4805, 4814, 4813, 5137, 5138, 5147, 5146
  202975, 4805, 4806, 4815, 4814, 5138, 5139, 5148, 5147
  202976, 4807, 4808, 4817, 4816, 5140, 5141, 5150, 5149
  202977, 4808, 4809, 4818, 4817, 5141, 5142, 5151, 5150
  202978, 4809, 4810, 4819, 4818, 5142, 5143, 5152, 5151
  202979, 4810, 4811, 4820, 4819, 5143, 5144, 5153, 5152
  202980, 4811, 4812, 4821, 4820, 5144, 5145, 5154, 5153
  202981, 4812, 4813, 4822, 4821, 5145, 5146, 5155, 5154
  202982, 4813, 4814, 4823, 4822, 5146, 5147, 5156, 5155
  202983, 4814, 4815, 4824, 4823, 5147, 5148, 5157, 5156
  202984, 4816, 4817, 4826, 4825, 5149, 5150, 5159, 5158
  202985, 4817, 4818, 4827, 4826, 5150, 5151, 5160, 5159
  202986, 4818, 4819, 4828, 4827, 5151, 5152, 5161, 5160
  202987, 4819, 4820, 4829, 4828, 5152, 5153, 5162, 5161
  202988, 4820, 4821, 4830, 4829, 5153, 5154, 5163, 5162
  202989, 4821, 4822, 4831, 4830, 5154, 5155, 5164, 5163
  202990, 4822, 4823, 4832, 4831, 5155, 5156, 5165, 5164
  202991, 4823, 4824, 4833, 4832, 5156, 5157, 5166, 5165
  202992, 4825, 4826, 4835, 4834, 5158, 5159, 5168, 5167
  202993, 4826, 4827, 4836, 4835, 5159, 5160, 5169, 5168
  202994, 4827, 4828, 4837, 4836, 5160, 5161, 5170, 5169
  202995, 4828, 4829, 4838, 4837, 5161, 5162, 5171, 5170
  202996, 4829, 4830, 4839, 4838, 5162, 5163, 5172, 5171
  202997, 4830, 4831, 4840, 4839, 5163, 5164, 5173, 5172
  202998, 4831, 4832, 4841, 4840, 5164, 5165, 5174, 5173
  202999, 4832, 4833, 4842, 4841, 5165, 5166, 5175, 5174
  203000, 4834, 4835, 4844, 4843, 5167, 5168, 5177, 5176
  203001, 4835, 4836, 4845, 4844, 5168, 5169, 5178, 5177
  203002, 4836, 4837, 4846, 4845, 5169, 5170, 5179, 5178
  203003, 4837, 4838, 4847, 4846, 5170, 5171, 5180, 5179
  203004, 4838, 4839, 4848, 4847, 5171, 5172, 5181, 5180
  203005, 4839, 4840, 4849, 4848, 5172, 5173, 5182, 5181
  203006, 4840, 4841, 4850, 4849, 5173, 5174, 5183, 5182
  203007, 4841, 4842, 4851, 4850, 5174, 5175, 5184, 5183
  203008, 4843, 4844, 4853, 4852, 5176, 5177, 5186, 5185
  203009, 4844, 4845, 4854, 4853, 5177, 5178, 5187, 5186
  203010, 4845, 4846, 4855, 4854, 5178, 5179, 5188, 5187
  203011, 4846, 4847, 4856, 4855, 5179, 5180, 5189, 5188
  203012, 4847, 4848, 4857, 4856, 5180, 5181, 5190, 5189
  203013, 4848, 4849, 4858, 4857, 5181, 5182, 5191, 5190
  203014, 4849, 4850, 4859, 4858, 5182, 5183, 5192, 5191
  203015, 4850, 4851, 4860, 4859, 5183, 5184, 5193, 5192
  203016, 4852, 4853, 4862, 4861, 5185, 5186, 5195, 5194
  203017, 4853, 4854, 4863, 4862, 5186, 5187, 5196, 5195
  203018, 4854, 4855, 4864, 4863, 5187, 5188, 5197, 5196
  203019, 4855, 4856, 4865, 4864, 5188, 5189, 5198, 5197
  203020, 4856, 4857, 4866, 4865, 5189, 5190, 5199, 5198
  203021, 4857, 4858, 4867, 4866, 5190, 5191, 5200, 5199
  203022, 4858, 4859, 4868, 4867, 5191, 5192, 5201, 5200
  203023, 4859, 4860, 4869, 4868, 5192, 5193, 5202, 5201
  203024, 4861, 4862, 4871, 4870, 5194, 5195, 5204, 5203
  203025, 4862, 4863, 4872, 4871, 5195, 5196, 5205, 5204
  203026, 4863, 4864, 4873, 4872, 5196, 5197, 5206, 5205
  203027, 4864, 4865, 4874, 4873, 5197, 5198, 5207, 5206
  203028, 4865, 4866, 4875, 4874, 5198, 5199, 5208, 5207
  203029, 4866, 4867, 4876, 4875, 5199, 5200, 5209, 5208
  203030, 4867, 4868, 4877, 4876, 5200, 5201, 5210, 5209
  203031, 4868, 4869, 4878, 4877, 5201, 5202, 5211, 5210
  203032, 4870, 4871, 4880, 4879, 5203, 5204, 5213, 5212
  203033, 4871, 4872, 4881, 4880, 5204, 5205, 5214, 5213
  203034, 4872, 4873, 4882, 4881, 5205, 5206, 5215, 5214
  203035, 4873, 4874, 4883, 4882, 5206, 5207, 5216, 5215
  203036, 4874, 4875, 4884, 4883, 5207, 5208, 5217, 5216
  203037, 4875, 4876, 4885, 4884, 5208, 5209, 5218, 5217
  203038, 4876, 4877, 4886, 4885, 5209, 5210, 5219, 5218
  203039, 4877, 4878, 4887, 4886, 5210, 5211, 5220, 5219
  203040, 4879, 4880, 4889, 4888, 5212, 5213, 5222, 5221
  203041, 4880, 4881, 4890, 4889, 5213, 5214, 5223, 5222
  203042, 4881, 4882, 4891, 4890, 5214, 5215, 5224, 5223
  203043, 4882, 4883, 4892, 4891, 5215, 5216, 5225, 5224
  203044, 4883, 4884, 4893, 4892, 5216, 5217, 5226, 5225
  203045, 4884, 4885, 4894, 4893, 5217, 5218, 5227, 5226
  203046, 4885, 4886, 4895, 4894, 5218, 5219, 5228, 5227
  203047, 4886, 4887, 4896, 4895, 5219, 5220, 5229, 5228
  203048, 4888, 4889, 4898, 4897, 5221, 5222, 5231, 5230
  203049, 4889, 4890, 4899, 4898, 5222, 5223, 5232, 5231
  203050, 4890, 4891, 4900, 4899, 5223, 5224, 5233, 5232
  203051, 4891, 4892, 4901, 4900, 5224, 5225, 5234, 5233
  203052, 4892, 4893, 4902, 4901, 5225, 5226, 5235, 5234
  203053, 4893, 4894, 4903, 4902, 5226, 5227, 5236, 5235
  203054, 4894, 4895, 4904, 4903, 5227, 5228, 5237, 5236
  203055, 4895, 4896, 4905, 4904, 5228, 5229, 5238, 5237
  203056, 4897, 4898, 4907, 4906, 5230, 5231, 5240, 5239
  203057, 4898, 4899, 4908, 4907, 5231, 5232, 5241, 5240
  203058, 4899, 4900, 4909, 4908, 5232, 5233, 5242, 5241
  203059, 4900, 4901, 4910, 4909, 5233, 5234, 5243, 5242
  203060, 4901, 4902, 4911, 4910, 5234, 5235, 5244, 5243
  203061, 4902, 4903, 4912, 4911, 5235, 5236, 5245, 5244
  203062, 4903, 4904, 4913, 4912, 5236, 5237, 5246, 5245
  203063, 4904, 4905, 4914, 4913, 5237, 5238, 5247, 5246
  203064, 4906, 4907, 4916, 4915, 5239, 5240, 5249, 5248
  203065, 4907, 4908, 4917, 4916, 5240, 5241, 5250, 5249
  203066, 4908, 4909, 4918, 4917, 5241, 5242, 5251, 5250
  203067, 4909, 4910, 4919, 4918, 5242, 5243, 5252, 5251
  203068, 4910, 4911, 4920, 4919, 5243, 5244, 5253, 5252
  203069, 4911, 4912, 4921, 4920, 5244, 5245, 5254, 5253
  203070, 4912, 4913, 4922, 4921, 5245, 5246, 5255, 5254
  203071, 4913, 4914, 4923, 4922, 5246, 5247, 5256, 5255
  203072, 4915, 4916, 4925, 4924, 5248, 5249, 5258, 5257
  203073, 4916, 4917, 4926, 4925, 5249, 5250, 5259, 5258
  203074, 4917, 4918, 4927, 4926, 5250, 5251, 5260, 5259
  203075, 4918, 4919, 4928, 4927, 5251, 5252, 5261, 5260
  203076, 4919, 4920, 4929, 4928, 5252, 5253, 5262, 5261
  203077, 4920, 4921, 4930, 4929, 5253, 5254, 5263, 5262
  203078, 4921, 4922, 4931, 4930, 5254, 5255, 5264, 5263
  203079, 4922, 4923, 4932, 4931, 5255, 5256, 5265, 5264
  203080, 4924, 4925, 4934, 4933, 5257, 5258, 5267, 5266
  203081, 4925, 4926, 4935, 4934, 5258, 5259, 5268, 5267
  203082, 4926, 4927, 4936, 4935, 5259, 5260, 5269, 5268
  203083, 4927, 4928, 4937, 4936, 5260, 5261, 5270, 5269
  203084, 4928, 4929, 4938, 4937, 5261, 5262, 5271, 5270
  203085, 4929, 4930, 4939, 4938, 5262, 5263, 5272, 5271
  203086, 4930, 4931, 4940, 4939, 5263, 5264, 5273, 5272
  203087, 4931, 4932, 4941, 4940, 5264, 5265, 5274, 5273
  203088, 4933, 4934, 4943, 4942, 5266, 5267, 5276, 5275
  203089, 4934, 4935, 4944, 4943, 5267, 5268, 5277, 5276
  203090, 4935, 4936, 4945, 4944, 5268, 5269, 5278, 5277
  203091, 4936, 4937, 4946, 4945, 5269, 5270, 5279, 5278
  203092, 4937, 4938, 4947, 4946, 5270, 5271, 5280, 5279
  203093, 4938, 4939, 4948, 4947, 5271, 5272, 5281, 5280
  203094, 4939, 4940, 4949, 4948, 5272, 5273, 5282, 5281
  203095, 4940, 4941, 4950, 4949, 5273, 5274, 5283, 5282
  203096, 4942, 4943, 4952, 4951, 5275, 5276, 5285, 5284
  203097, 4943, 4944, 4953, 4952, 5276, 5277, 5286, 5285
  203098, 4944, 4945, 4954, 4953, 5277, 5278, 5287, 5286
  203099, 4945, 4946, 4955, 4954, 5278, 5279, 5288, 5287
  203100, 4946, 4947, 4956, 4955, 5279, 5280, 5289, 5288
  203101, 4947, 4948, 4957, 4956, 5280, 5281, 5290, 5289
  203102, 4948, 4949, 4958, 4957, 5281, 5282, 5291, 5290
  203103, 4949, 4950, 4959, 4958, 5282, 5283, 5292, 5291
  203104, 4951, 4952, 4961, 4960, 5284, 5285, 5294, 5293
  203105, 4952, 4953, 4962, 4961, 5285, 5286, 5295, 5294
  203106, 4953, 4954, 4963, 4962, 5286, 5287, 5296, 5295
  203107, 4954, 4955, 4964, 4963, 5287, 5288, 5297, 5296
  203108, 4955, 4956, 4965, 4964, 5288, 5289, 5298, 5297
  203109, 4956, 4957, 4966, 4965, 5289, 5290, 5299, 5298
  203110, 4957, 4958, 4967, 4966, 5290, 5291, 5300, 5299
  203111, 4958, 4959, 4968, 4967, 5291, 5292, 5301, 5300
  203112, 4960, 4961, 4970, 4969, 5293, 5294, 5303, 5302
  203113, 4961, 4962, 4971, 4970, 5294, 5295, 5304, 5303
  203114, 4962, 4963, 4972, 4971, 5295, 5296, 5305, 5304
  203115, 4963, 4964, 4973, 4972, 5296, 5297, 5306, 5305
  203116, 4964, 4965, 4974, 4973, 5297, 5298, 5307, 5306
  203117, 4965, 4966, 4975, 4974, 5298, 5299, 5308, 5307
  203118, 4966, 4967, 4976, 4975, 5299, 5300, 5309, 5308
  203119, 4967, 4968, 4977, 4976, 5300, 5301, 5310, 5309
  203120, 4969, 4970, 4979, 4978, 5302, 5303, 5312, 5311
  203121, 4970, 4971, 4980, 4979, 5303, 5304, 5313, 5312
  203122, 4971, 4972, 4981, 4980, 5304, 5305, 5314, 5313
  203123, 4972, 4973, 4982, 4981, 5305, 5306, 5315, 5314
  203124, 4973, 4974, 4983, 4982, 5306, 5307, 5316, 5315
  203125, 4974, 4975, 4984, 4983, 5307, 5308, 5317, 5316
  203126, 4975, 4976, 4985, 4984, 5308, 5309, 5318, 5317
  203127, 4976, 4977, 4986, 4985, 5309, 5310, 5319, 5318
  203128, 4978, 4979, 4988, 4987, 5311, 5312, 5321, 5320
  203129, 4979, 4980, 4989, 4988, 5312, 5313, 5322, 5321
  203130, 4980, 4981, 4990, 4989, 5313, 5314, 5323, 5322
  203131, 4981, 4982, 4991, 4990, 5314, 5315, 5324, 5323
  203132, 4982, 4983, 4992, 4991, 5315, 5316, 5325, 5324
  203133, 4983, 4984, 4993, 4992, 5316, 5317, 5326, 5325
  203134, 4984, 4985, 4994, 4993, 5317, 5318, 5327, 5326
  203135, 4985, 4986, 4995, 4994, 5318, 5319, 5328, 5327
  203136, 4987, 4988, 4997, 4996, 5320, 5321, 5330, 5329
  203137, 4988, 4989, 4998, 4997, 5321, 5322, 5331, 5330
  203138, 4989, 4990, 4999, 4998, 5322, 5323, 5332, 5331
  203139, 4990, 4991, 5000, 4999, 5323, 5324, 5333, 5332
  203140, 4991, 4992, 5001, 5000, 5324, 5325, 5334, 5333
  203141, 4992, 4993, 5002, 5001, 5325, 5326, 5335, 5334
  203142, 4993, 4994, 5003, 5002, 5326, 5327, 5336, 5335
  203143, 4994, 4995, 5004, 5003, 5327, 5328, 5337, 5336
  203144, 4996, 4997, 5006, 5005, 5329, 5330, 5339, 5338
  203145, 4997, 4998, 5007, 5006, 5330, 5331, 5340, 5339
  203146, 4998, 4999, 5008, 5007, 5331, 5332, 5341, 5340
  203147, 4999, 5000, 5009, 5008, 5332, 5333, 5342, 5341
  203148, 5000, 5001, 5010, 5009, 5333, 5334, 5343, 5342
  203149, 5001, 5002, 5011, 5010, 5334, 5335, 5344, 5343
  203150, 5002, 5003, 5012, 5011, 5335, 5336, 5345, 5344
  203151, 5003, 5004, 5013, 5012, 5336, 5337, 5346, 5345
  203152, 5005, 5006, 5015, 5014, 5338, 5339, 5348, 5347
  203153, 5006, 5007, 5016, 5015, 5339, 5340, 5349, 5348
  203154, 5007, 5008, 5017, 5016, 5340, 5341, 5350, 5349
  203155, 5008, 5009, 5018, 5017, 5341, 5342, 5351, 5350
  203156, 5009, 5010, 5019, 5018, 5342, 5343, 5352, 5351
  203157, 5010, 5011, 5020, 5019, 5343, 5344, 5353, 5352
  203158, 5011, 5012, 5021, 5020, 5344, 5345, 5354, 5353
  203159, 5012, 5013, 5022, 5021, 5345, 5346, 5355, 5354
  203160, 5014, 5015, 5024, 5023, 5347, 5348, 5357, 5356
  203161, 5015, 5016, 5025, 5024, 5348, 5349, 5358, 5357
  203162, 5016, 5017, 5026, 5025, 5349, 5350, 5359, 5358
  203163, 5017, 5018, 5027, 5026, 5350, 5351, 5360, 5359
  203164, 5018, 5019, 5028, 5027, 5351, 5352, 5361, 5360
  203165, 5019, 5020, 5029, 5028, 5352, 5353, 5362, 5361
  203166, 5020, 5021, 5030, 5029, 5353, 5354, 5363, 5362
  203167, 5021, 5022, 5031, 5030, 5354, 5355, 5364, 5363
  203168, 5032, 5033, 5042, 5041, 5365, 5366, 5375, 5374
  203169, 5033, 5034, 5043, 5042, 5366, 5367, 5376, 5375
  203170, 5034, 5035, 5044, 5043, 5367, 5368, 5377, 5376
  203171, 5035, 5036, 5045, 5044, 5368, 5369, 5378, 5377
  203172, 5036, 5037, 5046, 5045, 5369, 5370, 5379, 5378
  203173, 5037, 5038, 5047, 5046, 5370, 5371, 5380, 5379
  203174, 5038, 5039, 5048, 5047, 5371, 5372, 5381, 5380
  203175, 5039, 5040, 5049, 5048, 5372, 5373, 5382, 5381
  203176, 5041, 5042, 5051, 5050, 5374, 5375, 5384, 5383
  203177, 5042, 5043, 5052, 5051, 5375, 5376, 5385, 5384
  203178, 5043, 5044, 5053, 5052, 5376, 5377, 5386, 5385
  203179, 5044, 5045, 5054, 5053, 5377, 5378, 5387, 5386
  203180, 5045, 5046, 5055, 5054, 5378, 5379, 5388, 5387
  203181, 5046, 5047, 5056, 5055, 5379, 5380, 5389, 5388
  203182, 5047, 5048, 5057, 5056, 5380, 5381, 5390, 5389
  203183, 5048, 5049, 5058, 5057, 5381, 5382, 5391, 5390
  203184, 5050, 5051, 5060, 5059, 5383, 5384, 5393, 5392
  203185, 5051, 5052, 5061, 5060, 5384, 5385, 5394, 5393
  203186, 5052, 5053, 5062, 5061, 5385, 5386, 5395, 5394
  203187, 5053, 5054, 5063, 5062, 5386, 5387, 5396, 5395
  203188, 5054, 5055, 5064, 5063, 5387, 5388, 5397, 5396
  203189, 5055, 5056, 5065, 5064, 5388, 5389, 5398, 5397
  203190, 5056, 5057, 5066, 5065, 5389, 5390, 5399, 5398
  203191, 5057, 5058, 5067, 5066, 5390, 5391, 5400, 5399
  203192, 5059, 5060, 5069, 5068, 5392, 5393, 5402, 5401
  203193, 5060, 5061, 5070, 5069, 5393, 5394, 5403, 5402
  203194, 5061, 5062, 5071, 5070, 5394, 5395, 5404, 5403
  203195, 5062, 5063, 5072, 5071, 5395, 5396, 5405, 5404
  203196, 5063, 5064, 5073, 5072, 5396, 5397, 5406, 5405
  203197, 5064, 5065, 5074, 5073, 5397, 5398, 5407, 5406
  203198, 5065, 5066, 5075, 5074, 5398, 5399, 5408, 5407
  203199, 5066, 5067, 5076, 5075, 5399, 5400, 5409, 5408
  203200, 5068, 5069, 5078, 5077, 5401, 5402, 5411, 5410
  203201, 5069, 5070, 5079, 5078, 5402, 5403, 5412, 5411
  203202, 5070, 5071, 5080, 5079, 5403, 5404, 5413, 5412
  203203, 5071, 5072, 5081, 5080, 5404, 5405, 5414, 5413
  203204, 5072, 5073, 5082, 5081, 5405, 5406, 5415, 5414
  203205, 5073, 5074, 5083, 5082, 5406, 5407, 5416, 5415
  203206, 5074, 5075, 5084, 5083, 5407, 5408, 5417, 5416
  203207, 5075, 5076, 5085, 5084, 5408, 5409, 5418, 5417
  203208, 5077, 5078, 5087, 5086, 5410, 5411, 5420, 5419
  203209, 5078, 5079, 5088, 5087, 5411, 5412, 5421, 5420
  203210, 5079, 5080, 5089, 5088, 5412, 5413, 5422, 5421
  203211, 5080, 5081, 5090, 5089, 5413, 5414, 5423, 5422
  203212, 5081, 5082, 5091, 5090, 5414, 5415, 5424, 5423
  203213, 5082, 5083, 5092, 5091, 5415, 5416, 5425, 5424
  203214, 5083, 5084, 5093, 5092, 5416, 5417, 5426, 5425
  203215, 5084, 5085, 5094, 5093, 5417, 5418, 5427, 5426
  203216, 5086, 5087, 5096, 5095, 5419, 5420, 5429, 5428
  203217, 5087, 5088, 5097, 5096, 5420, 5421, 5430, 5429
  203218, 5088, 5089, 5098, 5097, 5421, 5422, 5431, 5430
  203219, 5089, 5090, 5099, 5098, 5422, 5423, 5432, 5431
  203220, 5090, 5091, 5100, 5099, 5423, 5424, 5433, 5432
  203221, 5091, 5092, 5101, 5100, 5424, 5425, 5434, 5433
  203222, 5092, 5093, 5102, 5101, 5425, 5426, 5435, 5434
  203223, 5093, 5094, 5103, 5102, 5426, 5427, 5436, 5435
  203224, 5095, 5096, 5105, 5104, 5428, 5429, 5438, 5437
  203225, 5096, 5097, 5106, 5105, 5429, 5430, 5439, 5438
  203226, 5097, 5098, 5107, 5106, 5430, 5431, 5440, 5439
  203227, 5098, 5099, 5108, 5107, 5431, 5432, 5441, 5440
  203228, 5099, 5100, 5109, 5108, 5432, 5433, 5442, 5441
  203229, 5100, 5101, 5110, 5109, 5433, 5434, 5443, 5442
  203230, 5101, 5102, 5111, 5110, 5434, 5435, 5444, 5443
  203231, 5102, 5103, 5112, 5111, 5435, 5436, 5445, 5444
  203232, 5104, 5105, 5114, 5113, 5437, 5438, 5447, 5446
  203233, 5105, 5106, 5115, 5114, 5438, 5439, 5448, 5447
  203234, 5106, 5107, 5116, 5115, 5439, 5440, 5449, 5448
  203235, 5107, 5108, 5117, 5116, 5440, 5441, 5450, 5449
  203236, 5108, 5109, 5118, 5117, 5441, 5442, 5451, 5450
  203237, 5109, 5110, 5119, 5118, 5442, 5443, 5452, 5451
  203238, 5110, 5111, 5120, 5119, 5443, 5444, 5453, 5452
  203239, 5111, 5112, 5121, 5120, 5444, 5445, 5454, 5453
  203240, 5113, 5114, 5123, 5122, 5446, 5447, 5456, 5455
  203241, 5114, 5115, 5124, 5123, 5447, 5448, 5457, 5456
  203242, 5115, 5116, 5125, 5124, 5448, 5449, 5458, 5457
  203243, 5116, 5117, 5126, 5125, 5449, 5450, 5459, 5458
  203244, 5117, 5118, 5127, 5126, 5450, 5451, 5460, 5459
  203245, 5118, 5119, 5128, 5127, 5451, 5452, 5461, 5460
  203246, 5119, 5120, 5129, 5128, 5452, 5453, 5462, 5461
  203247, 5120, 5121, 5130, 5129, 5453, 5454, 5463, 5462
  203248, 5122, 5123, 5132, 5131, 5455, 5456, 5465, 5464
  203249, 5123, 5124, 5133, 5132, 5456, 5457, 5466, 5465
  203250, 5124, 5125, 5134, 5133, 5457, 5458, 5467, 5466
  203251, 5125, 5126, 5135, 5134, 5458, 5459, 5468, 5467
  203252, 5126, 5127, 5136, 5135, 5459, 5460, 5469, 5468
  203253, 5127, 5128, 5137, 5136, 5460, 5461, 5470, 5469
  203254, 5128, 5129, 5138, 5137, 5461, 5462, 5471, 5470
  203255, 5129, 5130, 5139, 5138, 5462, 5463, 5472, 5471
  203256, 5131, 5132, 5141, 5140, 5464, 5465, 5474, 5473
  203257, 5132, 5133, 5142, 5141, 5465, 5466, 5475, 5474
  203258, 5133, 5134, 5143, 5142, 5466, 5467, 5476, 5475
  203259, 5134, 5135, 5144, 5143, 5467, 5468, 5477, 5476
  203260, 5135, 5136, 5145, 5144, 5468, 5469, 5478, 5477
  203261, 5136, 5137, 5146, 5145, 5469, 5470, 5479, 5478
  203262, 5137, 5138, 5147, 5146, 5470, 5471, 5480, 5479
  203263, 5138, 5139, 5148, 5147, 5471, 5472, 5481, 5480
  203264, 5140, 5141, 5150, 5149, 5473, 5474, 5483, 5482
  203265, 5141, 5142, 5151, 5150, 5474, 5475, 5484, 5483
  203266, 5142, 5143, 5152, 5151, 5475, 5476, 5485, 5484
  203267, 5143, 5144, 5153, 5152, 5476, 5477, 5486, 5485
  203268, 5144, 5145, 5154, 5153, 5477, 5478, 5487, 5486
  203269, 5145, 5146, 5155, 5154, 5478, 5479, 5488, 5487
  203270, 5146, 5147, 5156, 5155, 5479, 5480, 5489, 5488
  203271, 5147, 5148, 5157, 5156, 5480, 5481, 5490, 5489
  203272, 5149, 5150, 5159, 5158, 5482, 5483, 5492, 5491
  203273, 5150, 5151, 5160, 5159, 5483, 5484, 5493, 5492
  203274, 5151, 5152, 5161, 5160, 5484, 5485, 5494, 5493
  203275, 5152, 5153, 5162, 5161, 5485, 5486, 5495, 5494
  203276, 5153, 5154, 5163, 5162, 5486, 5487, 5496, 5495
  203277, 5154, 5155, 5164, 5163, 5487, 5488, 5497, 5496
  203278, 5155, 5156, 5165, 5164, 5488, 5489, 5498, 5497
  203279, 5156, 5157, 5166, 5165, 5489, 5490, 5499, 5498
  203280, 5158, 5159, 5168, 5167, 5491, 5492, 5501, 5500
  203281, 5159, 5160, 5169, 5168, 5492, 5493, 5502, 5501
  203282, 5160, 5161, 5170, 5169, 5493, 5494, 5503, 5502
  203283, 5161, 5162, 5171, 5170, 5494, 5495, 5504, 5503
  203284, 5162, 5163, 5172, 5171, 5495, 5496, 5505, 5504
  203285, 5163, 5164, 5173, 5172, 5496, 5497, 5506, 5505
  203286, 5164, 5165, 5174, 5173, 5497, 5498, 5507, 5506
  203287, 5165, 5166, 5175, 5174, 5498, 5499, 5508, 5507
  203288, 5167, 5168, 5177, 5176, 5500, 5501, 5510, 5509
  203289, 5168, 5169, 5178, 5177, 5501, 5502, 5511, 5510
  203290, 5169, 5170, 5179, 5178, 5502, 5503, 5512, 5511
  203291, 5170, 5171, 5180, 5179, 5503, 5504, 5513, 5512
  203292, 5171, 5172, 5181, 5180, 5504, 5505, 5514, 5513
  203293, 5172, 5173, 5182, 5181, 5505, 5506, 5515, 5514
  203294, 5173, 5174, 5183, 5182, 5506, 5507, 5516, 5515
  203295, 5174, 5175, 5184, 5183, 5507, 5508, 5517, 5516
  203296, 5176, 5177, 5186, 5185, 5509, 5510, 5519, 5518
  203297, 5177, 5178, 5187, 5186, 5510, 5511, 5520, 5519
  203298, 5178, 5179, 5188, 5187, 5511, 5512, 5521, 5520
  203299, 5179, 5180, 5189, 5188, 5512, 5513, 5522, 5521
  203300, 5180, 5181, 5190, 5189, 5513, 5514, 5523, 5522
  203301, 5181, 5182, 5191, 5190, 5514, 5515, 5524, 5523
  203302, 5182, 5183, 5192, 5191, 5515, 5516, 5525, 5524
  203303, 5183, 5184, 5193, 5192, 5516, 5517, 5526, 5525
  203304, 5185, 5186, 5195, 5194, 5518, 5519, 5528, 5527
  203305, 5186, 5187, 5196, 5195, 5519, 5520, 5529, 5528
  203306, 5187, 5188, 5197, 5196, 5520, 5521, 5530, 5529
  203307, 5188, 5189, 5198, 5197, 5521, 5522, 5531, 5530
  203308, 5189, 5190, 5199, 5198, 5522, 5523, 5532, 5531
  203309, 5190, 5191, 5200, 5199, 5523, 5524, 5533, 5532
  203310, 5191, 5192, 5201, 5200, 5524, 5525, 5534, 5533
  203311, 5192, 5193, 5202, 5201, 5525, 5526, 5535, 5534
  203312, 5194, 5195, 5204, 5203, 5527, 5528, 5537, 5536
  203313, 5195, 5196, 5205, 5204, 5528, 5529, 5538, 5537
  203314, 5196, 5197, 5206, 5205, 5529, 5530, 5539, 5538
  203315, 5197, 5198, 5207, 5206, 5530, 5531, 5540, 5539
  203316, 5198, 5199, 5208, 5207, 5531, 5532, 5541, 5540
  203317, 5199, 5200, 5209, 5208, 5532, 5533, 5542, 5541
  203318, 5200, 5201, 5210, 5209, 5533, 5534, 5543, 5542
  203319, 5201, 5202, 5211, 5210, 5534, 5535, 5544, 5543
  203320, 5203, 5204, 5213, 5212, 5536, 5537, 5546, 5545
  203321, 5204, 5205, 5214, 5213, 5537, 5538, 5547, 5546
  203322, 5205, 5206, 5215, 5214, 5538, 5539, 5548, 5547
  203323, 5206, 5207, 5216, 5215, 5539, 5540, 5549, 5548
  203324, 5207, 5208, 5217, 5216, 5540, 5541, 5550, 5549
  203325, 5208, 5209, 5218, 5217, 5541, 5542, 5551, 5550
  203326, 5209, 5210, 5219, 5218, 5542, 5543, 5552, 5551
  203327, 5210, 5211, 5220, 5219, 5543, 5544, 5553, 5552
  203328, 5212, 5213, 5222, 5221, 5545, 5546, 5555, 5554
  203329, 5213, 5214, 5223, 5222, 5546, 5547, 5556, 5555
  203330, 5214, 5215, 5224, 5223, 5547, 5548, 5557, 5556
  203331, 5215, 5216, 5225, 5224, 5548, 5549, 5558, 5557
  203332, 5216, 5217, 5226, 5225, 5549, 5550, 5559, 5558
  203333, 5217, 5218, 5227, 5226, 5550, 5551, 5560, 5559
  203334, 5218, 5219, 5228, 5227, 5551, 5552, 5561, 5560
  203335, 5219, 5220, 5229, 5228, 5552, 5553, 5562, 5561
  203336, 5221, 5222, 5231, 5230, 5554, 5555, 5564, 5563
  203337, 5222, 5223, 5232, 5231, 5555, 5556, 5565, 5564
  203338, 5223, 5224, 5233, 5232, 5556, 5557, 5566, 5565
  203339, 5224, 5225, 5234, 5233, 5557, 5558, 5567, 5566
  203340, 5225, 5226, 5235, 5234, 5558, 5559, 5568, 5567
  203341, 5226, 5227, 5236, 5235, 5559, 5560, 5569, 5568
  203342, 5227, 5228, 5237, 5236, 5560, 5561, 5570, 5569
  203343, 5228, 5229, 5238, 5237, 5561, 5562, 5571, 5570
  203344, 5230, 5231, 5240, 5239, 5563, 5564, 5573, 5572
  203345, 5231, 5232, 5241, 5240, 5564, 5565, 5574, 5573
  203346, 5232, 5233, 5242, 5241, 5565, 5566, 5575, 5574
  203347, 5233, 5234, 5243, 5242, 5566, 5567, 5576, 5575
  203348, 5234, 5235, 5244, 5243, 5567, 5568, 5577, 5576
  203349, 5235, 5236, 5245, 5244, 5568, 5569, 5578, 5577
  203350, 5236, 5237, 5246, 5245, 5569, 5570, 5579, 5578
  203351, 5237, 5238, 5247, 5246, 5570, 5571, 5580, 5579
  203352, 5239, 5240, 5249, 5248, 5572, 5573, 5582, 5581
  203353, 5240, 5241, 5250, 5249, 5573, 5574, 5583, 5582
  203354, 5241, 5242, 5251, 5250, 5574, 5575, 5584, 5583
  203355, 5242, 5243, 5252, 5251, 5575, 5576, 5585, 5584
  203356, 5243, 5244, 5253, 5252, 5576, 5577, 5586, 5585
  203357, 5244, 5245, 5254, 5253, 5577, 5578, 5587, 5586
  203358, 5245, 5246, 5255, 5254, 5578, 5579, 5588, 5587
  203359, 5246, 5247, 5256, 5255, 5579, 5580, 5589, 5588
  203360, 5248, 5249, 5258, 5257, 5581, 5582, 5591, 5590
  203361, 5249, 5250, 5259, 5258, 5582, 5583, 5592, 5591
  203362, 5250, 5251, 5260, 5259, 5583, 5584, 5593, 5592
  203363, 5251, 5252, 5261, 5260, 5584, 5585, 5594, 5593
  203364, 5252, 5253, 5262, 5261, 5585, 5586, 5595, 5594
  203365, 5253, 5254, 5263, 5262, 5586, 5587, 5596, 5595
  203366, 5254, 5255, 5264, 5263, 5587, 5588, 5597, 5596
  203367, 5255, 5256, 5265, 5264, 5588, 5589, 5598, 5597
  203368, 5257, 5258, 5267, 5266, 5590, 5591, 5600, 5599
  203369, 5258, 5259, 5268, 5267, 5591, 5592, 5601, 5600
  203370, 5259, 5260, 5269, 5268, 5592, 5593, 5602, 5601
  203371, 5260, 5261, 5270, 5269, 5593, 5594, 5603, 5602
  203372, 5261, 5262, 5271, 5270, 5594, 5595, 5604, 5603
  203373, 5262, 5263, 5272, 5271, 5595, 5596, 5605, 5604
  203374, 5263, 5264, 5273, 5272, 5596, 5597, 5606, 5605
  203375, 5264, 5265, 5274, 5273, 5597, 5598, 5607, 5606
  203376, 5266, 5267, 5276, 5275, 5599, 5600, 5609, 5608
  203377, 5267, 5268, 5277, 5276, 5600, 5601, 5610, 5609
  203378, 5268, 5269, 5278, 5277, 5601, 5602, 5611, 5610
  203379, 5269, 5270, 5279, 5278, 5602, 5603, 5612, 5611
  203380, 5270, 5271, 5280, 5279, 5603, 5604, 5613, 5612
  203381, 5271, 5272, 5281, 5280, 5604, 5605, 5614, 5613
  203382, 5272, 5273, 5282, 5281, 5605, 5606, 5615, 5614
  203383, 5273, 5274, 5283, 5282, 5606, 5607, 5616, 5615
  203384, 5275, 5276, 5285, 5284, 5608, 5609, 5618, 5617
  203385, 5276, 5277, 5286, 5285, 5609, 5610, 5619, 5618
  203386, 5277, 5278, 5287, 5286, 5610, 5611, 5620, 5619
  203387, 5278, 5279, 5288, 5287, 5611, 5612, 5621, 5620
  203388, 5279, 5280, 5289, 5288, 5612, 5613, 5622, 5621
  203389, 5280, 5281, 5290, 5289, 5613, 5614, 5623, 5622
  203390, 5281, 5282, 5291, 5290, 5614, 5615, 5624, 5623
  203391, 5282, 5283, 5292, 5291, 5615, 5616, 5625, 5624
  203392, 5284, 5285, 5294, 5293, 5617, 5618, 5627, 5626
  203393, 5285, 5286, 5295, 5294, 5618, 5619, 5628, 5627
  203394, 5286, 5287, 5296, 5295, 5619, 5620, 5629, 5628
  203395, 5287, 5288, 5297, 5296, 5620, 5621, 5630, 5629
  203396, 5288, 5289, 5298, 5297, 5621, 5622, 5631, 5630
  203397, 5289, 5290, 5299, 5298, 5622, 5623, 5632, 5631
  203398, 5290, 5291, 5300, 5299, 5623, 5624, 5633, 5632
  203399, 5291, 5292, 5301, 5300, 5624, 5625, 5634, 5633
  203400, 5293, 5294, 5303, 5302, 5626, 5627, 5636, 5635
  203401, 5294, 5295, 5304, 5303, 5627, 5628, 5637, 5636
  203402, 5295, 5296, 5305, 5304, 5628, 5629, 5638, 5637
  203403, 5296, 5297, 5306, 5305, 5629, 5630, 5639, 5638
  203404, 5297, 5298, 5307, 5306, 5630, 5631, 5640, 5639
  203405, 5298, 5299, 5308, 5307, 5631, 5632, 5641, 5640
  203406, 5299, 5300, 5309, 5308, 5632, 5633, 5642, 5641
  203407, 5300, 5301, 5310, 5309, 5633, 5634, 5643, 5642
  203408, 5302, 5303, 5312, 5311, 5635, 5636, 5645, 5644
  203409, 5303, 5304, 5313, 5312, 5636, 5637, 5646, 5645
  203410, 5304, 5305, 5314, 5313, 5637, 5638, 5647, 5646
  203411, 5305, 5306, 5315, 5314, 5638, 5639, 5648, 5647
  203412, 5306, 5307, 5316, 5315, 5639, 5640, 5649, 5648
  203413, 5307, 5308, 5317, 5316, 5640, 5641, 5650, 5649
  203414, 5308, 5309, 5318, 5317, 5641, 5642, 5651, 5650
  203415, 5309, 5310, 5319, 5318, 5642, 5643, 5652, 5651
  203416, 5311, 5312, 5321, 5320, 5644, 5645, 5654, 5653
  203417, 5312, 5313, 5322, 5321, 5645, 5646, 5655, 5654
  203418, 5313, 5314, 5323, 5322, 5646, 5647, 5656, 5655
  203419, 5314, 5315, 5324, 5323, 5647, 5648, 5657, 5656
  203420, 5315, 5316, 5325, 5324, 5648, 5649, 5658, 5657
  203421, 5316, 5317, 5326, 5325, 5649, 5650, 5659, 5658
  203422, 5317, 5318, 5327, 5326, 5650, 5651, 5660, 5659
  203423, 5318, 5319, 5328, 5327, 5651, 5652, 5661, 5660
  203424, 5320, 5321, 5330, 5329, 5653, 5654, 5663, 5662
  203425, 5321, 5322, 5331, 5330, 5654, 5655, 5664, 5663
  203426, 5322, 5323, 5332, 5331, 5655, 5656, 5665, 5664
  203427, 5323, 5324, 5333, 5332, 5656, 5657, 5666, 5665
  203428, 5324, 5325, 5334, 5333, 5657, 5658, 5667, 5666
  203429, 5325, 5326, 5335, 5334, 5658, 5659, 5668, 5667
  203430, 5326, 5327, 5336, 5335, 5659, 5660, 5669, 5668
  203431, 5327, 5328, 5337, 5336, 5660, 5661, 5670, 5669
  203432, 5329, 5330, 5339, 5338, 5662, 5663, 5672, 5671
  203433, 5330, 5331, 5340, 5339, 5663, 5664, 5673, 5672
  203434, 5331, 5332, 5341, 5340, 5664, 5665, 5674, 5673
  203435, 5332, 5333, 5342, 5341, 5665, 5666, 5675, 5674
  203436, 5333, 5334, 5343, 5342, 5666, 5667, 5676, 5675
  203437, 5334, 5335, 5344, 5343, 5667, 5668, 5677, 5676
  203438, 5335, 5336, 5345, 5344, 5668, 5669, 5678, 5677
  203439, 5336, 5337, 5346, 5345, 5669, 5670, 5679, 5678
  203440, 5338, 5339, 5348, 5347, 5671, 5672, 5681, 5680
  203441, 5339, 5340, 5349, 5348, 5672, 5673, 5682, 5681
  203442, 5340, 5341, 5350, 5349, 5673, 5674, 5683, 5682
  203443, 5341, 5342, 5351, 5350, 5674, 5675, 5684, 5683
  203444, 5342, 5343, 5352, 5351, 5675, 5676, 5685, 5684
  203445, 5343, 5344, 5353, 5352, 5676, 5677, 5686, 5685
  203446, 5344, 5345, 5354, 5353, 5677, 5678, 5687, 5686
  203447, 5345, 5346, 5355, 5354, 5678, 5679, 5688, 5687
  203448, 5347, 5348, 5357, 5356, 5680, 5681, 5690, 5689
  203449, 5348, 5349, 5358, 5357, 5681, 5682, 5691, 5690
  203450, 5349, 5350, 5359, 5358, 5682, 5683, 5692, 5691
  203451, 5350, 5351, 5360, 5359, 5683, 5684, 5693, 5692
  203452, 5351, 5352, 5361, 5360, 5684, 5685, 5694, 5693
  203453, 5352, 5353, 5362, 5361, 5685, 5686, 5695, 5694
  203454, 5353, 5354, 5363, 5362, 5686, 5687, 5696, 5695
  203455, 5354, 5355, 5364, 5363, 5687, 5688, 5697, 5696
  203456, 5365, 5366, 5375, 5374, 5698, 5699, 5708, 5707
  203457, 5366, 5367, 5376, 5375, 5699, 5700, 5709, 5708
  203458, 5367, 5368, 5377, 5376, 5700, 5701, 5710, 5709
  203459, 5368, 5369, 5378, 5377, 5701, 5702, 5711, 5710
  203460, 5369, 5370, 5379, 5378, 5702, 5703, 5712, 5711
  203461, 5370, 5371, 5380, 5379, 5703, 5704, 5713, 5712
  203462, 5371, 5372, 5381, 5380, 5704, 5705, 5714, 5713
  203463, 5372, 5373, 5382, 5381, 5705, 5706, 5715, 5714
  203464, 5374, 5375, 5384, 5383, 5707, 5708, 5717, 5716
  203465, 5375, 5376, 5385, 5384, 5708, 5709, 5718, 5717
  203466, 5376, 5377, 5386, 5385, 5709, 5710, 5719, 5718
  203467, 5377, 5378, 5387, 5386, 5710, 5711, 5720, 5719
  203468, 5378, 5379, 5388, 5387, 5711, 5712, 5721, 5720
  203469, 5379, 5380, 5389, 5388, 5712, 5713, 5722, 5721
  203470, 5380, 5381, 5390, 5389, 5713, 5714, 5723, 5722
  203471, 5381, 5382, 5391, 5390, 5714, 5715, 5724, 5723
  203472, 5383, 5384, 5393, 5392, 5716, 5717, 5726, 5725
  203473, 5384, 5385, 5394, 5393, 5717, 5718, 5727, 5726
  203474, 5385, 5386, 5395, 5394, 5718, 5719, 5728, 5727
  203475, 5386, 5387, 5396, 5395, 5719, 5720, 5729, 5728
  203476, 5387, 5388, 5397, 5396, 5720, 5721, 5730, 5729
  203477, 5388, 5389, 5398, 5397, 5721, 5722, 5731, 5730
  203478, 5389, 5390, 5399, 5398, 5722, 5723, 5732, 5731
  203479, 5390, 5391, 5400, 5399, 5723, 5724, 5733, 5732
  203480, 5392, 5393, 5402, 5401, 5725, 5726, 5735, 5734
  203481, 5393, 5394, 5403, 5402, 5726, 5727, 5736, 5735
  203482, 5394, 5395, 5404, 5403, 5727, 5728, 5737, 5736
  203483, 5395, 5396, 5405, 5404, 5728, 5729, 5738, 5737
  203484, 5396, 5397, 5406, 5405, 5729, 5730, 5739, 5738
  203485, 5397, 5398, 5407, 5406, 5730, 5731, 5740, 5739
  203486, 5398, 5399, 5408, 5407, 5731, 5732, 5741, 5740
  203487, 5399, 5400, 5409, 5408, 5732, 5733, 5742, 5741
  203488, 5401, 5402, 5411, 5410, 5734, 5735, 5744, 5743
  203489, 5402, 5403, 5412, 5411, 5735, 5736, 5745, 5744
  203490, 5403, 5404, 5413, 5412, 5736, 5737, 5746, 5745
  203491, 5404, 5405, 5414, 5413, 5737, 5738, 5747, 5746
  203492, 5405, 5406, 5415, 5414, 5738, 5739, 5748, 5747
  203493, 5406, 5407, 5416, 5415, 5739, 5740, 5749, 5748
  203494, 5407, 5408, 5417, 5416, 5740, 5741, 5750, 5749
  203495, 5408, 5409, 5418, 5417, 5741, 5742, 5751, 5750
  203496, 5410, 5411, 5420, 5419, 5743, 5744, 5753, 5752
  203497, 5411, 5412, 5421, 5420, 5744, 5745, 5754, 5753
  203498, 5412, 5413, 5422, 5421, 5745, 5746, 5755, 5754
  203499, 5413, 5414, 5423, 5422, 5746, 5747, 5756, 5755
  203500, 5414, 5415, 5424, 5423, 5747, 5748, 5757, 5756
  203501, 5415, 5416, 5425, 5424, 5748, 5749, 5758, 5757
  203502, 5416, 5417, 5426, 5425, 5749, 5750, 5759, 5758
  203503, 5417, 5418, 5427, 5426, 5750, 5751, 5760, 5759
  203504, 5419, 5420, 5429, 5428, 5752, 5753, 5762, 5761
  203505, 5420, 5421, 5430, 5429, 5753, 5754, 5763, 5762
  203506, 5421, 5422, 5431, 5430, 5754, 5755, 5764, 5763
  203507, 5422, 5423, 5432, 5431, 5755, 5756, 5765, 5764
  203508, 5423, 5424, 5433, 5432, 5756, 5757, 5766, 5765
  203509, 5424, 5425, 5434, 5433, 5757, 5758, 5767, 5766
  203510, 5425, 5426, 5435, 5434, 5758, 5759, 5768, 5767
  203511, 5426, 5427, 5436, 5435, 5759, 5760, 5769, 5768
  203512, 5428, 5429, 5438, 5437, 5761, 5762, 5771, 5770
  203513, 5429, 5430, 5439, 5438, 5762, 5763, 5772, 5771
  203514, 5430, 5431, 5440, 5439, 5763, 5764, 5773, 5772
  203515, 5431, 5432, 5441, 5440, 5764, 5765, 5774, 5773
  203516, 5432, 5433, 5442, 5441, 5765, 5766, 5775, 5774
  203517, 5433, 5434, 5443, 5442, 5766, 5767, 5776, 5775
  203518, 5434, 5435, 5444, 5443, 5767, 5768, 5777, 5776
  203519, 5435, 5436, 5445, 5444, 5768, 5769, 5778, 5777
  203520, 5437, 5438, 5447, 5446, 5770, 5771, 5780, 5779
  203521, 5438, 5439, 5448, 5447, 5771, 5772, 5781, 5780
  203522, 5439, 5440, 5449, 5448, 5772, 5773, 5782, 5781
  203523, 5440, 5441, 5450, 5449, 5773, 5774, 5783, 5782
  203524, 5441, 5442, 5451, 5450, 5774, 5775, 5784, 5783
  203525, 5442, 5443, 5452, 5451, 5775, 5776, 5785, 5784
  203526, 5443, 5444, 5453, 5452, 5776, 5777, 5786, 5785
  203527, 5444, 5445, 5454, 5453, 5777, 5778, 5787, 5786
  203528, 5446, 5447, 5456, 5455, 5779, 5780, 5789, 5788
  203529, 5447, 5448, 5457, 5456, 5780, 5781, 5790, 5789
  203530, 5448, 5449, 5458, 5457, 5781, 5782, 5791, 5790
  203531, 5449, 5450, 5459, 5458, 5782, 5783, 5792, 5791
  203532, 5450, 5451, 5460, 5459, 5783, 5784, 5793, 5792
  203533, 5451, 5452, 5461, 5460, 5784, 5785, 5794, 5793
  203534, 5452, 5453, 5462, 5461, 5785, 5786, 5795, 5794
  203535, 5453, 5454, 5463, 5462, 5786, 5787, 5796, 5795
  203536, 5455, 5456, 5465, 5464, 5788, 5789, 5798, 5797
  203537, 5456, 5457, 5466, 5465, 5789, 5790, 5799, 5798
  203538, 5457, 5458, 5467, 5466, 5790, 5791, 5800, 5799
  203539, 5458, 5459, 5468, 5467, 5791, 5792, 5801, 5800
  203540, 5459, 5460, 5469, 5468, 5792, 5793, 5802, 5801
  203541, 5460, 5461, 5470, 5469, 5793, 5794, 5803, 5802
  203542, 5461, 5462, 5471, 5470, 5794, 5795, 5804, 5803
  203543, 5462, 5463, 5472, 5471, 5795, 5796, 5805, 5804
  203544, 5464, 5465, 5474, 5473, 5797, 5798, 5807, 5806
  203545, 5465, 5466, 5475, 5474, 5798, 5799, 5808, 5807
  203546, 5466, 5467, 5476, 5475, 5799, 5800, 5809, 5808
  203547, 5467, 5468, 5477, 5476, 5800, 5801, 5810, 5809
  203548, 5468, 5469, 5478, 5477, 5801, 5802, 5811, 5810
  203549, 5469, 5470, 5479, 5478, 5802, 5803, 5812, 5811
  203550, 5470, 5471, 5480, 5479, 5803, 5804, 5813, 5812
  203551, 5471, 5472, 5481, 5480, 5804, 5805, 5814, 5813
  203552, 5473, 5474, 5483, 5482, 5806, 5807, 5816, 5815
  203553, 5474, 5475, 5484, 5483, 5807, 5808, 5817, 5816
  203554, 5475, 5476, 5485, 5484, 5808, 5809, 5818, 5817
  203555, 5476, 5477, 5486, 5485, 5809, 5810, 5819, 5818
  203556, 5477, 5478, 5487, 5486, 5810, 5811, 5820, 5819
  203557, 5478, 5479, 5488, 5487, 5811, 5812, 5821, 5820
  203558, 5479, 5480, 5489, 5488, 5812, 5813, 5822, 5821
  203559, 5480, 5481, 5490, 5489, 5813, 5814, 5823, 5822
  203560, 5482, 5483, 5492, 5491, 5815, 5816, 5825, 5824
  203561, 5483, 5484, 5493, 5492, 5816, 5817, 5826, 5825
  203562, 5484, 5485, 5494, 5493, 5817, 5818, 5827, 5826
  203563, 5485, 5486, 5495, 5494, 5818, 5819, 5828, 5827
  203564, 5486, 5487, 5496, 5495, 5819, 5820, 5829, 5828
  203565, 5487, 5488, 5497, 5496, 5820, 5821, 5830, 5829
  203566, 5488, 5489, 5498, 5497, 5821, 5822, 5831, 5830
  203567, 5489, 5490, 5499, 5498, 5822, 5823, 5832, 5831
  203568, 5491, 5492, 5501, 5500, 5824, 5825, 5834, 5833
  203569, 5492, 5493, 5502, 5501, 5825, 5826, 5835, 5834
  203570, 5493, 5494, 5503, 5502, 5826, 5827, 5836, 5835
  203571, 5494, 5495, 5504, 5503, 5827, 5828, 5837, 5836
  203572, 5495, 5496, 5505, 5504, 5828, 5829, 5838, 5837
  203573, 5496, 5497, 5506, 5505, 5829, 5830, 5839, 5838
  203574, 5497, 5498, 5507, 5506, 5830, 5831, 5840, 5839
  203575, 5498, 5499, 5508, 5507, 5831, 5832, 5841, 5840
  203576, 5500, 5501, 5510, 5509, 5833, 5834, 5843, 5842
  203577, 5501, 5502, 5511, 5510, 5834, 5835, 5844, 5843
  203578, 5502, 5503, 5512, 5511, 5835, 5836, 5845, 5844
  203579, 5503, 5504, 5513, 5512, 5836, 5837, 5846, 5845
  203580, 5504, 5505, 5514, 5513, 5837, 5838, 5847, 5846
  203581, 5505, 5506, 5515, 5514, 5838, 5839, 5848, 5847
  203582, 5506, 5507, 5516, 5515, 5839, 5840, 5849, 5848
  203583, 5507, 5508, 5517, 5516, 5840, 5841, 5850, 5849
  203584, 5509, 5510, 5519, 5518, 5842, 5843, 5852, 5851
  203585, 5510, 5511, 5520, 5519, 5843, 5844, 5853, 5852
  203586, 5511, 5512, 5521, 5520, 5844, 5845, 5854, 5853
  203587, 5512, 5513, 5522, 5521, 5845, 5846, 5855, 5854
  203588, 5513, 5514, 5523, 5522, 5846, 5847, 5856, 5855
  203589, 5514, 5515, 5524, 5523, 5847, 5848, 5857, 5856
  203590, 5515, 5516, 5525, 5524, 5848, 5849, 5858, 5857
  203591, 5516, 5517, 5526, 5525, 5849, 5850, 5859, 5858
  203592, 5518, 5519, 5528, 5527, 5851, 5852, 5861, 5860
  203593, 5519, 5520, 5529, 5528, 5852, 5853, 5862, 5861
  203594, 5520, 5521, 5530, 5529, 5853, 5854, 5863, 5862
  203595, 5521, 5522, 5531, 5530, 5854, 5855, 5864, 5863
  203596, 5522, 5523, 5532, 5531, 5855, 5856, 5865, 5864
  203597, 5523, 5524, 5533, 5532, 5856, 5857, 5866, 5865
  203598, 5524, 5525, 5534, 5533, 5857, 5858, 5867, 5866
  203599, 5525, 5526, 5535, 5534, 5858, 5859, 5868, 5867
  203600, 5527, 5528, 5537, 5536, 5860, 5861, 5870, 5869
  203601, 5528, 5529, 5538, 5537, 5861, 5862, 5871, 5870
  203602, 5529, 5530, 5539, 5538, 5862, 5863, 5872, 5871
  203603, 5530, 5531, 5540, 5539, 5863, 5864, 5873, 5872
  203604, 5531, 5532, 5541, 5540, 5864, 5865, 5874, 5873
  203605, 5532, 5533, 5542, 5541, 5865, 5866, 5875, 5874
  203606, 5533, 5534, 5543, 5542, 5866, 5867, 5876, 5875
  203607, 5534, 5535, 5544, 5543, 5867, 5868, 5877, 5876
  203608, 5536, 5537, 5546, 5545, 5869, 5870, 5879, 5878
  203609, 5537, 5538, 5547, 5546, 5870, 5871, 5880, 5879
  203610, 5538, 5539, 5548, 5547, 5871, 5872, 5881, 5880
  203611, 5539, 5540, 5549, 5548, 5872, 5873, 5882, 5881
  203612, 5540, 5541, 5550, 5549, 5873, 5874, 5883, 5882
  203613, 5541, 5542, 5551, 5550, 5874, 5875, 5884, 5883
  203614, 5542, 5543, 5552, 5551, 5875, 5876, 5885, 5884
  203615, 5543, 5544, 5553, 5552, 5876, 5877, 5886, 5885
  203616, 5545, 5546, 5555, 5554, 5878, 5879, 5888, 5887
  203617, 5546, 5547, 5556, 5555, 5879, 5880, 5889, 5888
  203618, 5547, 5548, 5557, 5556, 5880, 5881, 5890, 5889
  203619, 5548, 5549, 5558, 5557, 5881, 5882, 5891, 5890
  203620, 5549, 5550, 5559, 5558, 5882, 5883, 5892, 5891
  203621, 5550, 5551, 5560, 5559, 5883, 5884, 5893, 5892
  203622, 5551, 5552, 5561, 5560, 5884, 5885, 5894, 5893
  203623, 5552, 5553, 5562, 5561, 5885, 5886, 5895, 5894
  203624, 5554, 5555, 5564, 5563, 5887, 5888, 5897, 5896
  203625, 5555, 5556, 5565, 5564, 5888, 5889, 5898, 5897
  203626, 5556, 5557, 5566, 5565, 5889, 5890, 5899, 5898
  203627, 5557, 5558, 5567, 5566, 5890, 5891, 5900, 5899
  203628, 5558, 5559, 5568, 5567, 5891, 5892, 5901, 5900
  203629, 5559, 5560, 5569, 5568, 5892, 5893, 5902, 5901
  203630, 5560, 5561, 5570, 5569, 5893, 5894, 5903, 5902
  203631, 5561, 5562, 5571, 5570, 5894, 5895, 5904, 5903
  203632, 5563, 5564, 5573, 5572, 5896, 5897, 5906, 5905
  203633, 5564, 5565, 5574, 5573, 5897, 5898, 5907, 5906
  203634, 5565, 5566, 5575, 5574, 5898, 5899, 5908, 5907
  203635, 5566, 5567, 5576, 5575, 5899, 5900, 5909, 5908
  203636, 5567, 5568, 5577, 5576, 5900, 5901, 5910, 5909
  203637, 5568, 5569, 5578, 5577, 5901, 5902, 5911, 5910
  203638, 5569, 5570, 5579, 5578, 5902, 5903, 5912, 5911
  203639, 5570, 5571, 5580, 5579, 5903, 5904, 5913, 5912
  203640, 5572, 5573, 5582, 5581, 5905, 5906, 5915, 5914
  203641, 5573, 5574, 5583, 5582, 5906, 5907, 5916, 5915
  203642, 5574, 5575, 5584, 5583, 5907, 5908, 5917, 5916
  203643, 5575, 5576, 5585, 5584, 5908, 5909, 5918, 5917
  203644, 5576, 5577, 5586, 5585, 5909, 5910, 5919, 5918
  203645, 5577, 5578, 5587, 5586, 5910, 5911, 5920, 5919
  203646, 5578, 5579, 5588, 5587, 5911, 5912, 5921, 5920
  203647, 5579, 5580, 5589, 5588, 5912, 5913, 5922, 5921
  203648, 5581, 5582, 5591, 5590, 5914, 5915, 5924, 5923
  203649, 5582, 5583, 5592, 5591, 5915, 5916, 5925, 5924
  203650, 5583, 5584, 5593, 5592, 5916, 5917, 5926, 5925
  203651, 5584, 5585, 5594, 5593, 5917, 5918, 5927, 5926
  203652, 5585, 5586, 5595, 5594, 5918, 5919, 5928, 5927
  203653, 5586, 5587, 5596, 5595, 5919, 5920, 5929, 5928
  203654, 5587, 5588, 5597, 5596, 5920, 5921, 5930, 5929
  203655, 5588, 5589, 5598, 5597, 5921, 5922, 5931, 5930
  203656, 5590, 5591, 5600, 5599, 5923, 5924, 5933, 5932
  203657, 5591, 5592, 5601, 5600, 5924, 5925, 5934, 5933
  203658, 5592, 5593, 5602, 5601, 5925, 5926, 5935, 5934
  203659, 5593, 5594, 5603, 5602, 5926, 5927, 5936, 5935
  203660, 5594, 5595, 5604, 5603, 5927, 5928, 5937, 5936
  203661, 5595, 5596, 5605, 5604, 5928, 5929, 5938, 5937
  203662, 5596, 5597, 5606, 5605, 5929, 5930, 5939, 5938
  203663, 5597, 5598, 5607, 5606, 5930, 5931, 5940, 5939
  203664, 5599, 5600, 5609, 5608, 5932, 5933, 5942, 5941
  203665, 5600, 5601, 5610, 5609, 5933, 5934, 5943, 5942
  203666, 5601, 5602, 5611, 5610, 5934, 5935, 5944, 5943
  203667, 5602, 5603, 5612, 5611, 5935, 5936, 5945, 5944
  203668, 5603, 5604, 5613, 5612, 5936, 5937, 5946, 5945
  203669, 5604, 5605, 5614, 5613, 5937, 5938, 5947, 5946
  203670, 5605, 5606, 5615, 5614, 5938, 5939, 5948, 5947
  203671, 5606, 5607, 5616, 5615, 5939, 5940, 5949, 5948
  203672, 5608, 5609, 5618, 5617, 5941, 5942, 5951, 5950
  203673, 5609, 5610, 5619, 5618, 5942, 5943, 5952, 5951
  203674, 5610, 5611, 5620, 5619, 5943, 5944, 5953, 5952
  203675, 5611, 5612, 5621, 5620, 5944, 5945, 5954, 5953
  203676, 5612, 5613, 5622, 5621, 5945, 5946, 5955, 5954
  203677, 5613, 5614, 5623, 5622, 5946, 5947, 5956, 5955
  203678, 5614, 5615, 5624, 5623, 5947, 5948, 5957, 5956
  203679, 5615, 5616, 5625, 5624, 5948, 5949, 5958, 5957
  203680, 5617, 5618, 5627, 5626, 5950, 5951, 5960, 5959
  203681, 5618, 5619, 5628, 5627, 5951, 5952, 5961, 5960
  203682, 5619, 5620, 5629, 5628, 5952, 5953, 5962, 5961
  203683, 5620, 5621, 5630, 5629, 5953, 5954, 5963, 5962
  203684, 5621, 5622, 5631, 5630, 5954, 5955, 5964, 5963
  203685, 5622, 5623, 5632, 5631, 5955, 5956, 5965, 5964
  203686, 5623, 5624, 5633, 5632, 5956, 5957, 5966, 5965
  203687, 5624, 5625, 5634, 5633, 5957, 5958, 5967, 5966
  203688, 5626, 5627, 5636, 5635, 5959, 5960, 5969, 5968
  203689, 5627, 5628, 5637, 5636, 5960, 5961, 5970, 5969
  203690, 5628, 5629, 5638, 5637, 5961, 5962, 5971, 5970
  203691, 5629, 5630, 5639, 5638, 5962, 5963, 5972, 5971
  203692, 5630, 5631, 5640, 5639, 5963, 5964, 5973, 5972
  203693, 5631, 5632, 5641, 5640, 5964, 5965, 5974, 5973
  203694, 5632, 5633, 5642, 5641, 5965, 5966, 5975, 5974
  203695, 5633, 5634, 5643, 5642, 5966, 5967, 5976, 5975
  203696, 5635, 5636, 5645, 5644, 5968, 5969, 5978, 5977
  203697, 5636, 5637, 5646, 5645, 5969, 5970, 5979, 5978
  203698, 5637, 5638, 5647, 5646, 5970, 5971, 5980, 5979
  203699, 5638, 5639, 5648, 5647, 5971, 5972, 5981, 5980
  203700, 5639, 5640, 5649, 5648, 5972, 5973, 5982, 5981
  203701, 5640, 5641, 5650, 5649, 5973, 5974, 5983, 5982
  203702, 5641, 5642, 5651, 5650, 5974, 5975, 5984, 5983
  203703, 5642, 5643, 5652, 5651, 5975, 5976, 5985, 5984
  203704, 5644, 5645, 5654, 5653, 5977, 5978, 5987, 5986
  203705, 5645, 5646, 5655, 5654, 5978, 5979, 5988, 5987
  203706, 5646, 5647, 5656, 5655, 5979, 5980, 5989, 5988
  203707, 5647, 5648, 5657, 5656, 5980, 5981, 5990, 5989
  203708, 5648, 5649, 5658, 5657, 5981, 5982, 5991, 5990
  203709, 5649, 5650, 5659, 5658, 5982, 5983, 5992, 5991
  203710, 5650, 5651, 5660, 5659, 5983, 5984, 5993, 5992
  203711, 5651, 5652, 5661, 5660, 5984, 5985, 5994, 5993
  203712, 5653, 5654, 5663, 5662, 5986, 5987, 5996, 5995
  203713, 5654, 5655, 5664, 5663, 5987, 5988, 5997, 5996
  203714, 5655, 5656, 5665, 5664, 5988, 5989, 5998, 5997
  203715, 5656, 5657, 5666, 5665, 5989, 5990, 5999, 5998
  203716, 5657, 5658, 5667, 5666, 5990, 5991, 6000, 5999
  203717, 5658, 5659, 5668, 5667, 5991, 5992, 6001, 6000
  203718, 5659, 5660, 5669, 5668, 5992, 5993, 6002, 6001
  203719, 5660, 5661, 5670, 5669, 5993, 5994, 6003, 6002
  203720, 5662, 5663, 5672, 5671, 5995, 5996, 6005, 6004
  203721, 5663, 5664, 5673, 5672, 5996, 5997, 6006, 6005
  203722, 5664, 5665, 5674, 5673, 5997, 5998, 6007, 6006
  203723, 5665, 5666, 5675, 5674, 5998, 5999, 6008, 6007
  203724, 5666, 5667, 5676, 5675, 5999, 6000, 6009, 6008
  203725, 5667, 5668, 5677, 5676, 6000, 6001, 6010, 6009
  203726, 5668, 5669, 5678, 5677, 6001, 6002, 6011, 6010
  203727, 5669, 5670, 5679, 5678, 6002, 6003, 6012, 6011
  203728, 5671, 5672, 5681, 5680, 6004, 6005, 6014, 6013
  203729, 5672, 5673, 5682, 5681, 6005, 6006, 6015, 6014
  203730, 5673, 5674, 5683, 5682, 6006, 6007, 6016, 6015
  203731, 5674, 5675, 5684, 5683, 6007, 6008, 6017, 6016
  203732, 5675, 5676, 5685, 5684, 6008, 6009, 6018, 6017
  203733, 5676, 5677, 5686, 5685, 6009, 6010, 6019, 6018
  203734, 5677, 5678, 5687, 5686, 6010, 6011, 6020, 6019
  203735, 5678, 5679, 5688, 5687, 6011, 6012, 6021, 6020
  203736, 5680, 5681, 5690, 5689, 6013, 6014, 6023, 6022
  203737, 5681, 5682, 5691, 5690, 6014, 6015, 6024, 6023
  203738, 5682, 5683, 5692, 5691, 6015, 6016, 6025, 6024
  203739, 5683, 5684, 5693, 5692, 6016, 6017, 6026, 6025
  203740, 5684, 5685, 5694, 5693, 6017, 6018, 6027, 6026
  203741, 5685, 5686, 5695, 5694, 6018, 6019, 6028, 6027
  203742, 5686, 5687, 5696, 5695, 6019, 6020, 6029, 6028
  203743, 5687, 5688, 5697, 5696, 6020, 6021, 6030, 6029
  203744, 5698, 5699, 5708, 5707, 6031, 6032, 6041, 6040
  203745, 5699, 5700, 5709, 5708, 6032, 6033, 6042, 6041
  203746, 5700, 5701, 5710, 5709, 6033, 6034, 6043, 6042
  203747, 5701, 5702, 5711, 5710, 6034, 6035, 6044, 6043
  203748, 5702, 5703, 5712, 5711, 6035, 6036, 6045, 6044
  203749, 5703, 5704, 5713, 5712, 6036, 6037, 6046, 6045
  203750, 5704, 5705, 5714, 5713, 6037, 6038, 6047, 6046
  203751, 5705, 5706, 5715, 5714, 6038, 6039, 6048, 6047
  203752, 5707, 5708, 5717, 5716, 6040, 6041, 6050, 6049
  203753, 5708, 5709, 5718, 5717, 6041, 6042, 6051, 6050
  203754, 5709, 5710, 5719, 5718, 6042, 6043, 6052, 6051
  203755, 5710, 5711, 5720, 5719, 6043, 6044, 6053, 6052
  203756, 5711, 5712, 5721, 5720, 6044, 6045, 6054, 6053
  203757, 5712, 5713, 5722, 5721, 6045, 6046, 6055, 6054
  203758, 5713, 5714, 5723, 5722, 6046, 6047, 6056, 6055
  203759, 5714, 5715, 5724, 5723, 6047, 6048, 6057, 6056
  203760, 5716, 5717, 5726, 5725, 6049, 6050, 6059, 6058
  203761, 5717, 5718, 5727, 5726, 6050, 6051, 6060, 6059
  203762, 5718, 5719, 5728, 5727, 6051, 6052, 6061, 6060
  203763, 5719, 5720, 5729, 5728, 6052, 6053, 6062, 6061
  203764, 5720, 5721, 5730, 5729, 6053, 6054, 6063, 6062
  203765, 5721, 5722, 5731, 5730, 6054, 6055, 6064, 6063
  203766, 5722, 5723, 5732, 5731, 6055, 6056, 6065, 6064
  203767, 5723, 5724, 5733, 5732, 6056, 6057, 6066, 6065
  203768, 5725, 5726, 5735, 5734, 6058, 6059, 6068, 6067
  203769, 5726, 5727, 5736, 5735, 6059, 6060, 6069, 6068
  203770, 5727, 5728, 5737, 5736, 6060, 6061, 6070, 6069
  203771, 5728, 5729, 5738, 5737, 6061, 6062, 6071, 6070
  203772, 5729, 5730, 5739, 5738, 6062, 6063, 6072, 6071
  203773, 5730, 5731, 5740, 5739, 6063, 6064, 6073, 6072
  203774, 5731, 5732, 5741, 5740, 6064, 6065, 6074, 6073
  203775, 5732, 5733, 5742, 5741, 6065, 6066, 6075, 6074
  203776, 5734, 5735, 5744, 5743, 6067, 6068, 6077, 6076
  203777, 5735, 5736, 5745, 5744, 6068, 6069, 6078, 6077
  203778, 5736, 5737, 5746, 5745, 6069, 6070, 6079, 6078
  203779, 5737, 5738, 5747, 5746, 6070, 6071, 6080, 6079
  203780, 5738, 5739, 5748, 5747, 6071, 6072, 6081, 6080
  203781, 5739, 5740, 5749, 5748, 6072, 6073, 6082, 6081
  203782, 5740, 5741, 5750, 5749, 6073, 6074, 6083, 6082
  203783, 5741, 5742, 5751, 5750, 6074, 6075, 6084, 6083
  203784, 5743, 5744, 5753, 5752, 6076, 6077, 6086, 6085
  203785, 5744, 5745, 5754, 5753, 6077, 6078, 6087, 6086
  203786, 5745, 5746, 5755, 5754, 6078, 6079, 6088, 6087
  203787, 5746, 5747, 5756, 5755, 6079, 6080, 6089, 6088
  203788, 5747, 5748, 5757, 5756, 6080, 6081, 6090, 6089
  203789, 5748, 5749, 5758, 5757, 6081, 6082, 6091, 6090
  203790, 5749, 5750, 5759, 5758, 6082, 6083, 6092, 6091
  203791, 5750, 5751, 5760, 5759, 6083, 6084, 6093, 6092
  203792, 5752, 5753, 5762, 5761, 6085, 6086, 6095, 6094
  203793, 5753, 5754, 5763, 5762, 6086, 6087, 6096, 6095
  203794, 5754, 5755, 5764, 5763, 6087, 6088, 6097, 6096
  203795, 5755, 5756, 5765, 5764, 6088, 6089, 6098, 6097
  203796, 5756, 5757, 5766, 5765, 6089, 6090, 6099, 6098
  203797, 5757, 5758, 5767, 5766, 6090, 6091, 6100, 6099
  203798, 5758, 5759, 5768, 5767, 6091, 6092, 6101, 6100
  203799, 5759, 5760, 5769, 5768, 6092, 6093, 6102, 6101
  203800, 5761, 5762, 5771, 5770, 6094, 6095, 6104, 6103
  203801, 5762, 5763, 5772, 5771, 6095, 6096, 6105, 6104
  203802, 5763, 5764, 5773, 5772, 6096, 6097, 6106, 6105
  203803, 5764, 5765, 5774, 5773, 6097, 6098, 6107, 6106
  203804, 5765, 5766, 5775, 5774, 6098, 6099, 6108, 6107
  203805, 5766, 5767, 5776, 5775, 6099, 6100, 6109, 6108
  203806, 5767, 5768, 5777, 5776, 6100, 6101, 6110, 6109
  203807, 5768, 5769, 5778, 5777, 6101, 6102, 6111, 6110
  203808, 5770, 5771, 5780, 5779, 6103, 6104, 6113, 6112
  203809, 5771, 5772, 5781, 5780, 6104, 6105, 6114, 6113
  203810, 5772, 5773, 5782, 5781, 6105, 6106, 6115, 6114
  203811, 5773, 5774, 5783, 5782, 6106, 6107, 6116, 6115
  203812, 5774, 5775, 5784, 5783, 6107, 6108, 6117, 6116
  203813, 5775, 5776, 5785, 5784, 6108, 6109, 6118, 6117
  203814, 5776, 5777, 5786, 5785, 6109, 6110, 6119, 6118
  203815, 5777, 5778, 5787, 5786, 6110, 6111, 6120, 6119
  203816, 5779, 5780, 5789, 5788, 6112, 6113, 6122, 6121
  203817, 5780, 5781, 5790, 5789, 6113, 6114, 6123, 6122
  203818, 5781, 5782, 5791, 5790, 6114, 6115, 6124, 6123
  203819, 5782, 5783, 5792, 5791, 6115, 6116, 6125, 6124
  203820, 5783, 5784, 5793, 5792, 6116, 6117, 6126, 6125
  203821, 5784, 5785, 5794, 5793, 6117, 6118, 6127, 6126
  203822, 5785, 5786, 5795, 5794, 6118, 6119, 6128, 6127
  203823, 5786, 5787, 5796, 5795, 6119, 6120, 6129, 6128
  203824, 5788, 5789, 5798, 5797, 6121, 6122, 6131, 6130
  203825, 5789, 5790, 5799, 5798, 6122, 6123, 6132, 6131
  203826, 5790, 5791, 5800, 5799, 6123, 6124, 6133, 6132
  203827, 5791, 5792, 5801, 5800, 6124, 6125, 6134, 6133
  203828, 5792, 5793, 5802, 5801, 6125, 6126, 6135, 6134
  203829, 5793, 5794, 5803, 5802, 6126, 6127, 6136, 6135
  203830, 5794, 5795, 5804, 5803, 6127, 6128, 6137, 6136
  203831, 5795, 5796, 5805, 5804, 6128, 6129, 6138, 6137
  203832, 5797, 5798, 5807, 5806, 6130, 6131, 6140, 6139
  203833, 5798, 5799, 5808, 5807, 6131, 6132, 6141, 6140
  203834, 5799, 5800, 5809, 5808, 6132, 6133, 6142, 6141
  203835, 5800, 5801, 5810, 5809, 6133, 6134, 6143, 6142
  203836, 5801, 5802, 5811, 5810, 6134, 6135, 6144, 6143
  203837, 5802, 5803, 5812, 5811, 6135, 6136, 6145, 6144
  203838, 5803, 5804, 5813, 5812, 6136, 6137, 6146, 6145
  203839, 5804, 5805, 5814, 5813, 6137, 6138, 6147, 6146
  203840, 5806, 5807, 5816, 5815, 6139, 6140, 6149, 6148
  203841, 5807, 5808, 5817, 5816, 6140, 6141, 6150, 6149
  203842, 5808, 5809, 5818, 5817, 6141, 6142, 6151, 6150
  203843, 5809, 5810, 5819, 5818, 6142, 6143, 6152, 6151
  203844, 5810, 5811, 5820, 5819, 6143, 6144, 6153, 6152
  203845, 5811, 5812, 5821, 5820, 6144, 6145, 6154, 6153
  203846, 5812, 5813, 5822, 5821, 6145, 6146, 6155, 6154
  203847, 5813, 5814, 5823, 5822, 6146, 6147, 6156, 6155
  203848, 5815, 5816, 5825, 5824, 6148, 6149, 6158, 6157
  203849, 5816, 5817, 5826, 5825, 6149, 6150, 6159, 6158
  203850, 5817, 5818, 5827, 5826, 6150, 6151, 6160, 6159
  203851, 5818, 5819, 5828, 5827, 6151, 6152, 6161, 6160
  203852, 5819, 5820, 5829, 5828, 6152, 6153, 6162, 6161
  203853, 5820, 5821, 5830, 5829, 6153, 6154, 6163, 6162
  203854, 5821, 5822, 5831, 5830, 6154, 6155, 6164, 6163
  203855, 5822, 5823, 5832, 5831, 6155, 6156, 6165, 6164
  203856, 5824, 5825, 5834, 5833, 6157, 6158, 6167, 6166
  203857, 5825, 5826, 5835, 5834, 6158, 6159, 6168, 6167
  203858, 5826, 5827, 5836, 5835, 6159, 6160, 6169, 6168
  203859, 5827, 5828, 5837, 5836, 6160, 6161, 6170, 6169
  203860, 5828, 5829, 5838, 5837, 6161, 6162, 6171, 6170
  203861, 5829, 5830, 5839, 5838, 6162, 6163, 6172, 6171
  203862, 5830, 5831, 5840, 5839, 6163, 6164, 6173, 6172
  203863, 5831, 5832, 5841, 5840, 6164, 6165, 6174, 6173
  203864, 5833, 5834, 5843, 5842, 6166, 6167, 6176, 6175
  203865, 5834, 5835, 5844, 5843, 6167, 6168, 6177, 6176
  203866, 5835, 5836, 5845, 5844, 6168, 6169, 6178, 6177
  203867, 5836, 5837, 5846, 5845, 6169, 6170, 6179, 6178
  203868, 5837, 5838, 5847, 5846, 6170, 6171, 6180, 6179
  203869, 5838, 5839, 5848, 5847, 6171, 6172, 6181, 6180
  203870, 5839, 5840, 5849, 5848, 6172, 6173, 6182, 6181
  203871, 5840, 5841, 5850, 5849, 6173, 6174, 6183, 6182
  203872, 5842, 5843, 5852, 5851, 6175, 6176, 6185, 6184
  203873, 5843, 5844, 5853, 5852, 6176, 6177, 6186, 6185
  203874, 5844, 5845, 5854, 5853, 6177, 6178, 6187, 6186
  203875, 5845, 5846, 5855, 5854, 6178, 6179, 6188, 6187
  203876, 5846, 5847, 5856, 5855, 6179, 6180, 6189, 6188
  203877, 5847, 5848, 5857, 5856, 6180, 6181, 6190, 6189
  203878, 5848, 5849, 5858, 5857, 6181, 6182, 6191, 6190
  203879, 5849, 5850, 5859, 5858, 6182, 6183, 6192, 6191
  203880, 5851, 5852, 5861, 5860, 6184, 6185, 6194, 6193
  203881, 5852, 5853, 5862, 5861, 6185, 6186, 6195, 6194
  203882, 5853, 5854, 5863, 5862, 6186, 6187, 6196, 6195
  203883, 5854, 5855, 5864, 5863, 6187, 6188, 6197, 6196
  203884, 5855, 5856, 5865, 5864, 6188, 6189, 6198, 6197
  203885, 5856, 5857, 5866, 5865, 6189, 6190, 6199, 6198
  203886, 5857, 5858, 5867, 5866, 6190, 6191, 6200, 6199
  203887, 5858, 5859, 5868, 5867, 6191, 6192, 6201, 6200
  203888, 5860, 5861, 5870, 5869, 6193, 6194, 6203, 6202
  203889, 5861, 5862, 5871, 5870, 6194, 6195, 6204, 6203
  203890, 5862, 5863, 5872, 5871, 6195, 6196, 6205, 6204
  203891, 5863, 5864, 5873, 5872, 6196, 6197, 6206, 6205
  203892, 5864, 5865, 5874, 5873, 6197, 6198, 6207, 6206
  203893, 5865, 5866, 5875, 5874, 6198, 6199, 6208, 6207
  203894, 5866, 5867, 5876, 5875, 6199, 6200, 6209, 6208
  203895, 5867, 5868, 5877, 5876, 6200, 6201, 6210, 6209
  203896, 5869, 5870, 5879, 5878, 6202, 6203, 6212, 6211
  203897, 5870, 5871, 5880, 5879, 6203, 6204, 6213, 6212
  203898, 5871, 5872, 5881, 5880, 6204, 6205, 6214, 6213
  203899, 5872, 5873, 5882, 5881, 6205, 6206, 6215, 6214
  203900, 5873, 5874, 5883, 5882, 6206, 6207, 6216, 6215
  203901, 5874, 5875, 5884, 5883, 6207, 6208, 6217, 6216
  203902, 5875, 5876, 5885, 5884, 6208, 6209, 6218, 6217
  203903, 5876, 5877, 5886, 5885, 6209, 6210, 6219, 6218
  203904, 5878, 5879, 5888, 5887, 6211, 6212, 6221, 6220
  203905, 5879, 5880, 5889, 5888, 6212, 6213, 6222, 6221
  203906, 5880, 5881, 5890, 5889, 6213, 6214, 6223, 6222
  203907, 5881, 5882, 5891, 5890, 6214, 6215, 6224, 6223
  203908, 5882, 5883, 5892, 5891, 6215, 6216, 6225, 6224
  203909, 5883, 5884, 5893, 5892, 6216, 6217, 6226, 6225
  203910, 5884, 5885, 5894, 5893, 6217, 6218, 6227, 6226
  203911, 5885, 5886, 5895, 5894, 6218, 6219, 6228, 6227
  203912, 5887, 5888, 5897, 5896, 6220, 6221, 6230, 6229
  203913, 5888, 5889, 5898, 5897, 6221, 6222, 6231, 6230
  203914, 5889, 5890, 5899, 5898, 6222, 6223, 6232, 6231
  203915, 5890, 5891, 5900, 5899, 6223, 6224, 6233, 6232
  203916, 5891, 5892, 5901, 5900, 6224, 6225, 6234, 6233
  203917, 5892, 5893, 5902, 5901, 6225, 6226, 6235, 6234
  203918, 5893, 5894, 5903, 5902, 6226, 6227, 6236, 6235
  203919, 5894, 5895, 5904, 5903, 6227, 6228, 6237, 6236
  203920, 5896, 5897, 5906, 5905, 6229, 6230, 6239, 6238
  203921, 5897, 5898, 5907, 5906, 6230, 6231, 6240, 6239
  203922, 5898, 5899, 5908, 5907, 6231, 6232, 6241, 6240
  203923, 5899, 5900, 5909, 5908, 6232, 6233, 6242, 6241
  203924, 5900, 5901, 5910, 5909, 6233, 6234, 6243, 6242
  203925, 5901, 5902, 5911, 5910, 6234, 6235, 6244, 6243
  203926, 5902, 5903, 5912, 5911, 6235, 6236, 6245, 6244
  203927, 5903, 5904, 5913, 5912, 6236, 6237, 6246, 6245
  203928, 5905, 5906, 5915, 5914, 6238, 6239, 6248, 6247
  203929, 5906, 5907, 5916, 5915, 6239, 6240, 6249, 6248
  203930, 5907, 5908, 5917, 5916, 6240, 6241, 6250, 6249
  203931, 5908, 5909, 5918, 5917, 6241, 6242, 6251, 6250
  203932, 5909, 5910, 5919, 5918, 6242, 6243, 6252, 6251
  203933, 5910, 5911, 5920, 5919, 6243, 6244, 6253, 6252
  203934, 5911, 5912, 5921, 5920, 6244, 6245, 6254, 6253
  203935, 5912, 5913, 5922, 5921, 6245, 6246, 6255, 6254
  203936, 5914, 5915, 5924, 5923, 6247, 6248, 6257, 6256
  203937, 5915, 5916, 5925, 5924, 6248, 6249, 6258, 6257
  203938, 5916, 5917, 5926, 5925, 6249, 6250, 6259, 6258
  203939, 5917, 5918, 5927, 5926, 6250, 6251, 6260, 6259
  203940, 5918, 5919, 5928, 5927, 6251, 6252, 6261, 6260
  203941, 5919, 5920, 5929, 5928, 6252, 6253, 6262, 6261
  203942, 5920, 5921, 5930, 5929, 6253, 6254, 6263, 6262
  203943, 5921, 5922, 5931, 5930, 6254, 6255, 6264, 6263
  203944, 5923, 5924, 5933, 5932, 6256, 6257, 6266, 6265
  203945, 5924, 5925, 5934, 5933, 6257, 6258, 6267, 6266
  203946, 5925, 5926, 5935, 5934, 6258, 6259, 6268, 6267
  203947, 5926, 5927, 5936, 5935, 6259, 6260, 6269, 6268
  203948, 5927, 5928, 5937, 5936, 6260, 6261, 6270, 6269
  203949, 5928, 5929, 5938, 5937, 6261, 6262, 6271, 6270
  203950, 5929, 5930, 5939, 5938, 6262, 6263, 6272, 6271
  203951, 5930, 5931, 5940, 5939, 6263, 6264, 6273, 6272
  203952, 5932, 5933, 5942, 5941, 6265, 6266, 6275, 6274
  203953, 5933, 5934, 5943, 5942, 6266, 6267, 6276, 6275
  203954, 5934, 5935, 5944, 5943, 6267, 6268, 6277, 6276
  203955, 5935, 5936, 5945, 5944, 6268, 6269, 6278, 6277
  203956, 5936, 5937, 5946, 5945, 6269, 6270, 6279, 6278
  203957, 5937, 5938, 5947, 5946, 6270, 6271, 6280, 6279
  203958, 5938, 5939, 5948, 5947, 6271, 6272, 6281, 6280
  203959, 5939, 5940, 5949, 5948, 6272, 6273, 6282, 6281
  203960, 5941, 5942, 5951, 5950, 6274, 6275, 6284, 6283
  203961, 5942, 5943, 5952, 5951, 6275, 6276, 6285, 6284
  203962, 5943, 5944, 5953, 5952, 6276, 6277, 6286, 6285
  203963, 5944, 5945, 5954, 5953, 6277, 6278, 6287, 6286
  203964, 5945, 5946, 5955, 5954, 6278, 6279, 6288, 6287
  203965, 5946, 5947, 5956, 5955, 6279, 6280, 6289, 6288
  203966, 5947, 5948, 5957, 5956, 6280, 6281, 6290, 6289
  203967, 5948, 5949, 5958, 5957, 6281, 6282, 6291, 6290
  203968, 5950, 5951, 5960, 5959, 6283, 6284, 6293, 6292
  203969, 5951, 5952, 5961, 5960, 6284, 6285, 6294, 6293
  203970, 5952, 5953, 5962, 5961, 6285, 6286, 6295, 6294
  203971, 5953, 5954, 5963, 5962, 6286, 6287, 6296, 6295
  203972, 5954, 5955, 5964, 5963, 6287, 6288, 6297, 6296
  203973, 5955, 5956, 5965, 5964, 6288, 6289, 6298, 6297
  203974, 5956, 5957, 5966, 5965, 6289, 6290, 6299, 6298
  203975, 5957, 5958, 5967, 5966, 6290, 6291, 6300, 6299
  203976, 5959, 5960, 5969, 5968, 6292, 6293, 6302, 6301
  203977, 5960, 5961, 5970, 5969, 6293, 6294, 6303, 6302
  203978, 5961, 5962, 5971, 5970, 6294, 6295, 6304, 6303
  203979, 5962, 5963, 5972, 5971, 6295, 6296, 6305, 6304
  203980, 5963, 5964, 5973, 5972, 6296, 6297, 6306, 6305
  203981, 5964, 5965, 5974, 5973, 6297, 6298, 6307, 6306
  203982, 5965, 5966, 5975, 5974, 6298, 6299, 6308, 6307
  203983, 5966, 5967, 5976, 5975, 6299, 6300, 6309, 6308
  203984, 5968, 5969, 5978, 5977, 6301, 6302, 6311, 6310
  203985, 5969, 5970, 5979, 5978, 6302, 6303, 6312, 6311
  203986, 5970, 5971, 5980, 5979, 6303, 6304, 6313, 6312
  203987, 5971, 5972, 5981, 5980, 6304, 6305, 6314, 6313
  203988, 5972, 5973, 5982, 5981, 6305, 6306, 6315, 6314
  203989, 5973, 5974, 5983, 5982, 6306, 6307, 6316, 6315
  203990, 5974, 5975, 5984, 5983, 6307, 6308, 6317, 6316
  203991, 5975, 5976, 5985, 5984, 6308, 6309, 6318, 6317
  203992, 5977, 5978, 5987, 5986, 6310, 6311, 6320, 6319
  203993, 5978, 5979, 5988, 5987, 6311, 6312, 6321, 6320
  203994, 5979, 5980, 5989, 5988, 6312, 6313, 6322, 6321
  203995, 5980, 5981, 5990, 5989, 6313, 6314, 6323, 6322
  203996, 5981, 5982, 5991, 5990, 6314, 6315, 6324, 6323
  203997, 5982, 5983, 5992, 5991, 6315, 6316, 6325, 6324
  203998, 5983, 5984, 5993, 5992, 6316, 6317, 6326, 6325
  203999, 5984, 5985, 5994, 5993, 6317, 6318, 6327, 6326
  204000, 5986, 5987, 5996, 5995, 6319, 6320, 6329, 6328
  204001, 5987, 5988, 5997, 5996, 6320, 6321, 6330, 6329
  204002, 5988, 5989, 5998, 5997, 6321, 6322, 6331, 6330
  204003, 5989, 5990, 5999, 5998, 6322, 6323, 6332, 6331
  204004, 5990, 5991, 6000, 5999, 6323, 6324, 6333, 6332
  204005, 5991, 5992, 6001, 6000, 6324, 6325, 6334, 6333
  204006, 5992, 5993, 6002, 6001, 6325, 6326, 6335, 6334
  204007, 5993, 5994, 6003, 6002, 6326, 6327, 6336, 6335
  204008, 5995, 5996, 6005, 6004, 6328, 6329, 6338, 6337
  204009, 5996, 5997, 6006, 6005, 6329, 6330, 6339, 6338
  204010, 5997, 5998, 6007, 6006, 6330, 6331, 6340, 6339
  204011, 5998, 5999, 6008, 6007, 6331, 6332, 6341, 6340
  204012, 5999, 6000, 6009, 6008, 6332, 6333, 6342, 6341
  204013, 6000, 6001, 6010, 6009, 6333, 6334, 6343, 6342
  204014, 6001, 6002, 6011, 6010, 6334, 6335, 6344, 6343
  204015, 6002, 6003, 6012, 6011, 6335, 6336, 6345, 6344
  204016, 6004, 6005, 6014, 6013, 6337, 6338, 6347, 6346
  204017, 6005, 6006, 6015, 6014, 6338, 6339, 6348, 6347
  204018, 6006, 6007, 6016, 6015, 6339, 6340, 6349, 6348
  204019, 6007, 6008, 6017, 6016, 6340, 6341, 6350, 6349
  204020, 6008, 6009, 6018, 6017, 6341, 6342, 6351, 6350
  204021, 6009, 6010, 6019, 6018, 6342, 6343, 6352, 6351
  204022, 6010, 6011, 6020, 6019, 6343, 6344, 6353, 6352
  204023, 6011, 6012, 6021, 6020, 6344, 6345, 6354, 6353
  204024, 6013, 6014, 6023, 6022, 6346, 6347, 6356, 6355
  204025, 6014, 6015, 6024, 6023, 6347, 6348, 6357, 6356
  204026, 6015, 6016, 6025, 6024, 6348, 6349, 6358, 6357
  204027, 6016, 6017, 6026, 6025, 6349, 6350, 6359, 6358
  204028, 6017, 6018, 6027, 6026, 6350, 6351, 6360, 6359
  204029, 6018, 6019, 6028, 6027, 6351, 6352, 6361, 6360
  204030, 6019, 6020, 6029, 6028, 6352, 6353, 6362, 6361
  204031, 6020, 6021, 6030, 6029, 6353, 6354, 6363, 6362
  204032, 6031, 6032, 6041, 6040, 6364, 6365, 6374, 6373
  204033, 6032, 6033, 6042, 6041, 6365, 6366, 6375, 6374
  204034, 6033, 6034, 6043, 6042, 6366, 6367, 6376, 6375
  204035, 6034, 6035, 6044, 6043, 6367, 6368, 6377, 6376
  204036, 6035, 6036, 6045, 6044, 6368, 6369, 6378, 6377
  204037, 6036, 6037, 6046, 6045, 6369, 6370, 6379, 6378
  204038, 6037, 6038, 6047, 6046, 6370, 6371, 6380, 6379
  204039, 6038, 6039, 6048, 6047, 6371, 6372, 6381, 6380
  204040, 6040, 6041, 6050, 6049, 6373, 6374, 6383, 6382
  204041, 6041, 6042, 6051, 6050, 6374, 6375, 6384, 6383
  204042, 6042, 6043, 6052, 6051, 6375, 6376, 6385, 6384
  204043, 6043, 6044, 6053, 6052, 6376, 6377, 6386, 6385
  204044, 6044, 6045, 6054, 6053, 6377, 6378, 6387, 6386
  204045, 6045, 6046, 6055, 6054, 6378, 6379, 6388, 6387
  204046, 6046, 6047, 6056, 6055, 6379, 6380, 6389, 6388
  204047, 6047, 6048, 6057, 6056, 6380, 6381, 6390, 6389
  204048, 6049, 6050, 6059, 6058, 6382, 6383, 6392, 6391
  204049, 6050, 6051, 6060, 6059, 6383, 6384, 6393, 6392
  204050, 6051, 6052, 6061, 6060, 6384, 6385, 6394, 6393
  204051, 6052, 6053, 6062, 6061, 6385, 6386, 6395, 6394
  204052, 6053, 6054, 6063, 6062, 6386, 6387, 6396, 6395
  204053, 6054, 6055, 6064, 6063, 6387, 6388, 6397, 6396
  204054, 6055, 6056, 6065, 6064, 6388, 6389, 6398, 6397
  204055, 6056, 6057, 6066, 6065, 6389, 6390, 6399, 6398
  204056, 6058, 6059, 6068, 6067, 6391, 6392, 6401, 6400
  204057, 6059, 6060, 6069, 6068, 6392, 6393, 6402, 6401
  204058, 6060, 6061, 6070, 6069, 6393, 6394, 6403, 6402
  204059, 6061, 6062, 6071, 6070, 6394, 6395, 6404, 6403
  204060, 6062, 6063, 6072, 6071, 6395, 6396, 6405, 6404
  204061, 6063, 6064, 6073, 6072, 6396, 6397, 6406, 6405
  204062, 6064, 6065, 6074, 6073, 6397, 6398, 6407, 6406
  204063, 6065, 6066, 6075, 6074, 6398, 6399, 6408, 6407
  204064, 6067, 6068, 6077, 6076, 6400, 6401, 6410, 6409
  204065, 6068, 6069, 6078, 6077, 6401, 6402, 6411, 6410
  204066, 6069, 6070, 6079, 6078, 6402, 6403, 6412, 6411
  204067, 6070, 6071, 6080, 6079, 6403, 6404, 6413, 6412
  204068, 6071, 6072, 6081, 6080, 6404, 6405, 6414, 6413
  204069, 6072, 6073, 6082, 6081, 6405, 6406, 6415, 6414
  204070, 6073, 6074, 6083, 6082, 6406, 6407, 6416, 6415
  204071, 6074, 6075, 6084, 6083, 6407, 6408, 6417, 6416
  204072, 6076, 6077, 6086, 6085, 6409, 6410, 6419, 6418
  204073, 6077, 6078, 6087, 6086, 6410, 6411, 6420, 6419
  204074, 6078, 6079, 6088, 6087, 6411, 6412, 6421, 6420
  204075, 6079, 6080, 6089, 6088, 6412, 6413, 6422, 6421
  204076, 6080, 6081, 6090, 6089, 6413, 6414, 6423, 6422
  204077, 6081, 6082, 6091, 6090, 6414, 6415, 6424, 6423
  204078, 6082, 6083, 6092, 6091, 6415, 6416, 6425, 6424
  204079, 6083, 6084, 6093, 6092, 6416, 6417, 6426, 6425
  204080, 6085, 6086, 6095, 6094, 6418, 6419, 6428, 6427
  204081, 6086, 6087, 6096, 6095, 6419, 6420, 6429, 6428
  204082, 6087, 6088, 6097, 6096, 6420, 6421, 6430, 6429
  204083, 6088, 6089, 6098, 6097, 6421, 6422, 6431, 6430
  204084, 6089, 6090, 6099, 6098, 6422, 6423, 6432, 6431
  204085, 6090, 6091, 6100, 6099, 6423, 6424, 6433, 6432
  204086, 6091, 6092, 6101, 6100, 6424, 6425, 6434, 6433
  204087, 6092, 6093, 6102, 6101, 6425, 6426, 6435, 6434
  204088, 6094, 6095, 6104, 6103, 6427, 6428, 6437, 6436
  204089, 6095, 6096, 6105, 6104, 6428, 6429, 6438, 6437
  204090, 6096, 6097, 6106, 6105, 6429, 6430, 6439, 6438
  204091, 6097, 6098, 6107, 6106, 6430, 6431, 6440, 6439
  204092, 6098, 6099, 6108, 6107, 6431, 6432, 6441, 6440
  204093, 6099, 6100, 6109, 6108, 6432, 6433, 6442, 6441
  204094, 6100, 6101, 6110, 6109, 6433, 6434, 6443, 6442
  204095, 6101, 6102, 6111, 6110, 6434, 6435, 6444, 6443
  204096, 6103, 6104, 6113, 6112, 6436, 6437, 6446, 6445
  204097, 6104, 6105, 6114, 6113, 6437, 6438, 6447, 6446
  204098, 6105, 6106, 6115, 6114, 6438, 6439, 6448, 6447
  204099, 6106, 6107, 6116, 6115, 6439, 6440, 6449, 6448
  204100, 6107, 6108, 6117, 6116, 6440, 6441, 6450, 6449
  204101, 6108, 6109, 6118, 6117, 6441, 6442, 6451, 6450
  204102, 6109, 6110, 6119, 6118, 6442, 6443, 6452, 6451
  204103, 6110, 6111, 6120, 6119, 6443, 6444, 6453, 6452
  204104, 6112, 6113, 6122, 6121, 6445, 6446, 6455, 6454
  204105, 6113, 6114, 6123, 6122, 6446, 6447, 6456, 6455
  204106, 6114, 6115, 6124, 6123, 6447, 6448, 6457, 6456
  204107, 6115, 6116, 6125, 6124, 6448, 6449, 6458, 6457
  204108, 6116, 6117, 6126, 6125, 6449, 6450, 6459, 6458
  204109, 6117, 6118, 6127, 6126, 6450, 6451, 6460, 6459
  204110, 6118, 6119, 6128, 6127, 6451, 6452, 6461, 6460
  204111, 6119, 6120, 6129, 6128, 6452, 6453, 6462, 6461
  204112, 6121, 6122, 6131, 6130, 6454, 6455, 6464, 6463
  204113, 6122, 6123, 6132, 6131, 6455, 6456, 6465, 6464
  204114, 6123, 6124, 6133, 6132, 6456, 6457, 6466, 6465
  204115, 6124, 6125, 6134, 6133, 6457, 6458, 6467, 6466
  204116, 6125, 6126, 6135, 6134, 6458, 6459, 6468, 6467
  204117, 6126, 6127, 6136, 6135, 6459, 6460, 6469, 6468
  204118, 6127, 6128, 6137, 6136, 6460, 6461, 6470, 6469
  204119, 6128, 6129, 6138, 6137, 6461, 6462, 6471, 6470
  204120, 6130, 6131, 6140, 6139, 6463, 6464, 6473, 6472
  204121, 6131, 6132, 6141, 6140, 6464, 6465, 6474, 6473
  204122, 6132, 6133, 6142, 6141, 6465, 6466, 6475, 6474
  204123, 6133, 6134, 6143, 6142, 6466, 6467, 6476, 6475
  204124, 6134, 6135, 6144, 6143, 6467, 6468, 6477, 6476
  204125, 6135, 6136, 6145, 6144, 6468, 6469, 6478, 6477
  204126, 6136, 6137, 6146, 6145, 6469, 6470, 6479, 6478
  204127, 6137, 6138, 6147, 6146, 6470, 6471, 6480, 6479
  204128, 6139, 6140, 6149, 6148, 6472, 6473, 6482, 6481
  204129, 6140, 6141, 6150, 6149, 6473, 6474, 6483, 6482
  204130, 6141, 6142, 6151, 6150, 6474, 6475, 6484, 6483
  204131, 6142, 6143, 6152, 6151, 6475, 6476, 6485, 6484
  204132, 6143, 6144, 6153, 6152, 6476, 6477, 6486, 6485
  204133, 6144, 6145, 6154, 6153, 6477, 6478, 6487, 6486
  204134, 6145, 6146, 6155, 6154, 6478, 6479, 6488, 6487
  204135, 6146, 6147, 6156, 6155, 6479, 6480, 6489, 6488
  204136, 6148, 6149, 6158, 6157, 6481, 6482, 6491, 6490
  204137, 6149, 6150, 6159, 6158, 6482, 6483, 6492, 6491
  204138, 6150, 6151, 6160, 6159, 6483, 6484, 6493, 6492
  204139, 6151, 6152, 6161, 6160, 6484, 6485, 6494, 6493
  204140, 6152, 6153, 6162, 6161, 6485, 6486, 6495, 6494
  204141, 6153, 6154, 6163, 6162, 6486, 6487, 6496, 6495
  204142, 6154, 6155, 6164, 6163, 6487, 6488, 6497, 6496
  204143, 6155, 6156, 6165, 6164, 6488, 6489, 6498, 6497
  204144, 6157, 6158, 6167, 6166, 6490, 6491, 6500, 6499
  204145, 6158, 6159, 6168, 6167, 6491, 6492, 6501, 6500
  204146, 6159, 6160, 6169, 6168, 6492, 6493, 6502, 6501
  204147, 6160, 6161, 6170, 6169, 6493, 6494, 6503, 6502
  204148, 6161, 6162, 6171, 6170, 6494, 6495, 6504, 6503
  204149, 6162, 6163, 6172, 6171, 6495, 6496, 6505, 6504
  204150, 6163, 6164, 6173, 6172, 6496, 6497, 6506, 6505
  204151, 6164, 6165, 6174, 6173, 6497, 6498, 6507, 6506
  204152, 6166, 6167, 6176, 6175, 6499, 6500, 6509, 6508
  204153, 6167, 6168, 6177, 6176, 6500, 6501, 6510, 6509
  204154, 6168, 6169, 6178, 6177, 6501, 6502, 6511, 6510
  204155, 6169, 6170, 6179, 6178, 6502, 6503, 6512, 6511
  204156, 6170, 6171, 6180, 6179, 6503, 6504, 6513, 6512
  204157, 6171, 6172, 6181, 6180, 6504, 6505, 6514, 6513
  204158, 6172, 6173, 6182, 6181, 6505, 6506, 6515, 6514
  204159, 6173, 6174, 6183, 6182, 6506, 6507, 6516, 6515
  204160, 6175, 6176, 6185, 6184, 6508, 6509, 6518, 6517
  204161, 6176, 6177, 6186, 6185, 6509, 6510, 6519, 6518
  204162, 6177, 6178, 6187, 6186, 6510, 6511, 6520, 6519
  204163, 6178, 6179, 6188, 6187, 6511, 6512, 6521, 6520
  204164, 6179, 6180, 6189, 6188, 6512, 6513, 6522, 6521
  204165, 6180, 6181, 6190, 6189, 6513, 6514, 6523, 6522
  204166, 6181, 6182, 6191, 6190, 6514, 6515, 6524, 6523
  204167, 6182, 6183, 6192, 6191, 6515, 6516, 6525, 6524
  204168, 6184, 6185, 6194, 6193, 6517, 6518, 6527, 6526
  204169, 6185, 6186, 6195, 6194, 6518, 6519, 6528, 6527
  204170, 6186, 6187, 6196, 6195, 6519, 6520, 6529, 6528
  204171, 6187, 6188, 6197, 6196, 6520, 6521, 6530, 6529
  204172, 6188, 6189, 6198, 6197, 6521, 6522, 6531, 6530
  204173, 6189, 6190, 6199, 6198, 6522, 6523, 6532, 6531
  204174, 6190, 6191, 6200, 6199, 6523, 6524, 6533, 6532
  204175, 6191, 6192, 6201, 6200, 6524, 6525, 6534, 6533
  204176, 6193, 6194, 6203, 6202, 6526, 6527, 6536, 6535
  204177, 6194, 6195, 6204, 6203, 6527, 6528, 6537, 6536
  204178, 6195, 6196, 6205, 6204, 6528, 6529, 6538, 6537
  204179, 6196, 6197, 6206, 6205, 6529, 6530, 6539, 6538
  204180, 6197, 6198, 6207, 6206, 6530, 6531, 6540, 6539
  204181, 6198, 6199, 6208, 6207, 6531, 6532, 6541, 6540
  204182, 6199, 6200, 6209, 6208, 6532, 6533, 6542, 6541
  204183, 6200, 6201, 6210, 6209, 6533, 6534, 6543, 6542
  204184, 6202, 6203, 6212, 6211, 6535, 6536, 6545, 6544
  204185, 6203, 6204, 6213, 6212, 6536, 6537, 6546, 6545
  204186, 6204, 6205, 6214, 6213, 6537, 6538, 6547, 6546
  204187, 6205, 6206, 6215, 6214, 6538, 6539, 6548, 6547
  204188, 6206, 6207, 6216, 6215, 6539, 6540, 6549, 6548
  204189, 6207, 6208, 6217, 6216, 6540, 6541, 6550, 6549
  204190, 6208, 6209, 6218, 6217, 6541, 6542, 6551, 6550
  204191, 6209, 6210, 6219, 6218, 6542, 6543, 6552, 6551
  204192, 6211, 6212, 6221, 6220, 6544, 6545, 6554, 6553
  204193, 6212, 6213, 6222, 6221, 6545, 6546, 6555, 6554
  204194, 6213, 6214, 6223, 6222, 6546, 6547, 6556, 6555
  204195, 6214, 6215, 6224, 6223, 6547, 6548, 6557, 6556
  204196, 6215, 6216, 6225, 6224, 6548, 6549, 6558, 6557
  204197, 6216, 6217, 6226, 6225, 6549, 6550, 6559, 6558
  204198, 6217, 6218, 6227, 6226, 6550, 6551, 6560, 6559
  204199, 6218, 6219, 6228, 6227, 6551, 6552, 6561, 6560
  204200, 6220, 6221, 6230, 6229, 6553, 6554, 6563, 6562
  204201, 6221, 6222, 6231, 6230, 6554, 6555, 6564, 6563
  204202, 6222, 6223, 6232, 6231, 6555, 6556, 6565, 6564
  204203, 6223, 6224, 6233, 6232, 6556, 6557, 6566, 6565
  204204, 6224, 6225, 6234, 6233, 6557, 6558, 6567, 6566
  204205, 6225, 6226, 6235, 6234, 6558, 6559, 6568, 6567
  204206, 6226, 6227, 6236, 6235, 6559, 6560, 6569, 6568
  204207, 6227, 6228, 6237, 6236, 6560, 6561, 6570, 6569
  204208, 6229, 6230, 6239, 6238, 6562, 6563, 6572, 6571
  204209, 6230, 6231, 6240, 6239, 6563, 6564, 6573, 6572
  204210, 6231, 6232, 6241, 6240, 6564, 6565, 6574, 6573
  204211, 6232, 6233, 6242, 6241, 6565, 6566, 6575, 6574
  204212, 6233, 6234, 6243, 6242, 6566, 6567, 6576, 6575
  204213, 6234, 6235, 6244, 6243, 6567, 6568, 6577, 6576
  204214, 6235, 6236, 6245, 6244, 6568, 6569, 6578, 6577
  204215, 6236, 6237, 6246, 6245, 6569, 6570, 6579, 6578
  204216, 6238, 6239, 6248, 6247, 6571, 6572, 6581, 6580
  204217, 6239, 6240, 6249, 6248, 6572, 6573, 6582, 6581
  204218, 6240, 6241, 6250, 6249, 6573, 6574, 6583, 6582
  204219, 6241, 6242, 6251, 6250, 6574, 6575, 6584, 6583
  204220, 6242, 6243, 6252, 6251, 6575, 6576, 6585, 6584
  204221, 6243, 6244, 6253, 6252, 6576, 6577, 6586, 6585
  204222, 6244, 6245, 6254, 6253, 6577, 6578, 6587, 6586
  204223, 6245, 6246, 6255, 6254, 6578, 6579, 6588, 6587
  204224, 6247, 6248, 6257, 6256, 6580, 6581, 6590, 6589
  204225, 6248, 6249, 6258, 6257, 6581, 6582, 6591, 6590
  204226, 6249, 6250, 6259, 6258, 6582, 6583, 6592, 6591
  204227, 6250, 6251, 6260, 6259, 6583, 6584, 6593, 6592
  204228, 6251, 6252, 6261, 6260, 6584, 6585, 6594, 6593
  204229, 6252, 6253, 6262, 6261, 6585, 6586, 6595, 6594
  204230, 6253, 6254, 6263, 6262, 6586, 6587, 6596, 6595
  204231, 6254, 6255, 6264, 6263, 6587, 6588, 6597, 6596
  204232, 6256, 6257, 6266, 6265, 6589, 6590, 6599, 6598
  204233, 6257, 6258, 6267, 6266, 6590, 6591, 6600, 6599
  204234, 6258, 6259, 6268, 6267, 6591, 6592, 6601, 6600
  204235, 6259, 6260, 6269, 6268, 6592, 6593, 6602, 6601
  204236, 6260, 6261, 6270, 6269, 6593, 6594, 6603, 6602
  204237, 6261, 6262, 6271, 6270, 6594, 6595, 6604, 6603
  204238, 6262, 6263, 6272, 6271, 6595, 6596, 6605, 6604
  204239, 6263, 6264, 6273, 6272, 6596, 6597, 6606, 6605
  204240, 6265, 6266, 6275, 6274, 6598, 6599, 6608, 6607
  204241, 6266, 6267, 6276, 6275, 6599, 6600, 6609, 6608
  204242, 6267, 6268, 6277, 6276, 6600, 6601, 6610, 6609
  204243, 6268, 6269, 6278, 6277, 6601, 6602, 6611, 6610
  204244, 6269, 6270, 6279, 6278, 6602, 6603, 6612, 6611
  204245, 6270, 6271, 6280, 6279, 6603, 6604, 6613, 6612
  204246, 6271, 6272, 6281, 6280, 6604, 6605, 6614, 6613
  204247, 6272, 6273, 6282, 6281, 6605, 6606, 6615, 6614
  204248, 6274, 6275, 6284, 6283, 6607, 6608, 6617, 6616
  204249, 6275, 6276, 6285, 6284, 6608, 6609, 6618, 6617
  204250, 6276, 6277, 6286, 6285, 6609, 6610, 6619, 6618
  204251, 6277, 6278, 6287, 6286, 6610, 6611, 6620, 6619
  204252, 6278, 6279, 6288, 6287, 6611, 6612, 6621, 6620
  204253, 6279, 6280, 6289, 6288, 6612, 6613, 6622, 6621
  204254, 6280, 6281, 6290, 6289, 6613, 6614, 6623, 6622
  204255, 6281, 6282, 6291, 6290, 6614, 6615, 6624, 6623
  204256, 6283, 6284, 6293, 6292, 6616, 6617, 6626, 6625
  204257, 6284, 6285, 6294, 6293, 6617, 6618, 6627, 6626
  204258, 6285, 6286, 6295, 6294, 6618, 6619, 6628, 6627
  204259, 6286, 6287, 6296, 6295, 6619, 6620, 6629, 6628
  204260, 6287, 6288, 6297, 6296, 6620, 6621, 6630, 6629
  204261, 6288, 6289, 6298, 6297, 6621, 6622, 6631, 6630
  204262, 6289, 6290, 6299, 6298, 6622, 6623, 6632, 6631
  204263, 6290, 6291, 6300, 6299, 6623, 6624, 6633, 6632
  204264, 6292, 6293, 6302, 6301, 6625, 6626, 6635, 6634
  204265, 6293, 6294, 6303, 6302, 6626, 6627, 6636, 6635
  204266, 6294, 6295, 6304, 6303, 6627, 6628, 6637, 6636
  204267, 6295, 6296, 6305, 6304, 6628, 6629, 6638, 6637
  204268, 6296, 6297, 6306, 6305, 6629, 6630, 6639, 6638
  204269, 6297, 6298, 6307, 6306, 6630, 6631, 6640, 6639
  204270, 6298, 6299, 6308, 6307, 6631, 6632, 6641, 6640
  204271, 6299, 6300, 6309, 6308, 6632, 6633, 6642, 6641
  204272, 6301, 6302, 6311, 6310, 6634, 6635, 6644, 6643
  204273, 6302, 6303, 6312, 6311, 6635, 6636, 6645, 6644
  204274, 6303, 6304, 6313, 6312, 6636, 6637, 6646, 6645
  204275, 6304, 6305, 6314, 6313, 6637, 6638, 6647, 6646
  204276, 6305, 6306, 6315, 6314, 6638, 6639, 6648, 6647
  204277, 6306, 6307, 6316, 6315, 6639, 6640, 6649, 6648
  204278, 6307, 6308, 6317, 6316, 6640, 6641, 6650, 6649
  204279, 6308, 6309, 6318, 6317, 6641, 6642, 6651, 6650
  204280, 6310, 6311, 6320, 6319, 6643, 6644, 6653, 6652
  204281, 6311, 6312, 6321, 6320, 6644, 6645, 6654, 6653
  204282, 6312, 6313, 6322, 6321, 6645, 6646, 6655, 6654
  204283, 6313, 6314, 6323, 6322, 6646, 6647, 6656, 6655
  204284, 6314, 6315, 6324, 6323, 6647, 6648, 6657, 6656
  204285, 6315, 6316, 6325, 6324, 6648, 6649, 6658, 6657
  204286, 6316, 6317, 6326, 6325, 6649, 6650, 6659, 6658
  204287, 6317, 6318, 6327, 6326, 6650, 6651, 6660, 6659
  204288, 6319, 6320, 6329, 6328, 6652, 6653, 6662, 6661
  204289, 6320, 6321, 6330, 6329, 6653, 6654, 6663, 6662
  204290, 6321, 6322, 6331, 6330, 6654, 6655, 6664, 6663
  204291, 6322, 6323, 6332, 6331, 6655, 6656, 6665, 6664
  204292, 6323, 6324, 6333, 6332, 6656, 6657, 6666, 6665
  204293, 6324, 6325, 6334, 6333, 6657, 6658, 6667, 6666
  204294, 6325, 6326, 6335, 6334, 6658, 6659, 6668, 6667
  204295, 6326, 6327, 6336, 6335, 6659, 6660, 6669, 6668
  204296, 6328, 6329, 6338, 6337, 6661, 6662, 6671, 6670
  204297, 6329, 6330, 6339, 6338, 6662, 6663, 6672, 6671
  204298, 6330, 6331, 6340, 6339, 6663, 6664, 6673, 6672
  204299, 6331, 6332, 6341, 6340, 6664, 6665, 6674, 6673
  204300, 6332, 6333, 6342, 6341, 6665, 6666, 6675, 6674
  204301, 6333, 6334, 6343, 6342, 6666, 6667, 6676, 6675
  204302, 6334, 6335, 6344, 6343, 6667, 6668, 6677, 6676
  204303, 6335, 6336, 6345, 6344, 6668, 6669, 6678, 6677
  204304, 6337, 6338, 6347, 6346, 6670, 6671, 6680, 6679
  204305, 6338, 6339, 6348, 6347, 6671, 6672, 6681, 6680
  204306, 6339, 6340, 6349, 6348, 6672, 6673, 6682, 6681
  204307, 6340, 6341, 6350, 6349, 6673, 6674, 6683, 6682
  204308, 6341, 6342, 6351, 6350, 6674, 6675, 6684, 6683
  204309, 6342, 6343, 6352, 6351, 6675, 6676, 6685, 6684
  204310, 6343, 6344, 6353, 6352, 6676, 6677, 6686, 6685
  204311, 6344, 6345, 6354, 6353, 6677, 6678, 6687, 6686
  204312, 6346, 6347, 6356, 6355, 6679, 6680, 6689, 6688
  204313, 6347, 6348, 6357, 6356, 6680, 6681, 6690, 6689
  204314, 6348, 6349, 6358, 6357, 6681, 6682, 6691, 6690
  204315, 6349, 6350, 6359, 6358, 6682, 6683, 6692, 6691
  204316, 6350, 6351, 6360, 6359, 6683, 6684, 6693, 6692
  204317, 6351, 6352, 6361, 6360, 6684, 6685, 6694, 6693
  204318, 6352, 6353, 6362, 6361, 6685, 6686, 6695, 6694
  204319, 6353, 6354, 6363, 6362, 6686, 6687, 6696, 6695
  204320, 6364, 6365, 6374, 6373, 6697, 6698, 6707, 6706
  204321, 6365, 6366, 6375, 6374, 6698, 6699, 6708, 6707
  204322, 6366, 6367, 6376, 6375, 6699, 6700, 6709, 6708
  204323, 6367, 6368, 6377, 6376, 6700, 6701, 6710, 6709
  204324, 6368, 6369, 6378, 6377, 6701, 6702, 6711, 6710
  204325, 6369, 6370, 6379, 6378, 6702, 6703, 6712, 6711
  204326, 6370, 6371, 6380, 6379, 6703, 6704, 6713, 6712
  204327, 6371, 6372, 6381, 6380, 6704, 6705, 6714, 6713
  204328, 6373, 6374, 6383, 6382, 6706, 6707, 6716, 6715
  204329, 6374, 6375, 6384, 6383, 6707, 6708, 6717, 6716
  204330, 6375, 6376, 6385, 6384, 6708, 6709, 6718, 6717
  204331, 6376, 6377, 6386, 6385, 6709, 6710, 6719, 6718
  204332, 6377, 6378, 6387, 6386, 6710, 6711, 6720, 6719
  204333, 6378, 6379, 6388, 6387, 6711, 6712, 6721, 6720
  204334, 6379, 6380, 6389, 6388, 6712, 6713, 6722, 6721
  204335, 6380, 6381, 6390, 6389, 6713, 6714, 6723, 6722
  204336, 6382, 6383, 6392, 6391, 6715, 6716, 6725, 6724
  204337, 6383, 6384, 6393, 6392, 6716, 6717, 6726, 6725
  204338, 6384, 6385, 6394, 6393, 6717, 6718, 6727, 6726
  204339, 6385, 6386, 6395, 6394, 6718, 6719, 6728, 6727
  204340, 6386, 6387, 6396, 6395, 6719, 6720, 6729, 6728
  204341, 6387, 6388, 6397, 6396, 6720, 6721, 6730, 6729
  204342, 6388, 6389, 6398, 6397, 6721, 6722, 6731, 6730
  204343, 6389, 6390, 6399, 6398, 6722, 6723, 6732, 6731
  204344, 6391, 6392, 6401, 6400, 6724, 6725, 6734, 6733
  204345, 6392, 6393, 6402, 6401, 6725, 6726, 6735, 6734
  204346, 6393, 6394, 6403, 6402, 6726, 6727, 6736, 6735
  204347, 6394, 6395, 6404, 6403, 6727, 6728, 6737, 6736
  204348, 6395, 6396, 6405, 6404, 6728, 6729, 6738, 6737
  204349, 6396, 6397, 6406, 6405, 6729, 6730, 6739, 6738
  204350, 6397, 6398, 6407, 6406, 6730, 6731, 6740, 6739
  204351, 6398, 6399, 6408, 6407, 6731, 6732, 6741, 6740
  204352, 6400, 6401, 6410, 6409, 6733, 6734, 6743, 6742
  204353, 6401, 6402, 6411, 6410, 6734, 6735, 6744, 6743
  204354, 6402, 6403, 6412, 6411, 6735, 6736, 6745, 6744
  204355, 6403, 6404, 6413, 6412, 6736, 6737, 6746, 6745
  204356, 6404, 6405, 6414, 6413, 6737, 6738, 6747, 6746
  204357, 6405, 6406, 6415, 6414, 6738, 6739, 6748, 6747
  204358, 6406, 6407, 6416, 6415, 6739, 6740, 6749, 6748
  204359, 6407, 6408, 6417, 6416, 6740, 6741, 6750, 6749
  204360, 6409, 6410, 6419, 6418, 6742, 6743, 6752, 6751
  204361, 6410, 6411, 6420, 6419, 6743, 6744, 6753, 6752
  204362, 6411, 6412, 6421, 6420, 6744, 6745, 6754, 6753
  204363, 6412, 6413, 6422, 6421, 6745, 6746, 6755, 6754
  204364, 6413, 6414, 6423, 6422, 6746, 6747, 6756, 6755
  204365, 6414, 6415, 6424, 6423, 6747, 6748, 6757, 6756
  204366, 6415, 6416, 6425, 6424, 6748, 6749, 6758, 6757
  204367, 6416, 6417, 6426, 6425, 6749, 6750, 6759, 6758
  204368, 6418, 6419, 6428, 6427, 6751, 6752, 6761, 6760
  204369, 6419, 6420, 6429, 6428, 6752, 6753, 6762, 6761
  204370, 6420, 6421, 6430, 6429, 6753, 6754, 6763, 6762
  204371, 6421, 6422, 6431, 6430, 6754, 6755, 6764, 6763
  204372, 6422, 6423, 6432, 6431, 6755, 6756, 6765, 6764
  204373, 6423, 6424, 6433, 6432, 6756, 6757, 6766, 6765
  204374, 6424, 6425, 6434, 6433, 6757, 6758, 6767, 6766
  204375, 6425, 6426, 6435, 6434, 6758, 6759, 6768, 6767
  204376, 6427, 6428, 6437, 6436, 6760, 6761, 6770, 6769
  204377, 6428, 6429, 6438, 6437, 6761, 6762, 6771, 6770
  204378, 6429, 6430, 6439, 6438, 6762, 6763, 6772, 6771
  204379, 6430, 6431, 6440, 6439, 6763, 6764, 6773, 6772
  204380, 6431, 6432, 6441, 6440, 6764, 6765, 6774, 6773
  204381, 6432, 6433, 6442, 6441, 6765, 6766, 6775, 6774
  204382, 6433, 6434, 6443, 6442, 6766, 6767, 6776, 6775
  204383, 6434, 6435, 6444, 6443, 6767, 6768, 6777, 6776
  204384, 6436, 6437, 6446, 6445, 6769, 6770, 6779, 6778
  204385, 6437, 6438, 6447, 6446, 6770, 6771, 6780, 6779
  204386, 6438, 6439, 6448, 6447, 6771, 6772, 6781, 6780
  204387, 6439, 6440, 6449, 6448, 6772, 6773, 6782, 6781
  204388, 6440, 6441, 6450, 6449, 6773, 6774, 6783, 6782
  204389, 6441, 6442, 6451, 6450, 6774, 6775, 6784, 6783
  204390, 6442, 6443, 6452, 6451, 6775, 6776, 6785, 6784
  204391, 6443, 6444, 6453, 6452, 6776, 6777, 6786, 6785
  204392, 6445, 6446, 6455, 6454, 6778, 6779, 6788, 6787
  204393, 6446, 6447, 6456, 6455, 6779, 6780, 6789, 6788
  204394, 6447, 6448, 6457, 6456, 6780, 6781, 6790, 6789
  204395, 6448, 6449, 6458, 6457, 6781, 6782, 6791, 6790
  204396, 6449, 6450, 6459, 6458, 6782, 6783, 6792, 6791
  204397, 6450, 6451, 6460, 6459, 6783, 6784, 6793, 6792
  204398, 6451, 6452, 6461, 6460, 6784, 6785, 6794, 6793
  204399, 6452, 6453, 6462, 6461, 6785, 6786, 6795, 6794
  204400, 6454, 6455, 6464, 6463, 6787, 6788, 6797, 6796
  204401, 6455, 6456, 6465, 6464, 6788, 6789, 6798, 6797
  204402, 6456, 6457, 6466, 6465, 6789, 6790, 6799, 6798
  204403, 6457, 6458, 6467, 6466, 6790, 6791, 6800, 6799
  204404, 6458, 6459, 6468, 6467, 6791, 6792, 6801, 6800
  204405, 6459, 6460, 6469, 6468, 6792, 6793, 6802, 6801
  204406, 6460, 6461, 6470, 6469, 6793, 6794, 6803, 6802
  204407, 6461, 6462, 6471, 6470, 6794, 6795, 6804, 6803
  204408, 6463, 6464, 6473, 6472, 6796, 6797, 6806, 6805
  204409, 6464, 6465, 6474, 6473, 6797, 6798, 6807, 6806
  204410, 6465, 6466, 6475, 6474, 6798, 6799, 6808, 6807
  204411, 6466, 6467, 6476, 6475, 6799, 6800, 6809, 6808
  204412, 6467, 6468, 6477, 6476, 6800, 6801, 6810, 6809
  204413, 6468, 6469, 6478, 6477, 6801, 6802, 6811, 6810
  204414, 6469, 6470, 6479, 6478, 6802, 6803, 6812, 6811
  204415, 6470, 6471, 6480, 6479, 6803, 6804, 6813, 6812
  204416, 6472, 6473, 6482, 6481, 6805, 6806, 6815, 6814
  204417, 6473, 6474, 6483, 6482, 6806, 6807, 6816, 6815
  204418, 6474, 6475, 6484, 6483, 6807, 6808, 6817, 6816
  204419, 6475, 6476, 6485, 6484, 6808, 6809, 6818, 6817
  204420, 6476, 6477, 6486, 6485, 6809, 6810, 6819, 6818
  204421, 6477, 6478, 6487, 6486, 6810, 6811, 6820, 6819
  204422, 6478, 6479, 6488, 6487, 6811, 6812, 6821, 6820
  204423, 6479, 6480, 6489, 6488, 6812, 6813, 6822, 6821
  204424, 6481, 6482, 6491, 6490, 6814, 6815, 6824, 6823
  204425, 6482, 6483, 6492, 6491, 6815, 6816, 6825, 6824
  204426, 6483, 6484, 6493, 6492, 6816, 6817, 6826, 6825
  204427, 6484, 6485, 6494, 6493, 6817, 6818, 6827, 6826
  204428, 6485, 6486, 6495, 6494, 6818, 6819, 6828, 6827
  204429, 6486, 6487, 6496, 6495, 6819, 6820, 6829, 6828
  204430, 6487, 6488, 6497, 6496, 6820, 6821, 6830, 6829
  204431, 6488, 6489, 6498, 6497, 6821, 6822, 6831, 6830
  204432, 6490, 6491, 6500, 6499, 6823, 6824, 6833, 6832
  204433, 6491, 6492, 6501, 6500, 6824, 6825, 6834, 6833
  204434, 6492, 6493, 6502, 6501, 6825, 6826, 6835, 6834
  204435, 6493, 6494, 6503, 6502, 6826, 6827, 6836, 6835
  204436, 6494, 6495, 6504, 6503, 6827, 6828, 6837, 6836
  204437, 6495, 6496, 6505, 6504, 6828, 6829, 6838, 6837
  204438, 6496, 6497, 6506, 6505, 6829, 6830, 6839, 6838
  204439, 6497, 6498, 6507, 6506, 6830, 6831, 6840, 6839
  204440, 6499, 6500, 6509, 6508, 6832, 6833, 6842, 6841
  204441, 6500, 6501, 6510, 6509, 6833, 6834, 6843, 6842
  204442, 6501, 6502, 6511, 6510, 6834, 6835, 6844, 6843
  204443, 6502, 6503, 6512, 6511, 6835, 6836, 6845, 6844
  204444, 6503, 6504, 6513, 6512, 6836, 6837, 6846, 6845
  204445, 6504, 6505, 6514, 6513, 6837, 6838, 6847, 6846
  204446, 6505, 6506, 6515, 6514, 6838, 6839, 6848, 6847
  204447, 6506, 6507, 6516, 6515, 6839, 6840, 6849, 6848
  204448, 6508, 6509, 6518, 6517, 6841, 6842, 6851, 6850
  204449, 6509, 6510, 6519, 6518, 6842, 6843, 6852, 6851
  204450, 6510, 6511, 6520, 6519, 6843, 6844, 6853, 6852
  204451, 6511, 6512, 6521, 6520, 6844, 6845, 6854, 6853
  204452, 6512, 6513, 6522, 6521, 6845, 6846, 6855, 6854
  204453, 6513, 6514, 6523, 6522, 6846, 6847, 6856, 6855
  204454, 6514, 6515, 6524, 6523, 6847, 6848, 6857, 6856
  204455, 6515, 6516, 6525, 6524, 6848, 6849, 6858, 6857
  204456, 6517, 6518, 6527, 6526, 6850, 6851, 6860, 6859
  204457, 6518, 6519, 6528, 6527, 6851, 6852, 6861, 6860
  204458, 6519, 6520, 6529, 6528, 6852, 6853, 6862, 6861
  204459, 6520, 6521, 6530, 6529, 6853, 6854, 6863, 6862
  204460, 6521, 6522, 6531, 6530, 6854, 6855, 6864, 6863
  204461, 6522, 6523, 6532, 6531, 6855, 6856, 6865, 6864
  204462, 6523, 6524, 6533, 6532, 6856, 6857, 6866, 6865
  204463, 6524, 6525, 6534, 6533, 6857, 6858, 6867, 6866
  204464, 6526, 6527, 6536, 6535, 6859, 6860, 6869, 6868
  204465, 6527, 6528, 6537, 6536, 6860, 6861, 6870, 6869
  204466, 6528, 6529, 6538, 6537, 6861, 6862, 6871, 6870
  204467, 6529, 6530, 6539, 6538, 6862, 6863, 6872, 6871
  204468, 6530, 6531, 6540, 6539, 6863, 6864, 6873, 6872
  204469, 6531, 6532, 6541, 6540, 6864, 6865, 6874, 6873
  204470, 6532, 6533, 6542, 6541, 6865, 6866, 6875, 6874
  204471, 6533, 6534, 6543, 6542, 6866, 6867, 6876, 6875
  204472, 6535, 6536, 6545, 6544, 6868, 6869, 6878, 6877
  204473, 6536, 6537, 6546, 6545, 6869, 6870, 6879, 6878
  204474, 6537, 6538, 6547, 6546, 6870, 6871, 6880, 6879
  204475, 6538, 6539, 6548, 6547, 6871, 6872, 6881, 6880
  204476, 6539, 6540, 6549, 6548, 6872, 6873, 6882, 6881
  204477, 6540, 6541, 6550, 6549, 6873, 6874, 6883, 6882
  204478, 6541, 6542, 6551, 6550, 6874, 6875, 6884, 6883
  204479, 6542, 6543, 6552, 6551, 6875, 6876, 6885, 6884
  204480, 6544, 6545, 6554, 6553, 6877, 6878, 6887, 6886
  204481, 6545, 6546, 6555, 6554, 6878, 6879, 6888, 6887
  204482, 6546, 6547, 6556, 6555, 6879, 6880, 6889, 6888
  204483, 6547, 6548, 6557, 6556, 6880, 6881, 6890, 6889
  204484, 6548, 6549, 6558, 6557, 6881, 6882, 6891, 6890
  204485, 6549, 6550, 6559, 6558, 6882, 6883, 6892, 6891
  204486, 6550, 6551, 6560, 6559, 6883, 6884, 6893, 6892
  204487, 6551, 6552, 6561, 6560, 6884, 6885, 6894, 6893
  204488, 6553, 6554, 6563, 6562, 6886, 6887, 6896, 6895
  204489, 6554, 6555, 6564, 6563, 6887, 6888, 6897, 6896
  204490, 6555, 6556, 6565, 6564, 6888, 6889, 6898, 6897
  204491, 6556, 6557, 6566, 6565, 6889, 6890, 6899, 6898
  204492, 6557, 6558, 6567, 6566, 6890, 6891, 6900, 6899
  204493, 6558, 6559, 6568, 6567, 6891, 6892, 6901, 6900
  204494, 6559, 6560, 6569, 6568, 6892, 6893, 6902, 6901
  204495, 6560, 6561, 6570, 6569, 6893, 6894, 6903, 6902
  204496, 6562, 6563, 6572, 6571, 6895, 6896, 6905, 6904
  204497, 6563, 6564, 6573, 6572, 6896, 6897, 6906, 6905
  204498, 6564, 6565, 6574, 6573, 6897, 6898, 6907, 6906
  204499, 6565, 6566, 6575, 6574, 6898, 6899, 6908, 6907
  204500, 6566, 6567, 6576, 6575, 6899, 6900, 6909, 6908
  204501, 6567, 6568, 6577, 6576, 6900, 6901, 6910, 6909
  204502, 6568, 6569, 6578, 6577, 6901, 6902, 6911, 6910
  204503, 6569, 6570, 6579, 6578, 6902, 6903, 6912, 6911
  204504, 6571, 6572, 6581, 6580, 6904, 6905, 6914, 6913
  204505, 6572, 6573, 6582, 6581, 6905, 6906, 6915, 6914
  204506, 6573, 6574, 6583, 6582, 6906, 6907, 6916, 6915
  204507, 6574, 6575, 6584, 6583, 6907, 6908, 6917, 6916
  204508, 6575, 6576, 6585, 6584, 6908, 6909, 6918, 6917
  204509, 6576, 6577, 6586, 6585, 6909, 6910, 6919, 6918
  204510, 6577, 6578, 6587, 6586, 6910, 6911, 6920, 6919
  204511, 6578, 6579, 6588, 6587, 6911, 6912, 6921, 6920
  204512, 6580, 6581, 6590, 6589, 6913, 6914, 6923, 6922
  204513, 6581, 6582, 6591, 6590, 6914, 6915, 6924, 6923
  204514, 6582, 6583, 6592, 6591, 6915, 6916, 6925, 6924
  204515, 6583, 6584, 6593, 6592, 6916, 6917, 6926, 6925
  204516, 6584, 6585, 6594, 6593, 6917, 6918, 6927, 6926
  204517, 6585, 6586, 6595, 6594, 6918, 6919, 6928, 6927
  204518, 6586, 6587, 6596, 6595, 6919, 6920, 6929, 6928
  204519, 6587, 6588, 6597, 6596, 6920, 6921, 6930, 6929
  204520, 6589, 6590, 6599, 6598, 6922, 6923, 6932, 6931
  204521, 6590, 6591, 6600, 6599, 6923, 6924, 6933, 6932
  204522, 6591, 6592, 6601, 6600, 6924, 6925, 6934, 6933
  204523, 6592, 6593, 6602, 6601, 6925, 6926, 6935, 6934
  204524, 6593, 6594, 6603, 6602, 6926, 6927, 6936, 6935
  204525, 6594, 6595, 6604, 6603, 6927, 6928, 6937, 6936
  204526, 6595, 6596, 6605, 6604, 6928, 6929, 6938, 6937
  204527, 6596, 6597, 6606, 6605, 6929, 6930, 6939, 6938
  204528, 6598, 6599, 6608, 6607, 6931, 6932, 6941, 6940
  204529, 6599, 6600, 6609, 6608, 6932, 6933, 6942, 6941
  204530, 6600, 6601, 6610, 6609, 6933, 6934, 6943, 6942
  204531, 6601, 6602, 6611, 6610, 6934, 6935, 6944, 6943
  204532, 6602, 6603, 6612, 6611, 6935, 6936, 6945, 6944
  204533, 6603, 6604, 6613, 6612, 6936, 6937, 6946, 6945
  204534, 6604, 6605, 6614, 6613, 6937, 6938, 6947, 6946
  204535, 6605, 6606, 6615, 6614, 6938, 6939, 6948, 6947
  204536, 6607, 6608, 6617, 6616, 6940, 6941, 6950, 6949
  204537, 6608, 6609, 6618, 6617, 6941, 6942, 6951, 6950
  204538, 6609, 6610, 6619, 6618, 6942, 6943, 6952, 6951
  204539, 6610, 6611, 6620, 6619, 6943, 6944, 6953, 6952
  204540, 6611, 6612, 6621, 6620, 6944, 6945, 6954, 6953
  204541, 6612, 6613, 6622, 6621, 6945, 6946, 6955, 6954
  204542, 6613, 6614, 6623, 6622, 6946, 6947, 6956, 6955
  204543, 6614, 6615, 6624, 6623, 6947, 6948, 6957, 6956
  204544, 6616, 6617, 6626, 6625, 6949, 6950, 6959, 6958
  204545, 6617, 6618, 6627, 6626, 6950, 6951, 6960, 6959
  204546, 6618, 6619, 6628, 6627, 6951, 6952, 6961, 6960
  204547, 6619, 6620, 6629, 6628, 6952, 6953, 6962, 6961
  204548, 6620, 6621, 6630, 6629, 6953, 6954, 6963, 6962
  204549, 6621, 6622, 6631, 6630, 6954, 6955, 6964, 6963
  204550, 6622, 6623, 6632, 6631, 6955, 6956, 6965, 6964
  204551, 6623, 6624, 6633, 6632, 6956, 6957, 6966, 6965
  204552, 6625, 6626, 6635, 6634, 6958, 6959, 6968, 6967
  204553, 6626, 6627, 6636, 6635, 6959, 6960, 6969, 6968
  204554, 6627, 6628, 6637, 6636, 6960, 6961, 6970, 6969
  204555, 6628, 6629, 6638, 6637, 6961, 6962, 6971, 6970
  204556, 6629, 6630, 6639, 6638, 6962, 6963, 6972, 6971
  204557, 6630, 6631, 6640, 6639, 6963, 6964, 6973, 6972
  204558, 6631, 6632, 6641, 6640, 6964, 6965, 6974, 6973
  204559, 6632, 6633, 6642, 6641, 6965, 6966, 6975, 6974
  204560, 6634, 6635, 6644, 6643, 6967, 6968, 6977, 6976
  204561, 6635, 6636, 6645, 6644, 6968, 6969, 6978, 6977
  204562, 6636, 6637, 6646, 6645, 6969, 6970, 6979, 6978
  204563, 6637, 6638, 6647, 6646, 6970, 6971, 6980, 6979
  204564, 6638, 6639, 6648, 6647, 6971, 6972, 6981, 6980
  204565, 6639, 6640, 6649, 6648, 6972, 6973, 6982, 6981
  204566, 6640, 6641, 6650, 6649, 6973, 6974, 6983, 6982
  204567, 6641, 6642, 6651, 6650, 6974, 6975, 6984, 6983
  204568, 6643, 6644, 6653, 6652, 6976, 6977, 6986, 6985
  204569, 6644, 6645, 6654, 6653, 6977, 6978, 6987, 6986
  204570, 6645, 6646, 6655, 6654, 6978, 6979, 6988, 6987
  204571, 6646, 6647, 6656, 6655, 6979, 6980, 6989, 6988
  204572, 6647, 6648, 6657, 6656, 6980, 6981, 6990, 6989
  204573, 6648, 6649, 6658, 6657, 6981, 6982, 6991, 6990
  204574, 6649, 6650, 6659, 6658, 6982, 6983, 6992, 6991
  204575, 6650, 6651, 6660, 6659, 6983, 6984, 6993, 6992
  204576, 6652, 6653, 6662, 6661, 6985, 6986, 6995, 6994
  204577, 6653, 6654, 6663, 6662, 6986, 6987, 6996, 6995
  204578, 6654, 6655, 6664, 6663, 6987, 6988, 6997, 6996
  204579, 6655, 6656, 6665, 6664, 6988, 6989, 6998, 6997
  204580, 6656, 6657, 6666, 6665, 6989, 6990, 6999, 6998
  204581, 6657, 6658, 6667, 6666, 6990, 6991, 7000, 6999
  204582, 6658, 6659, 6668, 6667, 6991, 6992, 7001, 7000
  204583, 6659, 6660, 6669, 6668, 6992, 6993, 7002, 7001
  204584, 6661, 6662, 6671, 6670, 6994, 6995, 7004, 7003
  204585, 6662, 6663, 6672, 6671, 6995, 6996, 7005, 7004
  204586, 6663, 6664, 6673, 6672, 6996, 6997, 7006, 7005
  204587, 6664, 6665, 6674, 6673, 6997, 6998, 7007, 7006
  204588, 6665, 6666, 6675, 6674, 6998, 6999, 7008, 7007
  204589, 6666, 6667, 6676, 6675, 6999, 7000, 7009, 7008
  204590, 6667, 6668, 6677, 6676, 7000, 7001, 7010, 7009
  204591, 6668, 6669, 6678, 6677, 7001, 7002, 7011, 7010
  204592, 6670, 6671, 6680, 6679, 7003, 7004, 7013, 7012
  204593, 6671, 6672, 6681, 6680, 7004, 7005, 7014, 7013
  204594, 6672, 6673, 6682, 6681, 7005, 7006, 7015, 7014
  204595, 6673, 6674, 6683, 6682, 7006, 7007, 7016, 7015
  204596, 6674, 6675, 6684, 6683, 7007, 7008, 7017, 7016
  204597, 6675, 6676, 6685, 6684, 7008, 7009, 7018, 7017
  204598, 6676, 6677, 6686, 6685, 7009, 7010, 7019, 7018
  204599, 6677, 6678, 6687, 6686, 7010, 7011, 7020, 7019
  204600, 6679, 6680, 6689, 6688, 7012, 7013, 7022, 7021
  204601, 6680, 6681, 6690, 6689, 7013, 7014, 7023, 7022
  204602, 6681, 6682, 6691, 6690, 7014, 7015, 7024, 7023
  204603, 6682, 6683, 6692, 6691, 7015, 7016, 7025, 7024
  204604, 6683, 6684, 6693, 6692, 7016, 7017, 7026, 7025
  204605, 6684, 6685, 6694, 6693, 7017, 7018, 7027, 7026
  204606, 6685, 6686, 6695, 6694, 7018, 7019, 7028, 7027
  204607, 6686, 6687, 6696, 6695, 7019, 7020, 7029, 7028
  204608, 6697, 6698, 6707, 6706, 7030, 7031, 7040, 7039
  204609, 6698, 6699, 6708, 6707, 7031, 7032, 7041, 7040
  204610, 6699, 6700, 6709, 6708, 7032, 7033, 7042, 7041
  204611, 6700, 6701, 6710, 6709, 7033, 7034, 7043, 7042
  204612, 6701, 6702, 6711, 6710, 7034, 7035, 7044, 7043
  204613, 6702, 6703, 6712, 6711, 7035, 7036, 7045, 7044
  204614, 6703, 6704, 6713, 6712, 7036, 7037, 7046, 7045
  204615, 6704, 6705, 6714, 6713, 7037, 7038, 7047, 7046
  204616, 6706, 6707, 6716, 6715, 7039, 7040, 7049, 7048
  204617, 6707, 6708, 6717, 6716, 7040, 7041, 7050, 7049
  204618, 6708, 6709, 6718, 6717, 7041, 7042, 7051, 7050
  204619, 6709, 6710, 6719, 6718, 7042, 7043, 7052, 7051
  204620, 6710, 6711, 6720, 6719, 7043, 7044, 7053, 7052
  204621, 6711, 6712, 6721, 6720, 7044, 7045, 7054, 7053
  204622, 6712, 6713, 6722, 6721, 7045, 7046, 7055, 7054
  204623, 6713, 6714, 6723, 6722, 7046, 7047, 7056, 7055
  204624, 6715, 6716, 6725, 6724, 7048, 7049, 7058, 7057
  204625, 6716, 6717, 6726, 6725, 7049, 7050, 7059, 7058
  204626, 6717, 6718, 6727, 6726, 7050, 7051, 7060, 7059
  204627, 6718, 6719, 6728, 6727, 7051, 7052, 7061, 7060
  204628, 6719, 6720, 6729, 6728, 7052, 7053, 7062, 7061
  204629, 6720, 6721, 6730, 6729, 7053, 7054, 7063, 7062
  204630, 6721, 6722, 6731, 6730, 7054, 7055, 7064, 7063
  204631, 6722, 6723, 6732, 6731, 7055, 7056, 7065, 7064
  204632, 6724, 6725, 6734, 6733, 7057, 7058, 7067, 7066
  204633, 6725, 6726, 6735, 6734, 7058, 7059, 7068, 7067
  204634, 6726, 6727, 6736, 6735, 7059, 7060, 7069, 7068
  204635, 6727, 6728, 6737, 6736, 7060, 7061, 7070, 7069
  204636, 6728, 6729, 6738, 6737, 7061, 7062, 7071, 7070
  204637, 6729, 6730, 6739, 6738, 7062, 7063, 7072, 7071
  204638, 6730, 6731, 6740, 6739, 7063, 7064, 7073, 7072
  204639, 6731, 6732, 6741, 6740, 7064, 7065, 7074, 7073
  204640, 6733, 6734, 6743, 6742, 7066, 7067, 7076, 7075
  204641, 6734, 6735, 6744, 6743, 7067, 7068, 7077, 7076
  204642, 6735, 6736, 6745, 6744, 7068, 7069, 7078, 7077
  204643, 6736, 6737, 6746, 6745, 7069, 7070, 7079, 7078
  204644, 6737, 6738, 6747, 6746, 7070, 7071, 7080, 7079
  204645, 6738, 6739, 6748, 6747, 7071, 7072, 7081, 7080
  204646, 6739, 6740, 6749, 6748, 7072, 7073, 7082, 7081
  204647, 6740, 6741, 6750, 6749, 7073, 7074, 7083, 7082
  204648, 6742, 6743, 6752, 6751, 7075, 7076, 7085, 7084
  204649, 6743, 6744, 6753, 6752, 7076, 7077, 7086, 7085
  204650, 6744, 6745, 6754, 6753, 7077, 7078, 7087, 7086
  204651, 6745, 6746, 6755, 6754, 7078, 7079, 7088, 7087
  204652, 6746, 6747, 6756, 6755, 7079, 7080, 7089, 7088
  204653, 6747, 6748, 6757, 6756, 7080, 7081, 7090, 7089
  204654, 6748, 6749, 6758, 6757, 7081, 7082, 7091, 7090
  204655, 6749, 6750, 6759, 6758, 7082, 7083, 7092, 7091
  204656, 6751, 6752, 6761, 6760, 7084, 7085, 7094, 7093
  204657, 6752, 6753, 6762, 6761, 7085, 7086, 7095, 7094
  204658, 6753, 6754, 6763, 6762, 7086, 7087, 7096, 7095
  204659, 6754, 6755, 6764, 6763, 7087, 7088, 7097, 7096
  204660, 6755, 6756, 6765, 6764, 7088, 7089, 7098, 7097
  204661, 6756, 6757, 6766, 6765, 7089, 7090, 7099, 7098
  204662, 6757, 6758, 6767, 6766, 7090, 7091, 7100, 7099
  204663, 6758, 6759, 6768, 6767, 7091, 7092, 7101, 7100
  204664, 6760, 6761, 6770, 6769, 7093, 7094, 7103, 7102
  204665, 6761, 6762, 6771, 6770, 7094, 7095, 7104, 7103
  204666, 6762, 6763, 6772, 6771, 7095, 7096, 7105, 7104
  204667, 6763, 6764, 6773, 6772, 7096, 7097, 7106, 7105
  204668, 6764, 6765, 6774, 6773, 7097, 7098, 7107, 7106
  204669, 6765, 6766, 6775, 6774, 7098, 7099, 7108, 7107
  204670, 6766, 6767, 6776, 6775, 7099, 7100, 7109, 7108
  204671, 6767, 6768, 6777, 6776, 7100, 7101, 7110, 7109
  204672, 6769, 6770, 6779, 6778, 7102, 7103, 7112, 7111
  204673, 6770, 6771, 6780, 6779, 7103, 7104, 7113, 7112
  204674, 6771, 6772, 6781, 6780, 7104, 7105, 7114, 7113
  204675, 6772, 6773, 6782, 6781, 7105, 7106, 7115, 7114
  204676, 6773, 6774, 6783, 6782, 7106, 7107, 7116, 7115
  204677, 6774, 6775, 6784, 6783, 7107, 7108, 7117, 7116
  204678, 6775, 6776, 6785, 6784, 7108, 7109, 7118, 7117
  204679, 6776, 6777, 6786, 6785, 7109, 7110, 7119, 7118
  204680, 6778, 6779, 6788, 6787, 7111, 7112, 7121, 7120
  204681, 6779, 6780, 6789, 6788, 7112, 7113, 7122, 7121
  204682, 6780, 6781, 6790, 6789, 7113, 7114, 7123, 7122
  204683, 6781, 6782, 6791, 6790, 7114, 7115, 7124, 7123
  204684, 6782, 6783, 6792, 6791, 7115, 7116, 7125, 7124
  204685, 6783, 6784, 6793, 6792, 7116, 7117, 7126, 7125
  204686, 6784, 6785, 6794, 6793, 7117, 7118, 7127, 7126
  204687, 6785, 6786, 6795, 6794, 7118, 7119, 7128, 7127
  204688, 6787, 6788, 6797, 6796, 7120, 7121, 7130, 7129
  204689, 6788, 6789, 6798, 6797, 7121, 7122, 7131, 7130
  204690, 6789, 6790, 6799, 6798, 7122, 7123, 7132, 7131
  204691, 6790, 6791, 6800, 6799, 7123, 7124, 7133, 7132
  204692, 6791, 6792, 6801, 6800, 7124, 7125, 7134, 7133
  204693, 6792, 6793, 6802, 6801, 7125, 7126, 7135, 7134
  204694, 6793, 6794, 6803, 6802, 7126, 7127, 7136, 7135
  204695, 6794, 6795, 6804, 6803, 7127, 7128, 7137, 7136
  204696, 6796, 6797, 6806, 6805, 7129, 7130, 7139, 7138
  204697, 6797, 6798, 6807, 6806, 7130, 7131, 7140, 7139
  204698, 6798, 6799, 6808, 6807, 7131, 7132, 7141, 7140
  204699, 6799, 6800, 6809, 6808, 7132, 7133, 7142, 7141
  204700, 6800, 6801, 6810, 6809, 7133, 7134, 7143, 7142
  204701, 6801, 6802, 6811, 6810, 7134, 7135, 7144, 7143
  204702, 6802, 6803, 6812, 6811, 7135, 7136, 7145, 7144
  204703, 6803, 6804, 6813, 6812, 7136, 7137, 7146, 7145
  204704, 6805, 6806, 6815, 6814, 7138, 7139, 7148, 7147
  204705, 6806, 6807, 6816, 6815, 7139, 7140, 7149, 7148
  204706, 6807, 6808, 6817, 6816, 7140, 7141, 7150, 7149
  204707, 6808, 6809, 6818, 6817, 7141, 7142, 7151, 7150
  204708, 6809, 6810, 6819, 6818, 7142, 7143, 7152, 7151
  204709, 6810, 6811, 6820, 6819, 7143, 7144, 7153, 7152
  204710, 6811, 6812, 6821, 6820, 7144, 7145, 7154, 7153
  204711, 6812, 6813, 6822, 6821, 7145, 7146, 7155, 7154
  204712, 6814, 6815, 6824, 6823, 7147, 7148, 7157, 7156
  204713, 6815, 6816, 6825, 6824, 7148, 7149, 7158, 7157
  204714, 6816, 6817, 6826, 6825, 7149, 7150, 7159, 7158
  204715, 6817, 6818, 6827, 6826, 7150, 7151, 7160, 7159
  204716, 6818, 6819, 6828, 6827, 7151, 7152, 7161, 7160
  204717, 6819, 6820, 6829, 6828, 7152, 7153, 7162, 7161
  204718, 6820, 6821, 6830, 6829, 7153, 7154, 7163, 7162
  204719, 6821, 6822, 6831, 6830, 7154, 7155, 7164, 7163
  204720, 6823, 6824, 6833, 6832, 7156, 7157, 7166, 7165
  204721, 6824, 6825, 6834, 6833, 7157, 7158, 7167, 7166
  204722, 6825, 6826, 6835, 6834, 7158, 7159, 7168, 7167
  204723, 6826, 6827, 6836, 6835, 7159, 7160, 7169, 7168
  204724, 6827, 6828, 6837, 6836, 7160, 7161, 7170, 7169
  204725, 6828, 6829, 6838, 6837, 7161, 7162, 7171, 7170
  204726, 6829, 6830, 6839, 6838, 7162, 7163, 7172, 7171
  204727, 6830, 6831, 6840, 6839, 7163, 7164, 7173, 7172
  204728, 6832, 6833, 6842, 6841, 7165, 7166, 7175, 7174
  204729, 6833, 6834, 6843, 6842, 7166, 7167, 7176, 7175
  204730, 6834, 6835, 6844, 6843, 7167, 7168, 7177, 7176
  204731, 6835, 6836, 6845, 6844, 7168, 7169, 7178, 7177
  204732, 6836, 6837, 6846, 6845, 7169, 7170, 7179, 7178
  204733, 6837, 6838, 6847, 6846, 7170, 7171, 7180, 7179
  204734, 6838, 6839, 6848, 6847, 7171, 7172, 7181, 7180
  204735, 6839, 6840, 6849, 6848, 7172, 7173, 7182, 7181
  204736, 6841, 6842, 6851, 6850, 7174, 7175, 7184, 7183
  204737, 6842, 6843, 6852, 6851, 7175, 7176, 7185, 7184
  204738, 6843, 6844, 6853, 6852, 7176, 7177, 7186, 7185
  204739, 6844, 6845, 6854, 6853, 7177, 7178, 7187, 7186
  204740, 6845, 6846, 6855, 6854, 7178, 7179, 7188, 7187
  204741, 6846, 6847, 6856, 6855, 7179, 7180, 7189, 7188
  204742, 6847, 6848, 6857, 6856, 7180, 7181, 7190, 7189
  204743, 6848, 6849, 6858, 6857, 7181, 7182, 7191, 7190
  204744, 6850, 6851, 6860, 6859, 7183, 7184, 7193, 7192
  204745, 6851, 6852, 6861, 6860, 7184, 7185, 7194, 7193
  204746, 6852, 6853, 6862, 6861, 7185, 7186, 7195, 7194
  204747, 6853, 6854, 6863, 6862, 7186, 7187, 7196, 7195
  204748, 6854, 6855, 6864, 6863, 7187, 7188, 7197, 7196
  204749, 6855, 6856, 6865, 6864, 7188, 7189, 7198, 7197
  204750, 6856, 6857, 6866, 6865, 7189, 7190, 7199, 7198
  204751, 6857, 6858, 6867, 6866, 7190, 7191, 7200, 7199
  204752, 6859, 6860, 6869, 6868, 7192, 7193, 7202, 7201
  204753, 6860, 6861, 6870, 6869, 7193, 7194, 7203, 7202
  204754, 6861, 6862, 6871, 6870, 7194, 7195, 7204, 7203
  204755, 6862, 6863, 6872, 6871, 7195, 7196, 7205, 7204
  204756, 6863, 6864, 6873, 6872, 7196, 7197, 7206, 7205
  204757, 6864, 6865, 6874, 6873, 7197, 7198, 7207, 7206
  204758, 6865, 6866, 6875, 6874, 7198, 7199, 7208, 7207
  204759, 6866, 6867, 6876, 6875, 7199, 7200, 7209, 7208
  204760, 6868, 6869, 6878, 6877, 7201, 7202, 7211, 7210
  204761, 6869, 6870, 6879, 6878, 7202, 7203, 7212, 7211
  204762, 6870, 6871, 6880, 6879, 7203, 7204, 7213, 7212
  204763, 6871, 6872, 6881, 6880, 7204, 7205, 7214, 7213
  204764, 6872, 6873, 6882, 6881, 7205, 7206, 7215, 7214
  204765, 6873, 6874, 6883, 6882, 7206, 7207, 7216, 7215
  204766, 6874, 6875, 6884, 6883, 7207, 7208, 7217, 7216
  204767, 6875, 6876, 6885, 6884, 7208, 7209, 7218, 7217
  204768, 6877, 6878, 6887, 6886, 7210, 7211, 7220, 7219
  204769, 6878, 6879, 6888, 6887, 7211, 7212, 7221, 7220
  204770, 6879, 6880, 6889, 6888, 7212, 7213, 7222, 7221
  204771, 6880, 6881, 6890, 6889, 7213, 7214, 7223, 7222
  204772, 6881, 6882, 6891, 6890, 7214, 7215, 7224, 7223
  204773, 6882, 6883, 6892, 6891, 7215, 7216, 7225, 7224
  204774, 6883, 6884, 6893, 6892, 7216, 7217, 7226, 7225
  204775, 6884, 6885, 6894, 6893, 7217, 7218, 7227, 7226
  204776, 6886, 6887, 6896, 6895, 7219, 7220, 7229, 7228
  204777, 6887, 6888, 6897, 6896, 7220, 7221, 7230, 7229
  204778, 6888, 6889, 6898, 6897, 7221, 7222, 7231, 7230
  204779, 6889, 6890, 6899, 6898, 7222, 7223, 7232, 7231
  204780, 6890, 6891, 6900, 6899, 7223, 7224, 7233, 7232
  204781, 6891, 6892, 6901, 6900, 7224, 7225, 7234, 7233
  204782, 6892, 6893, 6902, 6901, 7225, 7226, 7235, 7234
  204783, 6893, 6894, 6903, 6902, 7226, 7227, 7236, 7235
  204784, 6895, 6896, 6905, 6904, 7228, 7229, 7238, 7237
  204785, 6896, 6897, 6906, 6905, 7229, 7230, 7239, 7238
  204786, 6897, 6898, 6907, 6906, 7230, 7231, 7240, 7239
  204787, 6898, 6899, 6908, 6907, 7231, 7232, 7241, 7240
  204788, 6899, 6900, 6909, 6908, 7232, 7233, 7242, 7241
  204789, 6900, 6901, 6910, 6909, 7233, 7234, 7243, 7242
  204790, 6901, 6902, 6911, 6910, 7234, 7235, 7244, 7243
  204791, 6902, 6903, 6912, 6911, 7235, 7236, 7245, 7244
  204792, 6904, 6905, 6914, 6913, 7237, 7238, 7247, 7246
  204793, 6905, 6906, 6915, 6914, 7238, 7239, 7248, 7247
  204794, 6906, 6907, 6916, 6915, 7239, 7240, 7249, 7248
  204795, 6907, 6908, 6917, 6916, 7240, 7241, 7250, 7249
  204796, 6908, 6909, 6918, 6917, 7241, 7242, 7251, 7250
  204797, 6909, 6910, 6919, 6918, 7242, 7243, 7252, 7251
  204798, 6910, 6911, 6920, 6919, 7243, 7244, 7253, 7252
  204799, 6911, 6912, 6921, 6920, 7244, 7245, 7254, 7253
  204800, 6913, 6914, 6923, 6922, 7246, 7247, 7256, 7255
  204801, 6914, 6915, 6924, 6923, 7247, 7248, 7257, 7256
  204802, 6915, 6916, 6925, 6924, 7248, 7249, 7258, 7257
  204803, 6916, 6917, 6926, 6925, 7249, 7250, 7259, 7258
  204804, 6917, 6918, 6927, 6926, 7250, 7251, 7260, 7259
  204805, 6918, 6919, 6928, 6927, 7251, 7252, 7261, 7260
  204806, 6919, 6920, 6929, 6928, 7252, 7253, 7262, 7261
  204807, 6920, 6921, 6930, 6929, 7253, 7254, 7263, 7262
  204808, 6922, 6923, 6932, 6931, 7255, 7256, 7265, 7264
  204809, 6923, 6924, 6933, 6932, 7256, 7257, 7266, 7265
  204810, 6924, 6925, 6934, 6933, 7257, 7258, 7267, 7266
  204811, 6925, 6926, 6935, 6934, 7258, 7259, 7268, 7267
  204812, 6926, 6927, 6936, 6935, 7259, 7260, 7269, 7268
  204813, 6927, 6928, 6937, 6936, 7260, 7261, 7270, 7269
  204814, 6928, 6929, 6938, 6937, 7261, 7262, 7271, 7270
  204815, 6929, 6930, 6939, 6938, 7262, 7263, 7272, 7271
  204816, 6931, 6932, 6941, 6940, 7264, 7265, 7274, 7273
  204817, 6932, 6933, 6942, 6941, 7265, 7266, 7275, 7274
  204818, 6933, 6934, 6943, 6942, 7266, 7267, 7276, 7275
  204819, 6934, 6935, 6944, 6943, 7267, 7268, 7277, 7276
  204820, 6935, 6936, 6945, 6944, 7268, 7269, 7278, 7277
  204821, 6936, 6937, 6946, 6945, 7269, 7270, 7279, 7278
  204822, 6937, 6938, 6947, 6946, 7270, 7271, 7280, 7279
  204823, 6938, 6939, 6948, 6947, 7271, 7272, 7281, 7280
  204824, 6940, 6941, 6950, 6949, 7273, 7274, 7283, 7282
  204825, 6941, 6942, 6951, 6950, 7274, 7275, 7284, 7283
  204826, 6942, 6943, 6952, 6951, 7275, 7276, 7285, 7284
  204827, 6943, 6944, 6953, 6952, 7276, 7277, 7286, 7285
  204828, 6944, 6945, 6954, 6953, 7277, 7278, 7287, 7286
  204829, 6945, 6946, 6955, 6954, 7278, 7279, 7288, 7287
  204830, 6946, 6947, 6956, 6955, 7279, 7280, 7289, 7288
  204831, 6947, 6948, 6957, 6956, 7280, 7281, 7290, 7289
  204832, 6949, 6950, 6959, 6958, 7282, 7283, 7292, 7291
  204833, 6950, 6951, 6960, 6959, 7283, 7284, 7293, 7292
  204834, 6951, 6952, 6961, 6960, 7284, 7285, 7294, 7293
  204835, 6952, 6953, 6962, 6961, 7285, 7286, 7295, 7294
  204836, 6953, 6954, 6963, 6962, 7286, 7287, 7296, 7295
  204837, 6954, 6955, 6964, 6963, 7287, 7288, 7297, 7296
  204838, 6955, 6956, 6965, 6964, 7288, 7289, 7298, 7297
  204839, 6956, 6957, 6966, 6965, 7289, 7290, 7299, 7298
  204840, 6958, 6959, 6968, 6967, 7291, 7292, 7301, 7300
  204841, 6959, 6960, 6969, 6968, 7292, 7293, 7302, 7301
  204842, 6960, 6961, 6970, 6969, 7293, 7294, 7303, 7302
  204843, 6961, 6962, 6971, 6970, 7294, 7295, 7304, 7303
  204844, 6962, 6963, 6972, 6971, 7295, 7296, 7305, 7304
  204845, 6963, 6964, 6973, 6972, 7296, 7297, 7306, 7305
  204846, 6964, 6965, 6974, 6973, 7297, 7298, 7307, 7306
  204847, 6965, 6966, 6975, 6974, 7298, 7299, 7308, 7307
  204848, 6967, 6968, 6977, 6976, 7300, 7301, 7310, 7309
  204849, 6968, 6969, 6978, 6977, 7301, 7302, 7311, 7310
  204850, 6969, 6970, 6979, 6978, 7302, 7303, 7312, 7311
  204851, 6970, 6971, 6980, 6979, 7303, 7304, 7313, 7312
  204852, 6971, 6972, 6981, 6980, 7304, 7305, 7314, 7313
  204853, 6972, 6973, 6982, 6981, 7305, 7306, 7315, 7314
  204854, 6973, 6974, 6983, 6982, 7306, 7307, 7316, 7315
  204855, 6974, 6975, 6984, 6983, 7307, 7308, 7317, 7316
  204856, 6976, 6977, 6986, 6985, 7309, 7310, 7319, 7318
  204857, 6977, 6978, 6987, 6986, 7310, 7311, 7320, 7319
  204858, 6978, 6979, 6988, 6987, 7311, 7312, 7321, 7320
  204859, 6979, 6980, 6989, 6988, 7312, 7313, 7322, 7321
  204860, 6980, 6981, 6990, 6989, 7313, 7314, 7323, 7322
  204861, 6981, 6982, 6991, 6990, 7314, 7315, 7324, 7323
  204862, 6982, 6983, 6992, 6991, 7315, 7316, 7325, 7324
  204863, 6983, 6984, 6993, 6992, 7316, 7317, 7326, 7325
  204864, 6985, 6986, 6995, 6994, 7318, 7319, 7328, 7327
  204865, 6986, 6987, 6996, 6995, 7319, 7320, 7329, 7328
  204866, 6987, 6988, 6997, 6996, 7320, 7321, 7330, 7329
  204867, 6988, 6989, 6998, 6997, 7321, 7322, 7331, 7330
  204868, 6989, 6990, 6999, 6998, 7322, 7323, 7332, 7331
  204869, 6990, 6991, 7000, 6999, 7323, 7324, 7333, 7332
  204870, 6991, 6992, 7001, 7000, 7324, 7325, 7334, 7333
  204871, 6992, 6993, 7002, 7001, 7325, 7326, 7335, 7334
  204872, 6994, 6995, 7004, 7003, 7327, 7328, 7337, 7336
  204873, 6995, 6996, 7005, 7004, 7328, 7329, 7338, 7337
  204874, 6996, 6997, 7006, 7005, 7329, 7330, 7339, 7338
  204875, 6997, 6998, 7007, 7006, 7330, 7331, 7340, 7339
  204876, 6998, 6999, 7008, 7007, 7331, 7332, 7341, 7340
  204877, 6999, 7000, 7009, 7008, 7332, 7333, 7342, 7341
  204878, 7000, 7001, 7010, 7009, 7333, 7334, 7343, 7342
  204879, 7001, 7002, 7011, 7010, 7334, 7335, 7344, 7343
  204880, 7003, 7004, 7013, 7012, 7336, 7337, 7346, 7345
  204881, 7004, 7005, 7014, 7013, 7337, 7338, 7347, 7346
  204882, 7005, 7006, 7015, 7014, 7338, 7339, 7348, 7347
  204883, 7006, 7007, 7016, 7015, 7339, 7340, 7349, 7348
  204884, 7007, 7008, 7017, 7016, 7340, 7341, 7350, 7349
  204885, 7008, 7009, 7018, 7017, 7341, 7342, 7351, 7350
  204886, 7009, 7010, 7019, 7018, 7342, 7343, 7352, 7351
  204887, 7010, 7011, 7020, 7019, 7343, 7344, 7353, 7352
  204888, 7012, 7013, 7022, 7021, 7345, 7346, 7355, 7354
  204889, 7013, 7014, 7023, 7022, 7346, 7347, 7356, 7355
  204890, 7014, 7015, 7024, 7023, 7347, 7348, 7357, 7356
  204891, 7015, 7016, 7025, 7024, 7348, 7349, 7358, 7357
  204892, 7016, 7017, 7026, 7025, 7349, 7350, 7359, 7358
  204893, 7017, 7018, 7027, 7026, 7350, 7351, 7360, 7359
  204894, 7018, 7019, 7028, 7027, 7351, 7352, 7361, 7360
  204895, 7019, 7020, 7029, 7028, 7352, 7353, 7362, 7361
  204896, 7030, 7031, 7040, 7039, 7363, 7364, 7373, 7372
  204897, 7031, 7032, 7041, 7040, 7364, 7365, 7374, 7373
  204898, 7032, 7033, 7042, 7041, 7365, 7366, 7375, 7374
  204899, 7033, 7034, 7043, 7042, 7366, 7367, 7376, 7375
  204900, 7034, 7035, 7044, 7043, 7367, 7368, 7377, 7376
  204901, 7035, 7036, 7045, 7044, 7368, 7369, 7378, 7377
  204902, 7036, 7037, 7046, 7045, 7369, 7370, 7379, 7378
  204903, 7037, 7038, 7047, 7046, 7370, 7371, 7380, 7379
  204904, 7039, 7040, 7049, 7048, 7372, 7373, 7382, 7381
  204905, 7040, 7041, 7050, 7049, 7373, 7374, 7383, 7382
  204906, 7041, 7042, 7051, 7050, 7374, 7375, 7384, 7383
  204907, 7042, 7043, 7052, 7051, 7375, 7376, 7385, 7384
  204908, 7043, 7044, 7053, 7052, 7376, 7377, 7386, 7385
  204909, 7044, 7045, 7054, 7053, 7377, 7378, 7387, 7386
  204910, 7045, 7046, 7055, 7054, 7378, 7379, 7388, 7387
  204911, 7046, 7047, 7056, 7055, 7379, 7380, 7389, 7388
  204912, 7048, 7049, 7058, 7057, 7381, 7382, 7391, 7390
  204913, 7049, 7050, 7059, 7058, 7382, 7383, 7392, 7391
  204914, 7050, 7051, 7060, 7059, 7383, 7384, 7393, 7392
  204915, 7051, 7052, 7061, 7060, 7384, 7385, 7394, 7393
  204916, 7052, 7053, 7062, 7061, 7385, 7386, 7395, 7394
  204917, 7053, 7054, 7063, 7062, 7386, 7387, 7396, 7395
  204918, 7054, 7055, 7064, 7063, 7387, 7388, 7397, 7396
  204919, 7055, 7056, 7065, 7064, 7388, 7389, 7398, 7397
  204920, 7057, 7058, 7067, 7066, 7390, 7391, 7400, 7399
  204921, 7058, 7059, 7068, 7067, 7391, 7392, 7401, 7400
  204922, 7059, 7060, 7069, 7068, 7392, 7393, 7402, 7401
  204923, 7060, 7061, 7070, 7069, 7393, 7394, 7403, 7402
  204924, 7061, 7062, 7071, 7070, 7394, 7395, 7404, 7403
  204925, 7062, 7063, 7072, 7071, 7395, 7396, 7405, 7404
  204926, 7063, 7064, 7073, 7072, 7396, 7397, 7406, 7405
  204927, 7064, 7065, 7074, 7073, 7397, 7398, 7407, 7406
  204928, 7066, 7067, 7076, 7075, 7399, 7400, 7409, 7408
  204929, 7067, 7068, 7077, 7076, 7400, 7401, 7410, 7409
  204930, 7068, 7069, 7078, 7077, 7401, 7402, 7411, 7410
  204931, 7069, 7070, 7079, 7078, 7402, 7403, 7412, 7411
  204932, 7070, 7071, 7080, 7079, 7403, 7404, 7413, 7412
  204933, 7071, 7072, 7081, 7080, 7404, 7405, 7414, 7413
  204934, 7072, 7073, 7082, 7081, 7405, 7406, 7415, 7414
  204935, 7073, 7074, 7083, 7082, 7406, 7407, 7416, 7415
  204936, 7075, 7076, 7085, 7084, 7408, 7409, 7418, 7417
  204937, 7076, 7077, 7086, 7085, 7409, 7410, 7419, 7418
  204938, 7077, 7078, 7087, 7086, 7410, 7411, 7420, 7419
  204939, 7078, 7079, 7088, 7087, 7411, 7412, 7421, 7420
  204940, 7079, 7080, 7089, 7088, 7412, 7413, 7422, 7421
  204941, 7080, 7081, 7090, 7089, 7413, 7414, 7423, 7422
  204942, 7081, 7082, 7091, 7090, 7414, 7415, 7424, 7423
  204943, 7082, 7083, 7092, 7091, 7415, 7416, 7425, 7424
  204944, 7084, 7085, 7094, 7093, 7417, 7418, 7427, 7426
  204945, 7085, 7086, 7095, 7094, 7418, 7419, 7428, 7427
  204946, 7086, 7087, 7096, 7095, 7419, 7420, 7429, 7428
  204947, 7087, 7088, 7097, 7096, 7420, 7421, 7430, 7429
  204948, 7088, 7089, 7098, 7097, 7421, 7422, 7431, 7430
  204949, 7089, 7090, 7099, 7098, 7422, 7423, 7432, 7431
  204950, 7090, 7091, 7100, 7099, 7423, 7424, 7433, 7432
  204951, 7091, 7092, 7101, 7100, 7424, 7425, 7434, 7433
  204952, 7093, 7094, 7103, 7102, 7426, 7427, 7436, 7435
  204953, 7094, 7095, 7104, 7103, 7427, 7428, 7437, 7436
  204954, 7095, 7096, 7105, 7104, 7428, 7429, 7438, 7437
  204955, 7096, 7097, 7106, 7105, 7429, 7430, 7439, 7438
  204956, 7097, 7098, 7107, 7106, 7430, 7431, 7440, 7439
  204957, 7098, 7099, 7108, 7107, 7431, 7432, 7441, 7440
  204958, 7099, 7100, 7109, 7108, 7432, 7433, 7442, 7441
  204959, 7100, 7101, 7110, 7109, 7433, 7434, 7443, 7442
  204960, 7102, 7103, 7112, 7111, 7435, 7436, 7445, 7444
  204961, 7103, 7104, 7113, 7112, 7436, 7437, 7446, 7445
  204962, 7104, 7105, 7114, 7113, 7437, 7438, 7447, 7446
  204963, 7105, 7106, 7115, 7114, 7438, 7439, 7448, 7447
  204964, 7106, 7107, 7116, 7115, 7439, 7440, 7449, 7448
  204965, 7107, 7108, 7117, 7116, 7440, 7441, 7450, 7449
  204966, 7108, 7109, 7118, 7117, 7441, 7442, 7451, 7450
  204967, 7109, 7110, 7119, 7118, 7442, 7443, 7452, 7451
  204968, 7111, 7112, 7121, 7120, 7444, 7445, 7454, 7453
  204969, 7112, 7113, 7122, 7121, 7445, 7446, 7455, 7454
  204970, 7113, 7114, 7123, 7122, 7446, 7447, 7456, 7455
  204971, 7114, 7115, 7124, 7123, 7447, 7448, 7457, 7456
  204972, 7115, 7116, 7125, 7124, 7448, 7449, 7458, 7457
  204973, 7116, 7117, 7126, 7125, 7449, 7450, 7459, 7458
  204974, 7117, 7118, 7127, 7126, 7450, 7451, 7460, 7459
  204975, 7118, 7119, 7128, 7127, 7451, 7452, 7461, 7460
  204976, 7120, 7121, 7130, 7129, 7453, 7454, 7463, 7462
  204977, 7121, 7122, 7131, 7130, 7454, 7455, 7464, 7463
  204978, 7122, 7123, 7132, 7131, 7455, 7456, 7465, 7464
  204979, 7123, 7124, 7133, 7132, 7456, 7457, 7466, 7465
  204980, 7124, 7125, 7134, 7133, 7457, 7458, 7467, 7466
  204981, 7125, 7126, 7135, 7134, 7458, 7459, 7468, 7467
  204982, 7126, 7127, 7136, 7135, 7459, 7460, 7469, 7468
  204983, 7127, 7128, 7137, 7136, 7460, 7461, 7470, 7469
  204984, 7129, 7130, 7139, 7138, 7462, 7463, 7472, 7471
  204985, 7130, 7131, 7140, 7139, 7463, 7464, 7473, 7472
  204986, 7131, 7132, 7141, 7140, 7464, 7465, 7474, 7473
  204987, 7132, 7133, 7142, 7141, 7465, 7466, 7475, 7474
  204988, 7133, 7134, 7143, 7142, 7466, 7467, 7476, 7475
  204989, 7134, 7135, 7144, 7143, 7467, 7468, 7477, 7476
  204990, 7135, 7136, 7145, 7144, 7468, 7469, 7478, 7477
  204991, 7136, 7137, 7146, 7145, 7469, 7470, 7479, 7478
  204992, 7138, 7139, 7148, 7147, 7471, 7472, 7481, 7480
  204993, 7139, 7140, 7149, 7148, 7472, 7473, 7482, 7481
  204994, 7140, 7141, 7150, 7149, 7473, 7474, 7483, 7482
  204995, 7141, 7142, 7151, 7150, 7474, 7475, 7484, 7483
  204996, 7142, 7143, 7152, 7151, 7475, 7476, 7485, 7484
  204997, 7143, 7144, 7153, 7152, 7476, 7477, 7486, 7485
  204998, 7144, 7145, 7154, 7153, 7477, 7478, 7487, 7486
  204999, 7145, 7146, 7155, 7154, 7478, 7479, 7488, 7487
  205000, 7147, 7148, 7157, 7156, 7480, 7481, 7490, 7489
  205001, 7148, 7149, 7158, 7157, 7481, 7482, 7491, 7490
  205002, 7149, 7150, 7159, 7158, 7482, 7483, 7492, 7491
  205003, 7150, 7151, 7160, 7159, 7483, 7484, 7493, 7492
  205004, 7151, 7152, 7161, 7160, 7484, 7485, 7494, 7493
  205005, 7152, 7153, 7162, 7161, 7485, 7486, 7495, 7494
  205006, 7153, 7154, 7163, 7162, 7486, 7487, 7496, 7495
  205007, 7154, 7155, 7164, 7163, 7487, 7488, 7497, 7496
  205008, 7156, 7157, 7166, 7165, 7489, 7490, 7499, 7498
  205009, 7157, 7158, 7167, 7166, 7490, 7491, 7500, 7499
  205010, 7158, 7159, 7168, 7167, 7491, 7492, 7501, 7500
  205011, 7159, 7160, 7169, 7168, 7492, 7493, 7502, 7501
  205012, 7160, 7161, 7170, 7169, 7493, 7494, 7503, 7502
  205013, 7161, 7162, 7171, 7170, 7494, 7495, 7504, 7503
  205014, 7162, 7163, 7172, 7171, 7495, 7496, 7505, 7504
  205015, 7163, 7164, 7173, 7172, 7496, 7497, 7506, 7505
  205016, 7165, 7166, 7175, 7174, 7498, 7499, 7508, 7507
  205017, 7166, 7167, 7176, 7175, 7499, 7500, 7509, 7508
  205018, 7167, 7168, 7177, 7176, 7500, 7501, 7510, 7509
  205019, 7168, 7169, 7178, 7177, 7501, 7502, 7511, 7510
  205020, 7169, 7170, 7179, 7178, 7502, 7503, 7512, 7511
  205021, 7170, 7171, 7180, 7179, 7503, 7504, 7513, 7512
  205022, 7171, 7172, 7181, 7180, 7504, 7505, 7514, 7513
  205023, 7172, 7173, 7182, 7181, 7505, 7506, 7515, 7514
  205024, 7174, 7175, 7184, 7183, 7507, 7508, 7517, 7516
  205025, 7175, 7176, 7185, 7184, 7508, 7509, 7518, 7517
  205026, 7176, 7177, 7186, 7185, 7509, 7510, 7519, 7518
  205027, 7177, 7178, 7187, 7186, 7510, 7511, 7520, 7519
  205028, 7178, 7179, 7188, 7187, 7511, 7512, 7521, 7520
  205029, 7179, 7180, 7189, 7188, 7512, 7513, 7522, 7521
  205030, 7180, 7181, 7190, 7189, 7513, 7514, 7523, 7522
  205031, 7181, 7182, 7191, 7190, 7514, 7515, 7524, 7523
  205032, 7183, 7184, 7193, 7192, 7516, 7517, 7526, 7525
  205033, 7184, 7185, 7194, 7193, 7517, 7518, 7527, 7526
  205034, 7185, 7186, 7195, 7194, 7518, 7519, 7528, 7527
  205035, 7186, 7187, 7196, 7195, 7519, 7520, 7529, 7528
  205036, 7187, 7188, 7197, 7196, 7520, 7521, 7530, 7529
  205037, 7188, 7189, 7198, 7197, 7521, 7522, 7531, 7530
  205038, 7189, 7190, 7199, 7198, 7522, 7523, 7532, 7531
  205039, 7190, 7191, 7200, 7199, 7523, 7524, 7533, 7532
  205040, 7192, 7193, 7202, 7201, 7525, 7526, 7535, 7534
  205041, 7193, 7194, 7203, 7202, 7526, 7527, 7536, 7535
  205042, 7194, 7195, 7204, 7203, 7527, 7528, 7537, 7536
  205043, 7195, 7196, 7205, 7204, 7528, 7529, 7538, 7537
  205044, 7196, 7197, 7206, 7205, 7529, 7530, 7539, 7538
  205045, 7197, 7198, 7207, 7206, 7530, 7531, 7540, 7539
  205046, 7198, 7199, 7208, 7207, 7531, 7532, 7541, 7540
  205047, 7199, 7200, 7209, 7208, 7532, 7533, 7542, 7541
  205048, 7201, 7202, 7211, 7210, 7534, 7535, 7544, 7543
  205049, 7202, 7203, 7212, 7211, 7535, 7536, 7545, 7544
  205050, 7203, 7204, 7213, 7212, 7536, 7537, 7546, 7545
  205051, 7204, 7205, 7214, 7213, 7537, 7538, 7547, 7546
  205052, 7205, 7206, 7215, 7214, 7538, 7539, 7548, 7547
  205053, 7206, 7207, 7216, 7215, 7539, 7540, 7549, 7548
  205054, 7207, 7208, 7217, 7216, 7540, 7541, 7550, 7549
  205055, 7208, 7209, 7218, 7217, 7541, 7542, 7551, 7550
  205056, 7210, 7211, 7220, 7219, 7543, 7544, 7553, 7552
  205057, 7211, 7212, 7221, 7220, 7544, 7545, 7554, 7553
  205058, 7212, 7213, 7222, 7221, 7545, 7546, 7555, 7554
  205059, 7213, 7214, 7223, 7222, 7546, 7547, 7556, 7555
  205060, 7214, 7215, 7224, 7223, 7547, 7548, 7557, 7556
  205061, 7215, 7216, 7225, 7224, 7548, 7549, 7558, 7557
  205062, 7216, 7217, 7226, 7225, 7549, 7550, 7559, 7558
  205063, 7217, 7218, 7227, 7226, 7550, 7551, 7560, 7559
  205064, 7219, 7220, 7229, 7228, 7552, 7553, 7562, 7561
  205065, 7220, 7221, 7230, 7229, 7553, 7554, 7563, 7562
  205066, 7221, 7222, 7231, 7230, 7554, 7555, 7564, 7563
  205067, 7222, 7223, 7232, 7231, 7555, 7556, 7565, 7564
  205068, 7223, 7224, 7233, 7232, 7556, 7557, 7566, 7565
  205069, 7224, 7225, 7234, 7233, 7557, 7558, 7567, 7566
  205070, 7225, 7226, 7235, 7234, 7558, 7559, 7568, 7567
  205071, 7226, 7227, 7236, 7235, 7559, 7560, 7569, 7568
  205072, 7228, 7229, 7238, 7237, 7561, 7562, 7571, 7570
  205073, 7229, 7230, 7239, 7238, 7562, 7563, 7572, 7571
  205074, 7230, 7231, 7240, 7239, 7563, 7564, 7573, 7572
  205075, 7231, 7232, 7241, 7240, 7564, 7565, 7574, 7573
  205076, 7232, 7233, 7242, 7241, 7565, 7566, 7575, 7574
  205077, 7233, 7234, 7243, 7242, 7566, 7567, 7576, 7575
  205078, 7234, 7235, 7244, 7243, 7567, 7568, 7577, 7576
  205079, 7235, 7236, 7245, 7244, 7568, 7569, 7578, 7577
  205080, 7237, 7238, 7247, 7246, 7570, 7571, 7580, 7579
  205081, 7238, 7239, 7248, 7247, 7571, 7572, 7581, 7580
  205082, 7239, 7240, 7249, 7248, 7572, 7573, 7582, 7581
  205083, 7240, 7241, 7250, 7249, 7573, 7574, 7583, 7582
  205084, 7241, 7242, 7251, 7250, 7574, 7575, 7584, 7583
  205085, 7242, 7243, 7252, 7251, 7575, 7576, 7585, 7584
  205086, 7243, 7244, 7253, 7252, 7576, 7577, 7586, 7585
  205087, 7244, 7245, 7254, 7253, 7577, 7578, 7587, 7586
  205088, 7246, 7247, 7256, 7255, 7579, 7580, 7589, 7588
  205089, 7247, 7248, 7257, 7256, 7580, 7581, 7590, 7589
  205090, 7248, 7249, 7258, 7257, 7581, 7582, 7591, 7590
  205091, 7249, 7250, 7259, 7258, 7582, 7583, 7592, 7591
  205092, 7250, 7251, 7260, 7259, 7583, 7584, 7593, 7592
  205093, 7251, 7252, 7261, 7260, 7584, 7585, 7594, 7593
  205094, 7252, 7253, 7262, 7261, 7585, 7586, 7595, 7594
  205095, 7253, 7254, 7263, 7262, 7586, 7587, 7596, 7595
  205096, 7255, 7256, 7265, 7264, 7588, 7589, 7598, 7597
  205097, 7256, 7257, 7266, 7265, 7589, 7590, 7599, 7598
  205098, 7257, 7258, 7267, 7266, 7590, 7591, 7600, 7599
  205099, 7258, 7259, 7268, 7267, 7591, 7592, 7601, 7600
  205100, 7259, 7260, 7269, 7268, 7592, 7593, 7602, 7601
  205101, 7260, 7261, 7270, 7269, 7593, 7594, 7603, 7602
  205102, 7261, 7262, 7271, 7270, 7594, 7595, 7604, 7603
  205103, 7262, 7263, 7272, 7271, 7595, 7596, 7605, 7604
  205104, 7264, 7265, 7274, 7273, 7597, 7598, 7607, 7606
  205105, 7265, 7266, 7275, 7274, 7598, 7599, 7608, 7607
  205106, 7266, 7267, 7276, 7275, 7599, 7600, 7609, 7608
  205107, 7267, 7268, 7277, 7276, 7600, 7601, 7610, 7609
  205108, 7268, 7269, 7278, 7277, 7601, 7602, 7611, 7610
  205109, 7269, 7270, 7279, 7278, 7602, 7603, 7612, 7611
  205110, 7270, 7271, 7280, 7279, 7603, 7604, 7613, 7612
  205111, 7271, 7272, 7281, 7280, 7604, 7605, 7614, 7613
  205112, 7273, 7274, 7283, 7282, 7606, 7607, 7616, 7615
  205113, 7274, 7275, 7284, 7283, 7607, 7608, 7617, 7616
  205114, 7275, 7276, 7285, 7284, 7608, 7609, 7618, 7617
  205115, 7276, 7277, 7286, 7285, 7609, 7610, 7619, 7618
  205116, 7277, 7278, 7287, 7286, 7610, 7611, 7620, 7619
  205117, 7278, 7279, 7288, 7287, 7611, 7612, 7621, 7620
  205118, 7279, 7280, 7289, 7288, 7612, 7613, 7622, 7621
  205119, 7280, 7281, 7290, 7289, 7613, 7614, 7623, 7622
  205120, 7282, 7283, 7292, 7291, 7615, 7616, 7625, 7624
  205121, 7283, 7284, 7293, 7292, 7616, 7617, 7626, 7625
  205122, 7284, 7285, 7294, 7293, 7617, 7618, 7627, 7626
  205123, 7285, 7286, 7295, 7294, 7618, 7619, 7628, 7627
  205124, 7286, 7287, 7296, 7295, 7619, 7620, 7629, 7628
  205125, 7287, 7288, 7297, 7296, 7620, 7621, 7630, 7629
  205126, 7288, 7289, 7298, 7297, 7621, 7622, 7631, 7630
  205127, 7289, 7290, 7299, 7298, 7622, 7623, 7632, 7631
  205128, 7291, 7292, 7301, 7300, 7624, 7625, 7634, 7633
  205129, 7292, 7293, 7302, 7301, 7625, 7626, 7635, 7634
  205130, 7293, 7294, 7303, 7302, 7626, 7627, 7636, 7635
  205131, 7294, 7295, 7304, 7303, 7627, 7628, 7637, 7636
  205132, 7295, 7296, 7305, 7304, 7628, 7629, 7638, 7637
  205133, 7296, 7297, 7306, 7305, 7629, 7630, 7639, 7638
  205134, 7297, 7298, 7307, 7306, 7630, 7631, 7640, 7639
  205135, 7298, 7299, 7308, 7307, 7631, 7632, 7641, 7640
  205136, 7300, 7301, 7310, 7309, 7633, 7634, 7643, 7642
  205137, 7301, 7302, 7311, 7310, 7634, 7635, 7644, 7643
  205138, 7302, 7303, 7312, 7311, 7635, 7636, 7645, 7644
  205139, 7303, 7304, 7313, 7312, 7636, 7637, 7646, 7645
  205140, 7304, 7305, 7314, 7313, 7637, 7638, 7647, 7646
  205141, 7305, 7306, 7315, 7314, 7638, 7639, 7648, 7647
  205142, 7306, 7307, 7316, 7315, 7639, 7640, 7649, 7648
  205143, 7307, 7308, 7317, 7316, 7640, 7641, 7650, 7649
  205144, 7309, 7310, 7319, 7318, 7642, 7643, 7652, 7651
  205145, 7310, 7311, 7320, 7319, 7643, 7644, 7653, 7652
  205146, 7311, 7312, 7321, 7320, 7644, 7645, 7654, 7653
  205147, 7312, 7313, 7322, 7321, 7645, 7646, 7655, 7654
  205148, 7313, 7314, 7323, 7322, 7646, 7647, 7656, 7655
  205149, 7314, 7315, 7324, 7323, 7647, 7648, 7657, 7656
  205150, 7315, 7316, 7325, 7324, 7648, 7649, 7658, 7657
  205151, 7316, 7317, 7326, 7325, 7649, 7650, 7659, 7658
  205152, 7318, 7319, 7328, 7327, 7651, 7652, 7661, 7660
  205153, 7319, 7320, 7329, 7328, 7652, 7653, 7662, 7661
  205154, 7320, 7321, 7330, 7329, 7653, 7654, 7663, 7662
  205155, 7321, 7322, 7331, 7330, 7654, 7655, 7664, 7663
  205156, 7322, 7323, 7332, 7331, 7655, 7656, 7665, 7664
  205157, 7323, 7324, 7333, 7332, 7656, 7657, 7666, 7665
  205158, 7324, 7325, 7334, 7333, 7657, 7658, 7667, 7666
  205159, 7325, 7326, 7335, 7334, 7658, 7659, 7668, 7667
  205160, 7327, 7328, 7337, 7336, 7660, 7661, 7670, 7669
  205161, 7328, 7329, 7338, 7337, 7661, 7662, 7671, 7670
  205162, 7329, 7330, 7339, 7338, 7662, 7663, 7672, 7671
  205163, 7330, 7331, 7340, 7339, 7663, 7664, 7673, 7672
  205164, 7331, 7332, 7341, 7340, 7664, 7665, 7674, 7673
  205165, 7332, 7333, 7342, 7341, 7665, 7666, 7675, 7674
  205166, 7333, 7334, 7343, 7342, 7666, 7667, 7676, 7675
  205167, 7334, 7335, 7344, 7343, 7667, 7668, 7677, 7676
  205168, 7336, 7337, 7346, 7345, 7669, 7670, 7679, 7678
  205169, 7337, 7338, 7347, 7346, 7670, 7671, 7680, 7679
  205170, 7338, 7339, 7348, 7347, 7671, 7672, 7681, 7680
  205171, 7339, 7340, 7349, 7348, 7672, 7673, 7682, 7681
  205172, 7340, 7341, 7350, 7349, 7673, 7674, 7683, 7682
  205173, 7341, 7342, 7351, 7350, 7674, 7675, 7684, 7683
  205174, 7342, 7343, 7352, 7351, 7675, 7676, 7685, 7684
  205175, 7343, 7344, 7353, 7352, 7676, 7677, 7686, 7685
  205176, 7345, 7346, 7355, 7354, 7678, 7679, 7688, 7687
  205177, 7346, 7347, 7356, 7355, 7679, 7680, 7689, 7688
  205178, 7347, 7348, 7357, 7356, 7680, 7681, 7690, 7689
  205179, 7348, 7349, 7358, 7357, 7681, 7682, 7691, 7690
  205180, 7349, 7350, 7359, 7358, 7682, 7683, 7692, 7691
  205181, 7350, 7351, 7360, 7359, 7683, 7684, 7693, 7692
  205182, 7351, 7352, 7361, 7360, 7684, 7685, 7694, 7693
  205183, 7352, 7353, 7362, 7361, 7685, 7686, 7695, 7694
  205184, 7363, 7364, 7373, 7372, 7696, 7697, 7706, 7705
  205185, 7364, 7365, 7374, 7373, 7697, 7698, 7707, 7706
  205186, 7365, 7366, 7375, 7374, 7698, 7699, 7708, 7707
  205187, 7366, 7367, 7376, 7375, 7699, 7700, 7709, 7708
  205188, 7367, 7368, 7377, 7376, 7700, 7701, 7710, 7709
  205189, 7368, 7369, 7378, 7377, 7701, 7702, 7711, 7710
  205190, 7369, 7370, 7379, 7378, 7702, 7703, 7712, 7711
  205191, 7370, 7371, 7380, 7379, 7703, 7704, 7713, 7712
  205192, 7372, 7373, 7382, 7381, 7705, 7706, 7715, 7714
  205193, 7373, 7374, 7383, 7382, 7706, 7707, 7716, 7715
  205194, 7374, 7375, 7384, 7383, 7707, 7708, 7717, 7716
  205195, 7375, 7376, 7385, 7384, 7708, 7709, 7718, 7717
  205196, 7376, 7377, 7386, 7385, 7709, 7710, 7719, 7718
  205197, 7377, 7378, 7387, 7386, 7710, 7711, 7720, 7719
  205198, 7378, 7379, 7388, 7387, 7711, 7712, 7721, 7720
  205199, 7379, 7380, 7389, 7388, 7712, 7713, 7722, 7721
  205200, 7381, 7382, 7391, 7390, 7714, 7715, 7724, 7723
  205201, 7382, 7383, 7392, 7391, 7715, 7716, 7725, 7724
  205202, 7383, 7384, 7393, 7392, 7716, 7717, 7726, 7725
  205203, 7384, 7385, 7394, 7393, 7717, 7718, 7727, 7726
  205204, 7385, 7386, 7395, 7394, 7718, 7719, 7728, 7727
  205205, 7386, 7387, 7396, 7395, 7719, 7720, 7729, 7728
  205206, 7387, 7388, 7397, 7396, 7720, 7721, 7730, 7729
  205207, 7388, 7389, 7398, 7397, 7721, 7722, 7731, 7730
  205208, 7390, 7391, 7400, 7399, 7723, 7724, 7733, 7732
  205209, 7391, 7392, 7401, 7400, 7724, 7725, 7734, 7733
  205210, 7392, 7393, 7402, 7401, 7725, 7726, 7735, 7734
  205211, 7393, 7394, 7403, 7402, 7726, 7727, 7736, 7735
  205212, 7394, 7395, 7404, 7403, 7727, 7728, 7737, 7736
  205213, 7395, 7396, 7405, 7404, 7728, 7729, 7738, 7737
  205214, 7396, 7397, 7406, 7405, 7729, 7730, 7739, 7738
  205215, 7397, 7398, 7407, 7406, 7730, 7731, 7740, 7739
  205216, 7399, 7400, 7409, 7408, 7732, 7733, 7742, 7741
  205217, 7400, 7401, 7410, 7409, 7733, 7734, 7743, 7742
  205218, 7401, 7402, 7411, 7410, 7734, 7735, 7744, 7743
  205219, 7402, 7403, 7412, 7411, 7735, 7736, 7745, 7744
  205220, 7403, 7404, 7413, 7412, 7736, 7737, 7746, 7745
  205221, 7404, 7405, 7414, 7413, 7737, 7738, 7747, 7746
  205222, 7405, 7406, 7415, 7414, 7738, 7739, 7748, 7747
  205223, 7406, 7407, 7416, 7415, 7739, 7740, 7749, 7748
  205224, 7408, 7409, 7418, 7417, 7741, 7742, 7751, 7750
  205225, 7409, 7410, 7419, 7418, 7742, 7743, 7752, 7751
  205226, 7410, 7411, 7420, 7419, 7743, 7744, 7753, 7752
  205227, 7411, 7412, 7421, 7420, 7744, 7745, 7754, 7753
  205228, 7412, 7413, 7422, 7421, 7745, 7746, 7755, 7754
  205229, 7413, 7414, 7423, 7422, 7746, 7747, 7756, 7755
  205230, 7414, 7415, 7424, 7423, 7747, 7748, 7757, 7756
  205231, 7415, 7416, 7425, 7424, 7748, 7749, 7758, 7757
  205232, 7417, 7418, 7427, 7426, 7750, 7751, 7760, 7759
  205233, 7418, 7419, 7428, 7427, 7751, 7752, 7761, 7760
  205234, 7419, 7420, 7429, 7428, 7752, 7753, 7762, 7761
  205235, 7420, 7421, 7430, 7429, 7753, 7754, 7763, 7762
  205236, 7421, 7422, 7431, 7430, 7754, 7755, 7764, 7763
  205237, 7422, 7423, 7432, 7431, 7755, 7756, 7765, 7764
  205238, 7423, 7424, 7433, 7432, 7756, 7757, 7766, 7765
  205239, 7424, 7425, 7434, 7433, 7757, 7758, 7767, 7766
  205240, 7426, 7427, 7436, 7435, 7759, 7760, 7769, 7768
  205241, 7427, 7428, 7437, 7436, 7760, 7761, 7770, 7769
  205242, 7428, 7429, 7438, 7437, 7761, 7762, 7771, 7770
  205243, 7429, 7430, 7439, 7438, 7762, 7763, 7772, 7771
  205244, 7430, 7431, 7440, 7439, 7763, 7764, 7773, 7772
  205245, 7431, 7432, 7441, 7440, 7764, 7765, 7774, 7773
  205246, 7432, 7433, 7442, 7441, 7765, 7766, 7775, 7774
  205247, 7433, 7434, 7443, 7442, 7766, 7767, 7776, 7775
  205248, 7435, 7436, 7445, 7444, 7768, 7769, 7778, 7777
  205249, 7436, 7437, 7446, 7445, 7769, 7770, 7779, 7778
  205250, 7437, 7438, 7447, 7446, 7770, 7771, 7780, 7779
  205251, 7438, 7439, 7448, 7447, 7771, 7772, 7781, 7780
  205252, 7439, 7440, 7449, 7448, 7772, 7773, 7782, 7781
  205253, 7440, 7441, 7450, 7449, 7773, 7774, 7783, 7782
  205254, 7441, 7442, 7451, 7450, 7774, 7775, 7784, 7783
  205255, 7442, 7443, 7452, 7451, 7775, 7776, 7785, 7784
  205256, 7444, 7445, 7454, 7453, 7777, 7778, 7787, 7786
  205257, 7445, 7446, 7455, 7454, 7778, 7779, 7788, 7787
  205258, 7446, 7447, 7456, 7455, 7779, 7780, 7789, 7788
  205259, 7447, 7448, 7457, 7456, 7780, 7781, 7790, 7789
  205260, 7448, 7449, 7458, 7457, 7781, 7782, 7791, 7790
  205261, 7449, 7450, 7459, 7458, 7782, 7783, 7792, 7791
  205262, 7450, 7451, 7460, 7459, 7783, 7784, 7793, 7792
  205263, 7451, 7452, 7461, 7460, 7784, 7785, 7794, 7793
  205264, 7453, 7454, 7463, 7462, 7786, 7787, 7796, 7795
  205265, 7454, 7455, 7464, 7463, 7787, 7788, 7797, 7796
  205266, 7455, 7456, 7465, 7464, 7788, 7789, 7798, 7797
  205267, 7456, 7457, 7466, 7465, 7789, 7790, 7799, 7798
  205268, 7457, 7458, 7467, 7466, 7790, 7791, 7800, 7799
  205269, 7458, 7459, 7468, 7467, 7791, 7792, 7801, 7800
  205270, 7459, 7460, 7469, 7468, 7792, 7793, 7802, 7801
  205271, 7460, 7461, 7470, 7469, 7793, 7794, 7803, 7802
  205272, 7462, 7463, 7472, 7471, 7795, 7796, 7805, 7804
  205273, 7463, 7464, 7473, 7472, 7796, 7797, 7806, 7805
  205274, 7464, 7465, 7474, 7473, 7797, 7798, 7807, 7806
  205275, 7465, 7466, 7475, 7474, 7798, 7799, 7808, 7807
  205276, 7466, 7467, 7476, 7475, 7799, 7800, 7809, 7808
  205277, 7467, 7468, 7477, 7476, 7800, 7801, 7810, 7809
  205278, 7468, 7469, 7478, 7477, 7801, 7802, 7811, 7810
  205279, 7469, 7470, 7479, 7478, 7802, 7803, 7812, 7811
  205280, 7471, 7472, 7481, 7480, 7804, 7805, 7814, 7813
  205281, 7472, 7473, 7482, 7481, 7805, 7806, 7815, 7814
  205282, 7473, 7474, 7483, 7482, 7806, 7807, 7816, 7815
  205283, 7474, 7475, 7484, 7483, 7807, 7808, 7817, 7816
  205284, 7475, 7476, 7485, 7484, 7808, 7809, 7818, 7817
  205285, 7476, 7477, 7486, 7485, 7809, 7810, 7819, 7818
  205286, 7477, 7478, 7487, 7486, 7810, 7811, 7820, 7819
  205287, 7478, 7479, 7488, 7487, 7811, 7812, 7821, 7820
  205288, 7480, 7481, 7490, 7489, 7813, 7814, 7823, 7822
  205289, 7481, 7482, 7491, 7490, 7814, 7815, 7824, 7823
  205290, 7482, 7483, 7492, 7491, 7815, 7816, 7825, 7824
  205291, 7483, 7484, 7493, 7492, 7816, 7817, 7826, 7825
  205292, 7484, 7485, 7494, 7493, 7817, 7818, 7827, 7826
  205293, 7485, 7486, 7495, 7494, 7818, 7819, 7828, 7827
  205294, 7486, 7487, 7496, 7495, 7819, 7820, 7829, 7828
  205295, 7487, 7488, 7497, 7496, 7820, 7821, 7830, 7829
  205296, 7489, 7490, 7499, 7498, 7822, 7823, 7832, 7831
  205297, 7490, 7491, 7500, 7499, 7823, 7824, 7833, 7832
  205298, 7491, 7492, 7501, 7500, 7824, 7825, 7834, 7833
  205299, 7492, 7493, 7502, 7501, 7825, 7826, 7835, 7834
  205300, 7493, 7494, 7503, 7502, 7826, 7827, 7836, 7835
  205301, 7494, 7495, 7504, 7503, 7827, 7828, 7837, 7836
  205302, 7495, 7496, 7505, 7504, 7828, 7829, 7838, 7837
  205303, 7496, 7497, 7506, 7505, 7829, 7830, 7839, 7838
  205304, 7498, 7499, 7508, 7507, 7831, 7832, 7841, 7840
  205305, 7499, 7500, 7509, 7508, 7832, 7833, 7842, 7841
  205306, 7500, 7501, 7510, 7509, 7833, 7834, 7843, 7842
  205307, 7501, 7502, 7511, 7510, 7834, 7835, 7844, 7843
  205308, 7502, 7503, 7512, 7511, 7835, 7836, 7845, 7844
  205309, 7503, 7504, 7513, 7512, 7836, 7837, 7846, 7845
  205310, 7504, 7505, 7514, 7513, 7837, 7838, 7847, 7846
  205311, 7505, 7506, 7515, 7514, 7838, 7839, 7848, 7847
  205312, 7507, 7508, 7517, 7516, 7840, 7841, 7850, 7849
  205313, 7508, 7509, 7518, 7517, 7841, 7842, 7851, 7850
  205314, 7509, 7510, 7519, 7518, 7842, 7843, 7852, 7851
  205315, 7510, 7511, 7520, 7519, 7843, 7844, 7853, 7852
  205316, 7511, 7512, 7521, 7520, 7844, 7845, 7854, 7853
  205317, 7512, 7513, 7522, 7521, 7845, 7846, 7855, 7854
  205318, 7513, 7514, 7523, 7522, 7846, 7847, 7856, 7855
  205319, 7514, 7515, 7524, 7523, 7847, 7848, 7857, 7856
  205320, 7516, 7517, 7526, 7525, 7849, 7850, 7859, 7858
  205321, 7517, 7518, 7527, 7526, 7850, 7851, 7860, 7859
  205322, 7518, 7519, 7528, 7527, 7851, 7852, 7861, 7860
  205323, 7519, 7520, 7529, 7528, 7852, 7853, 7862, 7861
  205324, 7520, 7521, 7530, 7529, 7853, 7854, 7863, 7862
  205325, 7521, 7522, 7531, 7530, 7854, 7855, 7864, 7863
  205326, 7522, 7523, 7532, 7531, 7855, 7856, 7865, 7864
  205327, 7523, 7524, 7533, 7532, 7856, 7857, 7866, 7865
  205328, 7525, 7526, 7535, 7534, 7858, 7859, 7868, 7867
  205329, 7526, 7527, 7536, 7535, 7859, 7860, 7869, 7868
  205330, 7527, 7528, 7537, 7536, 7860, 7861, 7870, 7869
  205331, 7528, 7529, 7538, 7537, 7861, 7862, 7871, 7870
  205332, 7529, 7530, 7539, 7538, 7862, 7863, 7872, 7871
  205333, 7530, 7531, 7540, 7539, 7863, 7864, 7873, 7872
  205334, 7531, 7532, 7541, 7540, 7864, 7865, 7874, 7873
  205335, 7532, 7533, 7542, 7541, 7865, 7866, 7875, 7874
  205336, 7534, 7535, 7544, 7543, 7867, 7868, 7877, 7876
  205337, 7535, 7536, 7545, 7544, 7868, 7869, 7878, 7877
  205338, 7536, 7537, 7546, 7545, 7869, 7870, 7879, 7878
  205339, 7537, 7538, 7547, 7546, 7870, 7871, 7880, 7879
  205340, 7538, 7539, 7548, 7547, 7871, 7872, 7881, 7880
  205341, 7539, 7540, 7549, 7548, 7872, 7873, 7882, 7881
  205342, 7540, 7541, 7550, 7549, 7873, 7874, 7883, 7882
  205343, 7541, 7542, 7551, 7550, 7874, 7875, 7884, 7883
  205344, 7543, 7544, 7553, 7552, 7876, 7877, 7886, 7885
  205345, 7544, 7545, 7554, 7553, 7877, 7878, 7887, 7886
  205346, 7545, 7546, 7555, 7554, 7878, 7879, 7888, 7887
  205347, 7546, 7547, 7556, 7555, 7879, 7880, 7889, 7888
  205348, 7547, 7548, 7557, 7556, 7880, 7881, 7890, 7889
  205349, 7548, 7549, 7558, 7557, 7881, 7882, 7891, 7890
  205350, 7549, 7550, 7559, 7558, 7882, 7883, 7892, 7891
  205351, 7550, 7551, 7560, 7559, 7883, 7884, 7893, 7892
  205352, 7552, 7553, 7562, 7561, 7885, 7886, 7895, 7894
  205353, 7553, 7554, 7563, 7562, 7886, 7887, 7896, 7895
  205354, 7554, 7555, 7564, 7563, 7887, 7888, 7897, 7896
  205355, 7555, 7556, 7565, 7564, 7888, 7889, 7898, 7897
  205356, 7556, 7557, 7566, 7565, 7889, 7890, 7899, 7898
  205357, 7557, 7558, 7567, 7566, 7890, 7891, 7900, 7899
  205358, 7558, 7559, 7568, 7567, 7891, 7892, 7901, 7900
  205359, 7559, 7560, 7569, 7568, 7892, 7893, 7902, 7901
  205360, 7561, 7562, 7571, 7570, 7894, 7895, 7904, 7903
  205361, 7562, 7563, 7572, 7571, 7895, 7896, 7905, 7904
  205362, 7563, 7564, 7573, 7572, 7896, 7897, 7906, 7905
  205363, 7564, 7565, 7574, 7573, 7897, 7898, 7907, 7906
  205364, 7565, 7566, 7575, 7574, 7898, 7899, 7908, 7907
  205365, 7566, 7567, 7576, 7575, 7899, 7900, 7909, 7908
  205366, 7567, 7568, 7577, 7576, 7900, 7901, 7910, 7909
  205367, 7568, 7569, 7578, 7577, 7901, 7902, 7911, 7910
  205368, 7570, 7571, 7580, 7579, 7903, 7904, 7913, 7912
  205369, 7571, 7572, 7581, 7580, 7904, 7905, 7914, 7913
  205370, 7572, 7573, 7582, 7581, 7905, 7906, 7915, 7914
  205371, 7573, 7574, 7583, 7582, 7906, 7907, 7916, 7915
  205372, 7574, 7575, 7584, 7583, 7907, 7908, 7917, 7916
  205373, 7575, 7576, 7585, 7584, 7908, 7909, 7918, 7917
  205374, 7576, 7577, 7586, 7585, 7909, 7910, 7919, 7918
  205375, 7577, 7578, 7587, 7586, 7910, 7911, 7920, 7919
  205376, 7579, 7580, 7589, 7588, 7912, 7913, 7922, 7921
  205377, 7580, 7581, 7590, 7589, 7913, 7914, 7923, 7922
  205378, 7581, 7582, 7591, 7590, 7914, 7915, 7924, 7923
  205379, 7582, 7583, 7592, 7591, 7915, 7916, 7925, 7924
  205380, 7583, 7584, 7593, 7592, 7916, 7917, 7926, 7925
  205381, 7584, 7585, 7594, 7593, 7917, 7918, 7927, 7926
  205382, 7585, 7586, 7595, 7594, 7918, 7919, 7928, 7927
  205383, 7586, 7587, 7596, 7595, 7919, 7920, 7929, 7928
  205384, 7588, 7589, 7598, 7597, 7921, 7922, 7931, 7930
  205385, 7589, 7590, 7599, 7598, 7922, 7923, 7932, 7931
  205386, 7590, 7591, 7600, 7599, 7923, 7924, 7933, 7932
  205387, 7591, 7592, 7601, 7600, 7924, 7925, 7934, 7933
  205388, 7592, 7593, 7602, 7601, 7925, 7926, 7935, 7934
  205389, 7593, 7594, 7603, 7602, 7926, 7927, 7936, 7935
  205390, 7594, 7595, 7604, 7603, 7927, 7928, 7937, 7936
  205391, 7595, 7596, 7605, 7604, 7928, 7929, 7938, 7937
  205392, 7597, 7598, 7607, 7606, 7930, 7931, 7940, 7939
  205393, 7598, 7599, 7608, 7607, 7931, 7932, 7941, 7940
  205394, 7599, 7600, 7609, 7608, 7932, 7933, 7942, 7941
  205395, 7600, 7601, 7610, 7609, 7933, 7934, 7943, 7942
  205396, 7601, 7602, 7611, 7610, 7934, 7935, 7944, 7943
  205397, 7602, 7603, 7612, 7611, 7935, 7936, 7945, 7944
  205398, 7603, 7604, 7613, 7612, 7936, 7937, 7946, 7945
  205399, 7604, 7605, 7614, 7613, 7937, 7938, 7947, 7946
  205400, 7606, 7607, 7616, 7615, 7939, 7940, 7949, 7948
  205401, 7607, 7608, 7617, 7616, 7940, 7941, 7950, 7949
  205402, 7608, 7609, 7618, 7617, 7941, 7942, 7951, 7950
  205403, 7609, 7610, 7619, 7618, 7942, 7943, 7952, 7951
  205404, 7610, 7611, 7620, 7619, 7943, 7944, 7953, 7952
  205405, 7611, 7612, 7621, 7620, 7944, 7945, 7954, 7953
  205406, 7612, 7613, 7622, 7621, 7945, 7946, 7955, 7954
  205407, 7613, 7614, 7623, 7622, 7946, 7947, 7956, 7955
  205408, 7615, 7616, 7625, 7624, 7948, 7949, 7958, 7957
  205409, 7616, 7617, 7626, 7625, 7949, 7950, 7959, 7958
  205410, 7617, 7618, 7627, 7626, 7950, 7951, 7960, 7959
  205411, 7618, 7619, 7628, 7627, 7951, 7952, 7961, 7960
  205412, 7619, 7620, 7629, 7628, 7952, 7953, 7962, 7961
  205413, 7620, 7621, 7630, 7629, 7953, 7954, 7963, 7962
  205414, 7621, 7622, 7631, 7630, 7954, 7955, 7964, 7963
  205415, 7622, 7623, 7632, 7631, 7955, 7956, 7965, 7964
  205416, 7624, 7625, 7634, 7633, 7957, 7958, 7967, 7966
  205417, 7625, 7626, 7635, 7634, 7958, 7959, 7968, 7967
  205418, 7626, 7627, 7636, 7635, 7959, 7960, 7969, 7968
  205419, 7627, 7628, 7637, 7636, 7960, 7961, 7970, 7969
  205420, 7628, 7629, 7638, 7637, 7961, 7962, 7971, 7970
  205421, 7629, 7630, 7639, 7638, 7962, 7963, 7972, 7971
  205422, 7630, 7631, 7640, 7639, 7963, 7964, 7973, 7972
  205423, 7631, 7632, 7641, 7640, 7964, 7965, 7974, 7973
  205424, 7633, 7634, 7643, 7642, 7966, 7967, 7976, 7975
  205425, 7634, 7635, 7644, 7643, 7967, 7968, 7977, 7976
  205426, 7635, 7636, 7645, 7644, 7968, 7969, 7978, 7977
  205427, 7636, 7637, 7646, 7645, 7969, 7970, 7979, 7978
  205428, 7637, 7638, 7647, 7646, 7970, 7971, 7980, 7979
  205429, 7638, 7639, 7648, 7647, 7971, 7972, 7981, 7980
  205430, 7639, 7640, 7649, 7648, 7972, 7973, 7982, 7981
  205431, 7640, 7641, 7650, 7649, 7973, 7974, 7983, 7982
  205432, 7642, 7643, 7652, 7651, 7975, 7976, 7985, 7984
  205433, 7643, 7644, 7653, 7652, 7976, 7977, 7986, 7985
  205434, 7644, 7645, 7654, 7653, 7977, 7978, 7987, 7986
  205435, 7645, 7646, 7655, 7654, 7978, 7979, 7988, 7987
  205436, 7646, 7647, 7656, 7655, 7979, 7980, 7989, 7988
  205437, 7647, 7648, 7657, 7656, 7980, 7981, 7990, 7989
  205438, 7648, 7649, 7658, 7657, 7981, 7982, 7991, 7990
  205439, 7649, 7650, 7659, 7658, 7982, 7983, 7992, 7991
  205440, 7651, 7652, 7661, 7660, 7984, 7985, 7994, 7993
  205441, 7652, 7653, 7662, 7661, 7985, 7986, 7995, 7994
  205442, 7653, 7654, 7663, 7662, 7986, 7987, 7996, 7995
  205443, 7654, 7655, 7664, 7663, 7987, 7988, 7997, 7996
  205444, 7655, 7656, 7665, 7664, 7988, 7989, 7998, 7997
  205445, 7656, 7657, 7666, 7665, 7989, 7990, 7999, 7998
  205446, 7657, 7658, 7667, 7666, 7990, 7991, 8000, 7999
  205447, 7658, 7659, 7668, 7667, 7991, 7992, 8001, 8000
  205448, 7660, 7661, 7670, 7669, 7993, 7994, 8003, 8002
  205449, 7661, 7662, 7671, 7670, 7994, 7995, 8004, 8003
  205450, 7662, 7663, 7672, 7671, 7995, 7996, 8005, 8004
  205451, 7663, 7664, 7673, 7672, 7996, 7997, 8006, 8005
  205452, 7664, 7665, 7674, 7673, 7997, 7998, 8007, 8006
  205453, 7665, 7666, 7675, 7674, 7998, 7999, 8008, 8007
  205454, 7666, 7667, 7676, 7675, 7999, 8000, 8009, 8008
  205455, 7667, 7668, 7677, 7676, 8000, 8001, 8010, 8009
  205456, 7669, 7670, 7679, 7678, 8002, 8003, 8012, 8011
  205457, 7670, 7671, 7680, 7679, 8003, 8004, 8013, 8012
  205458, 7671, 7672, 7681, 7680, 8004, 8005, 8014, 8013
  205459, 7672, 7673, 7682, 7681, 8005, 8006, 8015, 8014
  205460, 7673, 7674, 7683, 7682, 8006, 8007, 8016, 8015
  205461, 7674, 7675, 7684, 7683, 8007, 8008, 8017, 8016
  205462, 7675, 7676, 7685, 7684, 8008, 8009, 8018, 8017
  205463, 7676, 7677, 7686, 7685, 8009, 8010, 8019, 8018
  205464, 7678, 7679, 7688, 7687, 8011, 8012, 8021, 8020
  205465, 7679, 7680, 7689, 7688, 8012, 8013, 8022, 8021
  205466, 7680, 7681, 7690, 7689, 8013, 8014, 8023, 8022
  205467, 7681, 7682, 7691, 7690, 8014, 8015, 8024, 8023
  205468, 7682, 7683, 7692, 7691, 8015, 8016, 8025, 8024
  205469, 7683, 7684, 7693, 7692, 8016, 8017, 8026, 8025
  205470, 7684, 7685, 7694, 7693, 8017, 8018, 8027, 8026
  205471, 7685, 7686, 7695, 7694, 8018, 8019, 8028, 8027
  205472, 7696, 7697, 7706, 7705, 8029, 8030, 8039, 8038
  205473, 7697, 7698, 7707, 7706, 8030, 8031, 8040, 8039
  205474, 7698, 7699, 7708, 7707, 8031, 8032, 8041, 8040
  205475, 7699, 7700, 7709, 7708, 8032, 8033, 8042, 8041
  205476, 7700, 7701, 7710, 7709, 8033, 8034, 8043, 8042
  205477, 7701, 7702, 7711, 7710, 8034, 8035, 8044, 8043
  205478, 7702, 7703, 7712, 7711, 8035, 8036, 8045, 8044
  205479, 7703, 7704, 7713, 7712, 8036, 8037, 8046, 8045
  205480, 7705, 7706, 7715, 7714, 8038, 8039, 8048, 8047
  205481, 7706, 7707, 7716, 7715, 8039, 8040, 8049, 8048
  205482, 7707, 7708, 7717, 7716, 8040, 8041, 8050, 8049
  205483, 7708, 7709, 7718, 7717, 8041, 8042, 8051, 8050
  205484, 7709, 7710, 7719, 7718, 8042, 8043, 8052, 8051
  205485, 7710, 7711, 7720, 7719, 8043, 8044, 8053, 8052
  205486, 7711, 7712, 7721, 7720, 8044, 8045, 8054, 8053
  205487, 7712, 7713, 7722, 7721, 8045, 8046, 8055, 8054
  205488, 7714, 7715, 7724, 7723, 8047, 8048, 8057, 8056
  205489, 7715, 7716, 7725, 7724, 8048, 8049, 8058, 8057
  205490, 7716, 7717, 7726, 7725, 8049, 8050, 8059, 8058
  205491, 7717, 7718, 7727, 7726, 8050, 8051, 8060, 8059
  205492, 7718, 7719, 7728, 7727, 8051, 8052, 8061, 8060
  205493, 7719, 7720, 7729, 7728, 8052, 8053, 8062, 8061
  205494, 7720, 7721, 7730, 7729, 8053, 8054, 8063, 8062
  205495, 7721, 7722, 7731, 7730, 8054, 8055, 8064, 8063
  205496, 7723, 7724, 7733, 7732, 8056, 8057, 8066, 8065
  205497, 7724, 7725, 7734, 7733, 8057, 8058, 8067, 8066
  205498, 7725, 7726, 7735, 7734, 8058, 8059, 8068, 8067
  205499, 7726, 7727, 7736, 7735, 8059, 8060, 8069, 8068
  205500, 7727, 7728, 7737, 7736, 8060, 8061, 8070, 8069
  205501, 7728, 7729, 7738, 7737, 8061, 8062, 8071, 8070
  205502, 7729, 7730, 7739, 7738, 8062, 8063, 8072, 8071
  205503, 7730, 7731, 7740, 7739, 8063, 8064, 8073, 8072
  205504, 7732, 7733, 7742, 7741, 8065, 8066, 8075, 8074
  205505, 7733, 7734, 7743, 7742, 8066, 8067, 8076, 8075
  205506, 7734, 7735, 7744, 7743, 8067, 8068, 8077, 8076
  205507, 7735, 7736, 7745, 7744, 8068, 8069, 8078, 8077
  205508, 7736, 7737, 7746, 7745, 8069, 8070, 8079, 8078
  205509, 7737, 7738, 7747, 7746, 8070, 8071, 8080, 8079
  205510, 7738, 7739, 7748, 7747, 8071, 8072, 8081, 8080
  205511, 7739, 7740, 7749, 7748, 8072, 8073, 8082, 8081
  205512, 7741, 7742, 7751, 7750, 8074, 8075, 8084, 8083
  205513, 7742, 7743, 7752, 7751, 8075, 8076, 8085, 8084
  205514, 7743, 7744, 7753, 7752, 8076, 8077, 8086, 8085
  205515, 7744, 7745, 7754, 7753, 8077, 8078, 8087, 8086
  205516, 7745, 7746, 7755, 7754, 8078, 8079, 8088, 8087
  205517, 7746, 7747, 7756, 7755, 8079, 8080, 8089, 8088
  205518, 7747, 7748, 7757, 7756, 8080, 8081, 8090, 8089
  205519, 7748, 7749, 7758, 7757, 8081, 8082, 8091, 8090
  205520, 7750, 7751, 7760, 7759, 8083, 8084, 8093, 8092
  205521, 7751, 7752, 7761, 7760, 8084, 8085, 8094, 8093
  205522, 7752, 7753, 7762, 7761, 8085, 8086, 8095, 8094
  205523, 7753, 7754, 7763, 7762, 8086, 8087, 8096, 8095
  205524, 7754, 7755, 7764, 7763, 8087, 8088, 8097, 8096
  205525, 7755, 7756, 7765, 7764, 8088, 8089, 8098, 8097
  205526, 7756, 7757, 7766, 7765, 8089, 8090, 8099, 8098
  205527, 7757, 7758, 7767, 7766, 8090, 8091, 8100, 8099
  205528, 7759, 7760, 7769, 7768, 8092, 8093, 8102, 8101
  205529, 7760, 7761, 7770, 7769, 8093, 8094, 8103, 8102
  205530, 7761, 7762, 7771, 7770, 8094, 8095, 8104, 8103
  205531, 7762, 7763, 7772, 7771, 8095, 8096, 8105, 8104
  205532, 7763, 7764, 7773, 7772, 8096, 8097, 8106, 8105
  205533, 7764, 7765, 7774, 7773, 8097, 8098, 8107, 8106
  205534, 7765, 7766, 7775, 7774, 8098, 8099, 8108, 8107
  205535, 7766, 7767, 7776, 7775, 8099, 8100, 8109, 8108
  205536, 7768, 7769, 7778, 7777, 8101, 8102, 8111, 8110
  205537, 7769, 7770, 7779, 7778, 8102, 8103, 8112, 8111
  205538, 7770, 7771, 7780, 7779, 8103, 8104, 8113, 8112
  205539, 7771, 7772, 7781, 7780, 8104, 8105, 8114, 8113
  205540, 7772, 7773, 7782, 7781, 8105, 8106, 8115, 8114
  205541, 7773, 7774, 7783, 7782, 8106, 8107, 8116, 8115
  205542, 7774, 7775, 7784, 7783, 8107, 8108, 8117, 8116
  205543, 7775, 7776, 7785, 7784, 8108, 8109, 8118, 8117
  205544, 7777, 7778, 7787, 7786, 8110, 8111, 8120, 8119
  205545, 7778, 7779, 7788, 7787, 8111, 8112, 8121, 8120
  205546, 7779, 7780, 7789, 7788, 8112, 8113, 8122, 8121
  205547, 7780, 7781, 7790, 7789, 8113, 8114, 8123, 8122
  205548, 7781, 7782, 7791, 7790, 8114, 8115, 8124, 8123
  205549, 7782, 7783, 7792, 7791, 8115, 8116, 8125, 8124
  205550, 7783, 7784, 7793, 7792, 8116, 8117, 8126, 8125
  205551, 7784, 7785, 7794, 7793, 8117, 8118, 8127, 8126
  205552, 7786, 7787, 7796, 7795, 8119, 8120, 8129, 8128
  205553, 7787, 7788, 7797, 7796, 8120, 8121, 8130, 8129
  205554, 7788, 7789, 7798, 7797, 8121, 8122, 8131, 8130
  205555, 7789, 7790, 7799, 7798, 8122, 8123, 8132, 8131
  205556, 7790, 7791, 7800, 7799, 8123, 8124, 8133, 8132
  205557, 7791, 7792, 7801, 7800, 8124, 8125, 8134, 8133
  205558, 7792, 7793, 7802, 7801, 8125, 8126, 8135, 8134
  205559, 7793, 7794, 7803, 7802, 8126, 8127, 8136, 8135
  205560, 7795, 7796, 7805, 7804, 8128, 8129, 8138, 8137
  205561, 7796, 7797, 7806, 7805, 8129, 8130, 8139, 8138
  205562, 7797, 7798, 7807, 7806, 8130, 8131, 8140, 8139
  205563, 7798, 7799, 7808, 7807, 8131, 8132, 8141, 8140
  205564, 7799, 7800, 7809, 7808, 8132, 8133, 8142, 8141
  205565, 7800, 7801, 7810, 7809, 8133, 8134, 8143, 8142
  205566, 7801, 7802, 7811, 7810, 8134, 8135, 8144, 8143
  205567, 7802, 7803, 7812, 7811, 8135, 8136, 8145, 8144
  205568, 7804, 7805, 7814, 7813, 8137, 8138, 8147, 8146
  205569, 7805, 7806, 7815, 7814, 8138, 8139, 8148, 8147
  205570, 7806, 7807, 7816, 7815, 8139, 8140, 8149, 8148
  205571, 7807, 7808, 7817, 7816, 8140, 8141, 8150, 8149
  205572, 7808, 7809, 7818, 7817, 8141, 8142, 8151, 8150
  205573, 7809, 7810, 7819, 7818, 8142, 8143, 8152, 8151
  205574, 7810, 7811, 7820, 7819, 8143, 8144, 8153, 8152
  205575, 7811, 7812, 7821, 7820, 8144, 8145, 8154, 8153
  205576, 7813, 7814, 7823, 7822, 8146, 8147, 8156, 8155
  205577, 7814, 7815, 7824, 7823, 8147, 8148, 8157, 8156
  205578, 7815, 7816, 7825, 7824, 8148, 8149, 8158, 8157
  205579, 7816, 7817, 7826, 7825, 8149, 8150, 8159, 8158
  205580, 7817, 7818, 7827, 7826, 8150, 8151, 8160, 8159
  205581, 7818, 7819, 7828, 7827, 8151, 8152, 8161, 8160
  205582, 7819, 7820, 7829, 7828, 8152, 8153, 8162, 8161
  205583, 7820, 7821, 7830, 7829, 8153, 8154, 8163, 8162
  205584, 7822, 7823, 7832, 7831, 8155, 8156, 8165, 8164
  205585, 7823, 7824, 7833, 7832, 8156, 8157, 8166, 8165
  205586, 7824, 7825, 7834, 7833, 8157, 8158, 8167, 8166
  205587, 7825, 7826, 7835, 7834, 8158, 8159, 8168, 8167
  205588, 7826, 7827, 7836, 7835, 8159, 8160, 8169, 8168
  205589, 7827, 7828, 7837, 7836, 8160, 8161, 8170, 8169
  205590, 7828, 7829, 7838, 7837, 8161, 8162, 8171, 8170
  205591, 7829, 7830, 7839, 7838, 8162, 8163, 8172, 8171
  205592, 7831, 7832, 7841, 7840, 8164, 8165, 8174, 8173
  205593, 7832, 7833, 7842, 7841, 8165, 8166, 8175, 8174
  205594, 7833, 7834, 7843, 7842, 8166, 8167, 8176, 8175
  205595, 7834, 7835, 7844, 7843, 8167, 8168, 8177, 8176
  205596, 7835, 7836, 7845, 7844, 8168, 8169, 8178, 8177
  205597, 7836, 7837, 7846, 7845, 8169, 8170, 8179, 8178
  205598, 7837, 7838, 7847, 7846, 8170, 8171, 8180, 8179
  205599, 7838, 7839, 7848, 7847, 8171, 8172, 8181, 8180
  205600, 7840, 7841, 7850, 7849, 8173, 8174, 8183, 8182
  205601, 7841, 7842, 7851, 7850, 8174, 8175, 8184, 8183
  205602, 7842, 7843, 7852, 7851, 8175, 8176, 8185, 8184
  205603, 7843, 7844, 7853, 7852, 8176, 8177, 8186, 8185
  205604, 7844, 7845, 7854, 7853, 8177, 8178, 8187, 8186
  205605, 7845, 7846, 7855, 7854, 8178, 8179, 8188, 8187
  205606, 7846, 7847, 7856, 7855, 8179, 8180, 8189, 8188
  205607, 7847, 7848, 7857, 7856, 8180, 8181, 8190, 8189
  205608, 7849, 7850, 7859, 7858, 8182, 8183, 8192, 8191
  205609, 7850, 7851, 7860, 7859, 8183, 8184, 8193, 8192
  205610, 7851, 7852, 7861, 7860, 8184, 8185, 8194, 8193
  205611, 7852, 7853, 7862, 7861, 8185, 8186, 8195, 8194
  205612, 7853, 7854, 7863, 7862, 8186, 8187, 8196, 8195
  205613, 7854, 7855, 7864, 7863, 8187, 8188, 8197, 8196
  205614, 7855, 7856, 7865, 7864, 8188, 8189, 8198, 8197
  205615, 7856, 7857, 7866, 7865, 8189, 8190, 8199, 8198
  205616, 7858, 7859, 7868, 7867, 8191, 8192, 8201, 8200
  205617, 7859, 7860, 7869, 7868, 8192, 8193, 8202, 8201
  205618, 7860, 7861, 7870, 7869, 8193, 8194, 8203, 8202
  205619, 7861, 7862, 7871, 7870, 8194, 8195, 8204, 8203
  205620, 7862, 7863, 7872, 7871, 8195, 8196, 8205, 8204
  205621, 7863, 7864, 7873, 7872, 8196, 8197, 8206, 8205
  205622, 7864, 7865, 7874, 7873, 8197, 8198, 8207, 8206
  205623, 7865, 7866, 7875, 7874, 8198, 8199, 8208, 8207
  205624, 7867, 7868, 7877, 7876, 8200, 8201, 8210, 8209
  205625, 7868, 7869, 7878, 7877, 8201, 8202, 8211, 8210
  205626, 7869, 7870, 7879, 7878, 8202, 8203, 8212, 8211
  205627, 7870, 7871, 7880, 7879, 8203, 8204, 8213, 8212
  205628, 7871, 7872, 7881, 7880, 8204, 8205, 8214, 8213
  205629, 7872, 7873, 7882, 7881, 8205, 8206, 8215, 8214
  205630, 7873, 7874, 7883, 7882, 8206, 8207, 8216, 8215
  205631, 7874, 7875, 7884, 7883, 8207, 8208, 8217, 8216
  205632, 7876, 7877, 7886, 7885, 8209, 8210, 8219, 8218
  205633, 7877, 7878, 7887, 7886, 8210, 8211, 8220, 8219
  205634, 7878, 7879, 7888, 7887, 8211, 8212, 8221, 8220
  205635, 7879, 7880, 7889, 7888, 8212, 8213, 8222, 8221
  205636, 7880, 7881, 7890, 7889, 8213, 8214, 8223, 8222
  205637, 7881, 7882, 7891, 7890, 8214, 8215, 8224, 8223
  205638, 7882, 7883, 7892, 7891, 8215, 8216, 8225, 8224
  205639, 7883, 7884, 7893, 7892, 8216, 8217, 8226, 8225
  205640, 7885, 7886, 7895, 7894, 8218, 8219, 8228, 8227
  205641, 7886, 7887, 7896, 7895, 8219, 8220, 8229, 8228
  205642, 7887, 7888, 7897, 7896, 8220, 8221, 8230, 8229
  205643, 7888, 7889, 7898, 7897, 8221, 8222, 8231, 8230
  205644, 7889, 7890, 7899, 7898, 8222, 8223, 8232, 8231
  205645, 7890, 7891, 7900, 7899, 8223, 8224, 8233, 8232
  205646, 7891, 7892, 7901, 7900, 8224, 8225, 8234, 8233
  205647, 7892, 7893, 7902, 7901, 8225, 8226, 8235, 8234
  205648, 7894, 7895, 7904, 7903, 8227, 8228, 8237, 8236
  205649, 7895, 7896, 7905, 7904, 8228, 8229, 8238, 8237
  205650, 7896, 7897, 7906, 7905, 8229, 8230, 8239, 8238
  205651, 7897, 7898, 7907, 7906, 8230, 8231, 8240, 8239
  205652, 7898, 7899, 7908, 7907, 8231, 8232, 8241, 8240
  205653, 7899, 7900, 7909, 7908, 8232, 8233, 8242, 8241
  205654, 7900, 7901, 7910, 7909, 8233, 8234, 8243, 8242
  205655, 7901, 7902, 7911, 7910, 8234, 8235, 8244, 8243
  205656, 7903, 7904, 7913, 7912, 8236, 8237, 8246, 8245
  205657, 7904, 7905, 7914, 7913, 8237, 8238, 8247, 8246
  205658, 7905, 7906, 7915, 7914, 8238, 8239, 8248, 8247
  205659, 7906, 7907, 7916, 7915, 8239, 8240, 8249, 8248
  205660, 7907, 7908, 7917, 7916, 8240, 8241, 8250, 8249
  205661, 7908, 7909, 7918, 7917, 8241, 8242, 8251, 8250
  205662, 7909, 7910, 7919, 7918, 8242, 8243, 8252, 8251
  205663, 7910, 7911, 7920, 7919, 8243, 8244, 8253, 8252
  205664, 7912, 7913, 7922, 7921, 8245, 8246, 8255, 8254
  205665, 7913, 7914, 7923, 7922, 8246, 8247, 8256, 8255
  205666, 7914, 7915, 7924, 7923, 8247, 8248, 8257, 8256
  205667, 7915, 7916, 7925, 7924, 8248, 8249, 8258, 8257
  205668, 7916, 7917, 7926, 7925, 8249, 8250, 8259, 8258
  205669, 7917, 7918, 7927, 7926, 8250, 8251, 8260, 8259
  205670, 7918, 7919, 7928, 7927, 8251, 8252, 8261, 8260
  205671, 7919, 7920, 7929, 7928, 8252, 8253, 8262, 8261
  205672, 7921, 7922, 7931, 7930, 8254, 8255, 8264, 8263
  205673, 7922, 7923, 7932, 7931, 8255, 8256, 8265, 8264
  205674, 7923, 7924, 7933, 7932, 8256, 8257, 8266, 8265
  205675, 7924, 7925, 7934, 7933, 8257, 8258, 8267, 8266
  205676, 7925, 7926, 7935, 7934, 8258, 8259, 8268, 8267
  205677, 7926, 7927, 7936, 7935, 8259, 8260, 8269, 8268
  205678, 7927, 7928, 7937, 7936, 8260, 8261, 8270, 8269
  205679, 7928, 7929, 7938, 7937, 8261, 8262, 8271, 8270
  205680, 7930, 7931, 7940, 7939, 8263, 8264, 8273, 8272
  205681, 7931, 7932, 7941, 7940, 8264, 8265, 8274, 8273
  205682, 7932, 7933, 7942, 7941, 8265, 8266, 8275, 8274
  205683, 7933, 7934, 7943, 7942, 8266, 8267, 8276, 8275
  205684, 7934, 7935, 7944, 7943, 8267, 8268, 8277, 8276
  205685, 7935, 7936, 7945, 7944, 8268, 8269, 8278, 8277
  205686, 7936, 7937, 7946, 7945, 8269, 8270, 8279, 8278
  205687, 7937, 7938, 7947, 7946, 8270, 8271, 8280, 8279
  205688, 7939, 7940, 7949, 7948, 8272, 8273, 8282, 8281
  205689, 7940, 7941, 7950, 7949, 8273, 8274, 8283, 8282
  205690, 7941, 7942, 7951, 7950, 8274, 8275, 8284, 8283
  205691, 7942, 7943, 7952, 7951, 8275, 8276, 8285, 8284
  205692, 7943, 7944, 7953, 7952, 8276, 8277, 8286, 8285
  205693, 7944, 7945, 7954, 7953, 8277, 8278, 8287, 8286
  205694, 7945, 7946, 7955, 7954, 8278, 8279, 8288, 8287
  205695, 7946, 7947, 7956, 7955, 8279, 8280, 8289, 8288
  205696, 7948, 7949, 7958, 7957, 8281, 8282, 8291, 8290
  205697, 7949, 7950, 7959, 7958, 8282, 8283, 8292, 8291
  205698, 7950, 7951, 7960, 7959, 8283, 8284, 8293, 8292
  205699, 7951, 7952, 7961, 7960, 8284, 8285, 8294, 8293
  205700, 7952, 7953, 7962, 7961, 8285, 8286, 8295, 8294
  205701, 7953, 7954, 7963, 7962, 8286, 8287, 8296, 8295
  205702, 7954, 7955, 7964, 7963, 8287, 8288, 8297, 8296
  205703, 7955, 7956, 7965, 7964, 8288, 8289, 8298, 8297
  205704, 7957, 7958, 7967, 7966, 8290, 8291, 8300, 8299
  205705, 7958, 7959, 7968, 7967, 8291, 8292, 8301, 8300
  205706, 7959, 7960, 7969, 7968, 8292, 8293, 8302, 8301
  205707, 7960, 7961, 7970, 7969, 8293, 8294, 8303, 8302
  205708, 7961, 7962, 7971, 7970, 8294, 8295, 8304, 8303
  205709, 7962, 7963, 7972, 7971, 8295, 8296, 8305, 8304
  205710, 7963, 7964, 7973, 7972, 8296, 8297, 8306, 8305
  205711, 7964, 7965, 7974, 7973, 8297, 8298, 8307, 8306
  205712, 7966, 7967, 7976, 7975, 8299, 8300, 8309, 8308
  205713, 7967, 7968, 7977, 7976, 8300, 8301, 8310, 8309
  205714, 7968, 7969, 7978, 7977, 8301, 8302, 8311, 8310
  205715, 7969, 7970, 7979, 7978, 8302, 8303, 8312, 8311
  205716, 7970, 7971, 7980, 7979, 8303, 8304, 8313, 8312
  205717, 7971, 7972, 7981, 7980, 8304, 8305, 8314, 8313
  205718, 7972, 7973, 7982, 7981, 8305, 8306, 8315, 8314
  205719, 7973, 7974, 7983, 7982, 8306, 8307, 8316, 8315
  205720, 7975, 7976, 7985, 7984, 8308, 8309, 8318, 8317
  205721, 7976, 7977, 7986, 7985, 8309, 8310, 8319, 8318
  205722, 7977, 7978, 7987, 7986, 8310, 8311, 8320, 8319
  205723, 7978, 7979, 7988, 7987, 8311, 8312, 8321, 8320
  205724, 7979, 7980, 7989, 7988, 8312, 8313, 8322, 8321
  205725, 7980, 7981, 7990, 7989, 8313, 8314, 8323, 8322
  205726, 7981, 7982, 7991, 7990, 8314, 8315, 8324, 8323
  205727, 7982, 7983, 7992, 7991, 8315, 8316, 8325, 8324
  205728, 7984, 7985, 7994, 7993, 8317, 8318, 8327, 8326
  205729, 7985, 7986, 7995, 7994, 8318, 8319, 8328, 8327
  205730, 7986, 7987, 7996, 7995, 8319, 8320, 8329, 8328
  205731, 7987, 7988, 7997, 7996, 8320, 8321, 8330, 8329
  205732, 7988, 7989, 7998, 7997, 8321, 8322, 8331, 8330
  205733, 7989, 7990, 7999, 7998, 8322, 8323, 8332, 8331
  205734, 7990, 7991, 8000, 7999, 8323, 8324, 8333, 8332
  205735, 7991, 7992, 8001, 8000, 8324, 8325, 8334, 8333
  205736, 7993, 7994, 8003, 8002, 8326, 8327, 8336, 8335
  205737, 7994, 7995, 8004, 8003, 8327, 8328, 8337, 8336
  205738, 7995, 7996, 8005, 8004, 8328, 8329, 8338, 8337
  205739, 7996, 7997, 8006, 8005, 8329, 8330, 8339, 8338
  205740, 7997, 7998, 8007, 8006, 8330, 8331, 8340, 8339
  205741, 7998, 7999, 8008, 8007, 8331, 8332, 8341, 8340
  205742, 7999, 8000, 8009, 8008, 8332, 8333, 8342, 8341
  205743, 8000, 8001, 8010, 8009, 8333, 8334, 8343, 8342
  205744, 8002, 8003, 8012, 8011, 8335, 8336, 8345, 8344
  205745, 8003, 8004, 8013, 8012, 8336, 8337, 8346, 8345
  205746, 8004, 8005, 8014, 8013, 8337, 8338, 8347, 8346
  205747, 8005, 8006, 8015, 8014, 8338, 8339, 8348, 8347
  205748, 8006, 8007, 8016, 8015, 8339, 8340, 8349, 8348
  205749, 8007, 8008, 8017, 8016, 8340, 8341, 8350, 8349
  205750, 8008, 8009, 8018, 8017, 8341, 8342, 8351, 8350
  205751, 8009, 8010, 8019, 8018, 8342, 8343, 8352, 8351
  205752, 8011, 8012, 8021, 8020, 8344, 8345, 8354, 8353
  205753, 8012, 8013, 8022, 8021, 8345, 8346, 8355, 8354
  205754, 8013, 8014, 8023, 8022, 8346, 8347, 8356, 8355
  205755, 8014, 8015, 8024, 8023, 8347, 8348, 8357, 8356
  205756, 8015, 8016, 8025, 8024, 8348, 8349, 8358, 8357
  205757, 8016, 8017, 8026, 8025, 8349, 8350, 8359, 8358
  205758, 8017, 8018, 8027, 8026, 8350, 8351, 8360, 8359
  205759, 8018, 8019, 8028, 8027, 8351, 8352, 8361, 8360
  205760, 8029, 8030, 8039, 8038, 8362, 8363, 8372, 8371
  205761, 8030, 8031, 8040, 8039, 8363, 8364, 8373, 8372
  205762, 8031, 8032, 8041, 8040, 8364, 8365, 8374, 8373
  205763, 8032, 8033, 8042, 8041, 8365, 8366, 8375, 8374
  205764, 8033, 8034, 8043, 8042, 8366, 8367, 8376, 8375
  205765, 8034, 8035, 8044, 8043, 8367, 8368, 8377, 8376
  205766, 8035, 8036, 8045, 8044, 8368, 8369, 8378, 8377
  205767, 8036, 8037, 8046, 8045, 8369, 8370, 8379, 8378
  205768, 8038, 8039, 8048, 8047, 8371, 8372, 8381, 8380
  205769, 8039, 8040, 8049, 8048, 8372, 8373, 8382, 8381
  205770, 8040, 8041, 8050, 8049, 8373, 8374, 8383, 8382
  205771, 8041, 8042, 8051, 8050, 8374, 8375, 8384, 8383
  205772, 8042, 8043, 8052, 8051, 8375, 8376, 8385, 8384
  205773, 8043, 8044, 8053, 8052, 8376, 8377, 8386, 8385
  205774, 8044, 8045, 8054, 8053, 8377, 8378, 8387, 8386
  205775, 8045, 8046, 8055, 8054, 8378, 8379, 8388, 8387
  205776, 8047, 8048, 8057, 8056, 8380, 8381, 8390, 8389
  205777, 8048, 8049, 8058, 8057, 8381, 8382, 8391, 8390
  205778, 8049, 8050, 8059, 8058, 8382, 8383, 8392, 8391
  205779, 8050, 8051, 8060, 8059, 8383, 8384, 8393, 8392
  205780, 8051, 8052, 8061, 8060, 8384, 8385, 8394, 8393
  205781, 8052, 8053, 8062, 8061, 8385, 8386, 8395, 8394
  205782, 8053, 8054, 8063, 8062, 8386, 8387, 8396, 8395
  205783, 8054, 8055, 8064, 8063, 8387, 8388, 8397, 8396
  205784, 8056, 8057, 8066, 8065, 8389, 8390, 8399, 8398
  205785, 8057, 8058, 8067, 8066, 8390, 8391, 8400, 8399
  205786, 8058, 8059, 8068, 8067, 8391, 8392, 8401, 8400
  205787, 8059, 8060, 8069, 8068, 8392, 8393, 8402, 8401
  205788, 8060, 8061, 8070, 8069, 8393, 8394, 8403, 8402
  205789, 8061, 8062, 8071, 8070, 8394, 8395, 8404, 8403
  205790, 8062, 8063, 8072, 8071, 8395, 8396, 8405, 8404
  205791, 8063, 8064, 8073, 8072, 8396, 8397, 8406, 8405
  205792, 8065, 8066, 8075, 8074, 8398, 8399, 8408, 8407
  205793, 8066, 8067, 8076, 8075, 8399, 8400, 8409, 8408
  205794, 8067, 8068, 8077, 8076, 8400, 8401, 8410, 8409
  205795, 8068, 8069, 8078, 8077, 8401, 8402, 8411, 8410
  205796, 8069, 8070, 8079, 8078, 8402, 8403, 8412, 8411
  205797, 8070, 8071, 8080, 8079, 8403, 8404, 8413, 8412
  205798, 8071, 8072, 8081, 8080, 8404, 8405, 8414, 8413
  205799, 8072, 8073, 8082, 8081, 8405, 8406, 8415, 8414
  205800, 8074, 8075, 8084, 8083, 8407, 8408, 8417, 8416
  205801, 8075, 8076, 8085, 8084, 8408, 8409, 8418, 8417
  205802, 8076, 8077, 8086, 8085, 8409, 8410, 8419, 8418
  205803, 8077, 8078, 8087, 8086, 8410, 8411, 8420, 8419
  205804, 8078, 8079, 8088, 8087, 8411, 8412, 8421, 8420
  205805, 8079, 8080, 8089, 8088, 8412, 8413, 8422, 8421
  205806, 8080, 8081, 8090, 8089, 8413, 8414, 8423, 8422
  205807, 8081, 8082, 8091, 8090, 8414, 8415, 8424, 8423
  205808, 8083, 8084, 8093, 8092, 8416, 8417, 8426, 8425
  205809, 8084, 8085, 8094, 8093, 8417, 8418, 8427, 8426
  205810, 8085, 8086, 8095, 8094, 8418, 8419, 8428, 8427
  205811, 8086, 8087, 8096, 8095, 8419, 8420, 8429, 8428
  205812, 8087, 8088, 8097, 8096, 8420, 8421, 8430, 8429
  205813, 8088, 8089, 8098, 8097, 8421, 8422, 8431, 8430
  205814, 8089, 8090, 8099, 8098, 8422, 8423, 8432, 8431
  205815, 8090, 8091, 8100, 8099, 8423, 8424, 8433, 8432
  205816, 8092, 8093, 8102, 8101, 8425, 8426, 8435, 8434
  205817, 8093, 8094, 8103, 8102, 8426, 8427, 8436, 8435
  205818, 8094, 8095, 8104, 8103, 8427, 8428, 8437, 8436
  205819, 8095, 8096, 8105, 8104, 8428, 8429, 8438, 8437
  205820, 8096, 8097, 8106, 8105, 8429, 8430, 8439, 8438
  205821, 8097, 8098, 8107, 8106, 8430, 8431, 8440, 8439
  205822, 8098, 8099, 8108, 8107, 8431, 8432, 8441, 8440
  205823, 8099, 8100, 8109, 8108, 8432, 8433, 8442, 8441
  205824, 8101, 8102, 8111, 8110, 8434, 8435, 8444, 8443
  205825, 8102, 8103, 8112, 8111, 8435, 8436, 8445, 8444
  205826, 8103, 8104, 8113, 8112, 8436, 8437, 8446, 8445
  205827, 8104, 8105, 8114, 8113, 8437, 8438, 8447, 8446
  205828, 8105, 8106, 8115, 8114, 8438, 8439, 8448, 8447
  205829, 8106, 8107, 8116, 8115, 8439, 8440, 8449, 8448
  205830, 8107, 8108, 8117, 8116, 8440, 8441, 8450, 8449
  205831, 8108, 8109, 8118, 8117, 8441, 8442, 8451, 8450
  205832, 8110, 8111, 8120, 8119, 8443, 8444, 8453, 8452
  205833, 8111, 8112, 8121, 8120, 8444, 8445, 8454, 8453
  205834, 8112, 8113, 8122, 8121, 8445, 8446, 8455, 8454
  205835, 8113, 8114, 8123, 8122, 8446, 8447, 8456, 8455
  205836, 8114, 8115, 8124, 8123, 8447, 8448, 8457, 8456
  205837, 8115, 8116, 8125, 8124, 8448, 8449, 8458, 8457
  205838, 8116, 8117, 8126, 8125, 8449, 8450, 8459, 8458
  205839, 8117, 8118, 8127, 8126, 8450, 8451, 8460, 8459
  205840, 8119, 8120, 8129, 8128, 8452, 8453, 8462, 8461
  205841, 8120, 8121, 8130, 8129, 8453, 8454, 8463, 8462
  205842, 8121, 8122, 8131, 8130, 8454, 8455, 8464, 8463
  205843, 8122, 8123, 8132, 8131, 8455, 8456, 8465, 8464
  205844, 8123, 8124, 8133, 8132, 8456, 8457, 8466, 8465
  205845, 8124, 8125, 8134, 8133, 8457, 8458, 8467, 8466
  205846, 8125, 8126, 8135, 8134, 8458, 8459, 8468, 8467
  205847, 8126, 8127, 8136, 8135, 8459, 8460, 8469, 8468
  205848, 8128, 8129, 8138, 8137, 8461, 8462, 8471, 8470
  205849, 8129, 8130, 8139, 8138, 8462, 8463, 8472, 8471
  205850, 8130, 8131, 8140, 8139, 8463, 8464, 8473, 8472
  205851, 8131, 8132, 8141, 8140, 8464, 8465, 8474, 8473
  205852, 8132, 8133, 8142, 8141, 8465, 8466, 8475, 8474
  205853, 8133, 8134, 8143, 8142, 8466, 8467, 8476, 8475
  205854, 8134, 8135, 8144, 8143, 8467, 8468, 8477, 8476
  205855, 8135, 8136, 8145, 8144, 8468, 8469, 8478, 8477
  205856, 8137, 8138, 8147, 8146, 8470, 8471, 8480, 8479
  205857, 8138, 8139, 8148, 8147, 8471, 8472, 8481, 8480
  205858, 8139, 8140, 8149, 8148, 8472, 8473, 8482, 8481
  205859, 8140, 8141, 8150, 8149, 8473, 8474, 8483, 8482
  205860, 8141, 8142, 8151, 8150, 8474, 8475, 8484, 8483
  205861, 8142, 8143, 8152, 8151, 8475, 8476, 8485, 8484
  205862, 8143, 8144, 8153, 8152, 8476, 8477, 8486, 8485
  205863, 8144, 8145, 8154, 8153, 8477, 8478, 8487, 8486
  205864, 8146, 8147, 8156, 8155, 8479, 8480, 8489, 8488
  205865, 8147, 8148, 8157, 8156, 8480, 8481, 8490, 8489
  205866, 8148, 8149, 8158, 8157, 8481, 8482, 8491, 8490
  205867, 8149, 8150, 8159, 8158, 8482, 8483, 8492, 8491
  205868, 8150, 8151, 8160, 8159, 8483, 8484, 8493, 8492
  205869, 8151, 8152, 8161, 8160, 8484, 8485, 8494, 8493
  205870, 8152, 8153, 8162, 8161, 8485, 8486, 8495, 8494
  205871, 8153, 8154, 8163, 8162, 8486, 8487, 8496, 8495
  205872, 8155, 8156, 8165, 8164, 8488, 8489, 8498, 8497
  205873, 8156, 8157, 8166, 8165, 8489, 8490, 8499, 8498
  205874, 8157, 8158, 8167, 8166, 8490, 8491, 8500, 8499
  205875, 8158, 8159, 8168, 8167, 8491, 8492, 8501, 8500
  205876, 8159, 8160, 8169, 8168, 8492, 8493, 8502, 8501
  205877, 8160, 8161, 8170, 8169, 8493, 8494, 8503, 8502
  205878, 8161, 8162, 8171, 8170, 8494, 8495, 8504, 8503
  205879, 8162, 8163, 8172, 8171, 8495, 8496, 8505, 8504
  205880, 8164, 8165, 8174, 8173, 8497, 8498, 8507, 8506
  205881, 8165, 8166, 8175, 8174, 8498, 8499, 8508, 8507
  205882, 8166, 8167, 8176, 8175, 8499, 8500, 8509, 8508
  205883, 8167, 8168, 8177, 8176, 8500, 8501, 8510, 8509
  205884, 8168, 8169, 8178, 8177, 8501, 8502, 8511, 8510
  205885, 8169, 8170, 8179, 8178, 8502, 8503, 8512, 8511
  205886, 8170, 8171, 8180, 8179, 8503, 8504, 8513, 8512
  205887, 8171, 8172, 8181, 8180, 8504, 8505, 8514, 8513
  205888, 8173, 8174, 8183, 8182, 8506, 8507, 8516, 8515
  205889, 8174, 8175, 8184, 8183, 8507, 8508, 8517, 8516
  205890, 8175, 8176, 8185, 8184, 8508, 8509, 8518, 8517
  205891, 8176, 8177, 8186, 8185, 8509, 8510, 8519, 8518
  205892, 8177, 8178, 8187, 8186, 8510, 8511, 8520, 8519
  205893, 8178, 8179, 8188, 8187, 8511, 8512, 8521, 8520
  205894, 8179, 8180, 8189, 8188, 8512, 8513, 8522, 8521
  205895, 8180, 8181, 8190, 8189, 8513, 8514, 8523, 8522
  205896, 8182, 8183, 8192, 8191, 8515, 8516, 8525, 8524
  205897, 8183, 8184, 8193, 8192, 8516, 8517, 8526, 8525
  205898, 8184, 8185, 8194, 8193, 8517, 8518, 8527, 8526
  205899, 8185, 8186, 8195, 8194, 8518, 8519, 8528, 8527
  205900, 8186, 8187, 8196, 8195, 8519, 8520, 8529, 8528
  205901, 8187, 8188, 8197, 8196, 8520, 8521, 8530, 8529
  205902, 8188, 8189, 8198, 8197, 8521, 8522, 8531, 8530
  205903, 8189, 8190, 8199, 8198, 8522, 8523, 8532, 8531
  205904, 8191, 8192, 8201, 8200, 8524, 8525, 8534, 8533
  205905, 8192, 8193, 8202, 8201, 8525, 8526, 8535, 8534
  205906, 8193, 8194, 8203, 8202, 8526, 8527, 8536, 8535
  205907, 8194, 8195, 8204, 8203, 8527, 8528, 8537, 8536
  205908, 8195, 8196, 8205, 8204, 8528, 8529, 8538, 8537
  205909, 8196, 8197, 8206, 8205, 8529, 8530, 8539, 8538
  205910, 8197, 8198, 8207, 8206, 8530, 8531, 8540, 8539
  205911, 8198, 8199, 8208, 8207, 8531, 8532, 8541, 8540
  205912, 8200, 8201, 8210, 8209, 8533, 8534, 8543, 8542
  205913, 8201, 8202, 8211, 8210, 8534, 8535, 8544, 8543
  205914, 8202, 8203, 8212, 8211, 8535, 8536, 8545, 8544
  205915, 8203, 8204, 8213, 8212, 8536, 8537, 8546, 8545
  205916, 8204, 8205, 8214, 8213, 8537, 8538, 8547, 8546
  205917, 8205, 8206, 8215, 8214, 8538, 8539, 8548, 8547
  205918, 8206, 8207, 8216, 8215, 8539, 8540, 8549, 8548
  205919, 8207, 8208, 8217, 8216, 8540, 8541, 8550, 8549
  205920, 8209, 8210, 8219, 8218, 8542, 8543, 8552, 8551
  205921, 8210, 8211, 8220, 8219, 8543, 8544, 8553, 8552
  205922, 8211, 8212, 8221, 8220, 8544, 8545, 8554, 8553
  205923, 8212, 8213, 8222, 8221, 8545, 8546, 8555, 8554
  205924, 8213, 8214, 8223, 8222, 8546, 8547, 8556, 8555
  205925, 8214, 8215, 8224, 8223, 8547, 8548, 8557, 8556
  205926, 8215, 8216, 8225, 8224, 8548, 8549, 8558, 8557
  205927, 8216, 8217, 8226, 8225, 8549, 8550, 8559, 8558
  205928, 8218, 8219, 8228, 8227, 8551, 8552, 8561, 8560
  205929, 8219, 8220, 8229, 8228, 8552, 8553, 8562, 8561
  205930, 8220, 8221, 8230, 8229, 8553, 8554, 8563, 8562
  205931, 8221, 8222, 8231, 8230, 8554, 8555, 8564, 8563
  205932, 8222, 8223, 8232, 8231, 8555, 8556, 8565, 8564
  205933, 8223, 8224, 8233, 8232, 8556, 8557, 8566, 8565
  205934, 8224, 8225, 8234, 8233, 8557, 8558, 8567, 8566
  205935, 8225, 8226, 8235, 8234, 8558, 8559, 8568, 8567
  205936, 8227, 8228, 8237, 8236, 8560, 8561, 8570, 8569
  205937, 8228, 8229, 8238, 8237, 8561, 8562, 8571, 8570
  205938, 8229, 8230, 8239, 8238, 8562, 8563, 8572, 8571
  205939, 8230, 8231, 8240, 8239, 8563, 8564, 8573, 8572
  205940, 8231, 8232, 8241, 8240, 8564, 8565, 8574, 8573
  205941, 8232, 8233, 8242, 8241, 8565, 8566, 8575, 8574
  205942, 8233, 8234, 8243, 8242, 8566, 8567, 8576, 8575
  205943, 8234, 8235, 8244, 8243, 8567, 8568, 8577, 8576
  205944, 8236, 8237, 8246, 8245, 8569, 8570, 8579, 8578
  205945, 8237, 8238, 8247, 8246, 8570, 8571, 8580, 8579
  205946, 8238, 8239, 8248, 8247, 8571, 8572, 8581, 8580
  205947, 8239, 8240, 8249, 8248, 8572, 8573, 8582, 8581
  205948, 8240, 8241, 8250, 8249, 8573, 8574, 8583, 8582
  205949, 8241, 8242, 8251, 8250, 8574, 8575, 8584, 8583
  205950, 8242, 8243, 8252, 8251, 8575, 8576, 8585, 8584
  205951, 8243, 8244, 8253, 8252, 8576, 8577, 8586, 8585
  205952, 8245, 8246, 8255, 8254, 8578, 8579, 8588, 8587
  205953, 8246, 8247, 8256, 8255, 8579, 8580, 8589, 8588
  205954, 8247, 8248, 8257, 8256, 8580, 8581, 8590, 8589
  205955, 8248, 8249, 8258, 8257, 8581, 8582, 8591, 8590
  205956, 8249, 8250, 8259, 8258, 8582, 8583, 8592, 8591
  205957, 8250, 8251, 8260, 8259, 8583, 8584, 8593, 8592
  205958, 8251, 8252, 8261, 8260, 8584, 8585, 8594, 8593
  205959, 8252, 8253, 8262, 8261, 8585, 8586, 8595, 8594
  205960, 8254, 8255, 8264, 8263, 8587, 8588, 8597, 8596
  205961, 8255, 8256, 8265, 8264, 8588, 8589, 8598, 8597
  205962, 8256, 8257, 8266, 8265, 8589, 8590, 8599, 8598
  205963, 8257, 8258, 8267, 8266, 8590, 8591, 8600, 8599
  205964, 8258, 8259, 8268, 8267, 8591, 8592, 8601, 8600
  205965, 8259, 8260, 8269, 8268, 8592, 8593, 8602, 8601
  205966, 8260, 8261, 8270, 8269, 8593, 8594, 8603, 8602
  205967, 8261, 8262, 8271, 8270, 8594, 8595, 8604, 8603
  205968, 8263, 8264, 8273, 8272, 8596, 8597, 8606, 8605
  205969, 8264, 8265, 8274, 8273, 8597, 8598, 8607, 8606
  205970, 8265, 8266, 8275, 8274, 8598, 8599, 8608, 8607
  205971, 8266, 8267, 8276, 8275, 8599, 8600, 8609, 8608
  205972, 8267, 8268, 8277, 8276, 8600, 8601, 8610, 8609
  205973, 8268, 8269, 8278, 8277, 8601, 8602, 8611, 8610
  205974, 8269, 8270, 8279, 8278, 8602, 8603, 8612, 8611
  205975, 8270, 8271, 8280, 8279, 8603, 8604, 8613, 8612
  205976, 8272, 8273, 8282, 8281, 8605, 8606, 8615, 8614
  205977, 8273, 8274, 8283, 8282, 8606, 8607, 8616, 8615
  205978, 8274, 8275, 8284, 8283, 8607, 8608, 8617, 8616
  205979, 8275, 8276, 8285, 8284, 8608, 8609, 8618, 8617
  205980, 8276, 8277, 8286, 8285, 8609, 8610, 8619, 8618
  205981, 8277, 8278, 8287, 8286, 8610, 8611, 8620, 8619
  205982, 8278, 8279, 8288, 8287, 8611, 8612, 8621, 8620
  205983, 8279, 8280, 8289, 8288, 8612, 8613, 8622, 8621
  205984, 8281, 8282, 8291, 8290, 8614, 8615, 8624, 8623
  205985, 8282, 8283, 8292, 8291, 8615, 8616, 8625, 8624
  205986, 8283, 8284, 8293, 8292, 8616, 8617, 8626, 8625
  205987, 8284, 8285, 8294, 8293, 8617, 8618, 8627, 8626
  205988, 8285, 8286, 8295, 8294, 8618, 8619, 8628, 8627
  205989, 8286, 8287, 8296, 8295, 8619, 8620, 8629, 8628
  205990, 8287, 8288, 8297, 8296, 8620, 8621, 8630, 8629
  205991, 8288, 8289, 8298, 8297, 8621, 8622, 8631, 8630
  205992, 8290, 8291, 8300, 8299, 8623, 8624, 8633, 8632
  205993, 8291, 8292, 8301, 8300, 8624, 8625, 8634, 8633
  205994, 8292, 8293, 8302, 8301, 8625, 8626, 8635, 8634
  205995, 8293, 8294, 8303, 8302, 8626, 8627, 8636, 8635
  205996, 8294, 8295, 8304, 8303, 8627, 8628, 8637, 8636
  205997, 8295, 8296, 8305, 8304, 8628, 8629, 8638, 8637
  205998, 8296, 8297, 8306, 8305, 8629, 8630, 8639, 8638
  205999, 8297, 8298, 8307, 8306, 8630, 8631, 8640, 8639
  206000, 8299, 8300, 8309, 8308, 8632, 8633, 8642, 8641
  206001, 8300, 8301, 8310, 8309, 8633, 8634, 8643, 8642
  206002, 8301, 8302, 8311, 8310, 8634, 8635, 8644, 8643
  206003, 8302, 8303, 8312, 8311, 8635, 8636, 8645, 8644
  206004, 8303, 8304, 8313, 8312, 8636, 8637, 8646, 8645
  206005, 8304, 8305, 8314, 8313, 8637, 8638, 8647, 8646
  206006, 8305, 8306, 8315, 8314, 8638, 8639, 8648, 8647
  206007, 8306, 8307, 8316, 8315, 8639, 8640, 8649, 8648
  206008, 8308, 8309, 8318, 8317, 8641, 8642, 8651, 8650
  206009, 8309, 8310, 8319, 8318, 8642, 8643, 8652, 8651
  206010, 8310, 8311, 8320, 8319, 8643, 8644, 8653, 8652
  206011, 8311, 8312, 8321, 8320, 8644, 8645, 8654, 8653
  206012, 8312, 8313, 8322, 8321, 8645, 8646, 8655, 8654
  206013, 8313, 8314, 8323, 8322, 8646, 8647, 8656, 8655
  206014, 8314, 8315, 8324, 8323, 8647, 8648, 8657, 8656
  206015, 8315, 8316, 8325, 8324, 8648, 8649, 8658, 8657
  206016, 8317, 8318, 8327, 8326, 8650, 8651, 8660, 8659
  206017, 8318, 8319, 8328, 8327, 8651, 8652, 8661, 8660
  206018, 8319, 8320, 8329, 8328, 8652, 8653, 8662, 8661
  206019, 8320, 8321, 8330, 8329, 8653, 8654, 8663, 8662
  206020, 8321, 8322, 8331, 8330, 8654, 8655, 8664, 8663
  206021, 8322, 8323, 8332, 8331, 8655, 8656, 8665, 8664
  206022, 8323, 8324, 8333, 8332, 8656, 8657, 8666, 8665
  206023, 8324, 8325, 8334, 8333, 8657, 8658, 8667, 8666
  206024, 8326, 8327, 8336, 8335, 8659, 8660, 8669, 8668
  206025, 8327, 8328, 8337, 8336, 8660, 8661, 8670, 8669
  206026, 8328, 8329, 8338, 8337, 8661, 8662, 8671, 8670
  206027, 8329, 8330, 8339, 8338, 8662, 8663, 8672, 8671
  206028, 8330, 8331, 8340, 8339, 8663, 8664, 8673, 8672
  206029, 8331, 8332, 8341, 8340, 8664, 8665, 8674, 8673
  206030, 8332, 8333, 8342, 8341, 8665, 8666, 8675, 8674
  206031, 8333, 8334, 8343, 8342, 8666, 8667, 8676, 8675
  206032, 8335, 8336, 8345, 8344, 8668, 8669, 8678, 8677
  206033, 8336, 8337, 8346, 8345, 8669, 8670, 8679, 8678
  206034, 8337, 8338, 8347, 8346, 8670, 8671, 8680, 8679
  206035, 8338, 8339, 8348, 8347, 8671, 8672, 8681, 8680
  206036, 8339, 8340, 8349, 8348, 8672, 8673, 8682, 8681
  206037, 8340, 8341, 8350, 8349, 8673, 8674, 8683, 8682
  206038, 8341, 8342, 8351, 8350, 8674, 8675, 8684, 8683
  206039, 8342, 8343, 8352, 8351, 8675, 8676, 8685, 8684
  206040, 8344, 8345, 8354, 8353, 8677, 8678, 8687, 8686
  206041, 8345, 8346, 8355, 8354, 8678, 8679, 8688, 8687
  206042, 8346, 8347, 8356, 8355, 8679, 8680, 8689, 8688
  206043, 8347, 8348, 8357, 8356, 8680, 8681, 8690, 8689
  206044, 8348, 8349, 8358, 8357, 8681, 8682, 8691, 8690
  206045, 8349, 8350, 8359, 8358, 8682, 8683, 8692, 8691
  206046, 8350, 8351, 8360, 8359, 8683, 8684, 8693, 8692
  206047, 8351, 8352, 8361, 8360, 8684, 8685, 8694, 8693
  206048, 8362, 8363, 8372, 8371, 8695, 8696, 8705, 8704
  206049, 8363, 8364, 8373, 8372, 8696, 8697, 8706, 8705
  206050, 8364, 8365, 8374, 8373, 8697, 8698, 8707, 8706
  206051, 8365, 8366, 8375, 8374, 8698, 8699, 8708, 8707
  206052, 8366, 8367, 8376, 8375, 8699, 8700, 8709, 8708
  206053, 8367, 8368, 8377, 8376, 8700, 8701, 8710, 8709
  206054, 8368, 8369, 8378, 8377, 8701, 8702, 8711, 8710
  206055, 8369, 8370, 8379, 8378, 8702, 8703, 8712, 8711
  206056, 8371, 8372, 8381, 8380, 8704, 8705, 8714, 8713
  206057, 8372, 8373, 8382, 8381, 8705, 8706, 8715, 8714
  206058, 8373, 8374, 8383, 8382, 8706, 8707, 8716, 8715
  206059, 8374, 8375, 8384, 8383, 8707, 8708, 8717, 8716
  206060, 8375, 8376, 8385, 8384, 8708, 8709, 8718, 8717
  206061, 8376, 8377, 8386, 8385, 8709, 8710, 8719, 8718
  206062, 8377, 8378, 8387, 8386, 8710, 8711, 8720, 8719
  206063, 8378, 8379, 8388, 8387, 8711, 8712, 8721, 8720
  206064, 8380, 8381, 8390, 8389, 8713, 8714, 8723, 8722
  206065, 8381, 8382, 8391, 8390, 8714, 8715, 8724, 8723
  206066, 8382, 8383, 8392, 8391, 8715, 8716, 8725, 8724
  206067, 8383, 8384, 8393, 8392, 8716, 8717, 8726, 8725
  206068, 8384, 8385, 8394, 8393, 8717, 8718, 8727, 8726
  206069, 8385, 8386, 8395, 8394, 8718, 8719, 8728, 8727
  206070, 8386, 8387, 8396, 8395, 8719, 8720, 8729, 8728
  206071, 8387, 8388, 8397, 8396, 8720, 8721, 8730, 8729
  206072, 8389, 8390, 8399, 8398, 8722, 8723, 8732, 8731
  206073, 8390, 8391, 8400, 8399, 8723, 8724, 8733, 8732
  206074, 8391, 8392, 8401, 8400, 8724, 8725, 8734, 8733
  206075, 8392, 8393, 8402, 8401, 8725, 8726, 8735, 8734
  206076, 8393, 8394, 8403, 8402, 8726, 8727, 8736, 8735
  206077, 8394, 8395, 8404, 8403, 8727, 8728, 8737, 8736
  206078, 8395, 8396, 8405, 8404, 8728, 8729, 8738, 8737
  206079, 8396, 8397, 8406, 8405, 8729, 8730, 8739, 8738
  206080, 8398, 8399, 8408, 8407, 8731, 8732, 8741, 8740
  206081, 8399, 8400, 8409, 8408, 8732, 8733, 8742, 8741
  206082, 8400, 8401, 8410, 8409, 8733, 8734, 8743, 8742
  206083, 8401, 8402, 8411, 8410, 8734, 8735, 8744, 8743
  206084, 8402, 8403, 8412, 8411, 8735, 8736, 8745, 8744
  206085, 8403, 8404, 8413, 8412, 8736, 8737, 8746, 8745
  206086, 8404, 8405, 8414, 8413, 8737, 8738, 8747, 8746
  206087, 8405, 8406, 8415, 8414, 8738, 8739, 8748, 8747
  206088, 8407, 8408, 8417, 8416, 8740, 8741, 8750, 8749
  206089, 8408, 8409, 8418, 8417, 8741, 8742, 8751, 8750
  206090, 8409, 8410, 8419, 8418, 8742, 8743, 8752, 8751
  206091, 8410, 8411, 8420, 8419, 8743, 8744, 8753, 8752
  206092, 8411, 8412, 8421, 8420, 8744, 8745, 8754, 8753
  206093, 8412, 8413, 8422, 8421, 8745, 8746, 8755, 8754
  206094, 8413, 8414, 8423, 8422, 8746, 8747, 8756, 8755
  206095, 8414, 8415, 8424, 8423, 8747, 8748, 8757, 8756
  206096, 8416, 8417, 8426, 8425, 8749, 8750, 8759, 8758
  206097, 8417, 8418, 8427, 8426, 8750, 8751, 8760, 8759
  206098, 8418, 8419, 8428, 8427, 8751, 8752, 8761, 8760
  206099, 8419, 8420, 8429, 8428, 8752, 8753, 8762, 8761
  206100, 8420, 8421, 8430, 8429, 8753, 8754, 8763, 8762
  206101, 8421, 8422, 8431, 8430, 8754, 8755, 8764, 8763
  206102, 8422, 8423, 8432, 8431, 8755, 8756, 8765, 8764
  206103, 8423, 8424, 8433, 8432, 8756, 8757, 8766, 8765
  206104, 8425, 8426, 8435, 8434, 8758, 8759, 8768, 8767
  206105, 8426, 8427, 8436, 8435, 8759, 8760, 8769, 8768
  206106, 8427, 8428, 8437, 8436, 8760, 8761, 8770, 8769
  206107, 8428, 8429, 8438, 8437, 8761, 8762, 8771, 8770
  206108, 8429, 8430, 8439, 8438, 8762, 8763, 8772, 8771
  206109, 8430, 8431, 8440, 8439, 8763, 8764, 8773, 8772
  206110, 8431, 8432, 8441, 8440, 8764, 8765, 8774, 8773
  206111, 8432, 8433, 8442, 8441, 8765, 8766, 8775, 8774
  206112, 8434, 8435, 8444, 8443, 8767, 8768, 8777, 8776
  206113, 8435, 8436, 8445, 8444, 8768, 8769, 8778, 8777
  206114, 8436, 8437, 8446, 8445, 8769, 8770, 8779, 8778
  206115, 8437, 8438, 8447, 8446, 8770, 8771, 8780, 8779
  206116, 8438, 8439, 8448, 8447, 8771, 8772, 8781, 8780
  206117, 8439, 8440, 8449, 8448, 8772, 8773, 8782, 8781
  206118, 8440, 8441, 8450, 8449, 8773, 8774, 8783, 8782
  206119, 8441, 8442, 8451, 8450, 8774, 8775, 8784, 8783
  206120, 8443, 8444, 8453, 8452, 8776, 8777, 8786, 8785
  206121, 8444, 8445, 8454, 8453, 8777, 8778, 8787, 8786
  206122, 8445, 8446, 8455, 8454, 8778, 8779, 8788, 8787
  206123, 8446, 8447, 8456, 8455, 8779, 8780, 8789, 8788
  206124, 8447, 8448, 8457, 8456, 8780, 8781, 8790, 8789
  206125, 8448, 8449, 8458, 8457, 8781, 8782, 8791, 8790
  206126, 8449, 8450, 8459, 8458, 8782, 8783, 8792, 8791
  206127, 8450, 8451, 8460, 8459, 8783, 8784, 8793, 8792
  206128, 8452, 8453, 8462, 8461, 8785, 8786, 8795, 8794
  206129, 8453, 8454, 8463, 8462, 8786, 8787, 8796, 8795
  206130, 8454, 8455, 8464, 8463, 8787, 8788, 8797, 8796
  206131, 8455, 8456, 8465, 8464, 8788, 8789, 8798, 8797
  206132, 8456, 8457, 8466, 8465, 8789, 8790, 8799, 8798
  206133, 8457, 8458, 8467, 8466, 8790, 8791, 8800, 8799
  206134, 8458, 8459, 8468, 8467, 8791, 8792, 8801, 8800
  206135, 8459, 8460, 8469, 8468, 8792, 8793, 8802, 8801
  206136, 8461, 8462, 8471, 8470, 8794, 8795, 8804, 8803
  206137, 8462, 8463, 8472, 8471, 8795, 8796, 8805, 8804
  206138, 8463, 8464, 8473, 8472, 8796, 8797, 8806, 8805
  206139, 8464, 8465, 8474, 8473, 8797, 8798, 8807, 8806
  206140, 8465, 8466, 8475, 8474, 8798, 8799, 8808, 8807
  206141, 8466, 8467, 8476, 8475, 8799, 8800, 8809, 8808
  206142, 8467, 8468, 8477, 8476, 8800, 8801, 8810, 8809
  206143, 8468, 8469, 8478, 8477, 8801, 8802, 8811, 8810
  206144, 8470, 8471, 8480, 8479, 8803, 8804, 8813, 8812
  206145, 8471, 8472, 8481, 8480, 8804, 8805, 8814, 8813
  206146, 8472, 8473, 8482, 8481, 8805, 8806, 8815, 8814
  206147, 8473, 8474, 8483, 8482, 8806, 8807, 8816, 8815
  206148, 8474, 8475, 8484, 8483, 8807, 8808, 8817, 8816
  206149, 8475, 8476, 8485, 8484, 8808, 8809, 8818, 8817
  206150, 8476, 8477, 8486, 8485, 8809, 8810, 8819, 8818
  206151, 8477, 8478, 8487, 8486, 8810, 8811, 8820, 8819
  206152, 8479, 8480, 8489, 8488, 8812, 8813, 8822, 8821
  206153, 8480, 8481, 8490, 8489, 8813, 8814, 8823, 8822
  206154, 8481, 8482, 8491, 8490, 8814, 8815, 8824, 8823
  206155, 8482, 8483, 8492, 8491, 8815, 8816, 8825, 8824
  206156, 8483, 8484, 8493, 8492, 8816, 8817, 8826, 8825
  206157, 8484, 8485, 8494, 8493, 8817, 8818, 8827, 8826
  206158, 8485, 8486, 8495, 8494, 8818, 8819, 8828, 8827
  206159, 8486, 8487, 8496, 8495, 8819, 8820, 8829, 8828
  206160, 8488, 8489, 8498, 8497, 8821, 8822, 8831, 8830
  206161, 8489, 8490, 8499, 8498, 8822, 8823, 8832, 8831
  206162, 8490, 8491, 8500, 8499, 8823, 8824, 8833, 8832
  206163, 8491, 8492, 8501, 8500, 8824, 8825, 8834, 8833
  206164, 8492, 8493, 8502, 8501, 8825, 8826, 8835, 8834
  206165, 8493, 8494, 8503, 8502, 8826, 8827, 8836, 8835
  206166, 8494, 8495, 8504, 8503, 8827, 8828, 8837, 8836
  206167, 8495, 8496, 8505, 8504, 8828, 8829, 8838, 8837
  206168, 8497, 8498, 8507, 8506, 8830, 8831, 8840, 8839
  206169, 8498, 8499, 8508, 8507, 8831, 8832, 8841, 8840
  206170, 8499, 8500, 8509, 8508, 8832, 8833, 8842, 8841
  206171, 8500, 8501, 8510, 8509, 8833, 8834, 8843, 8842
  206172, 8501, 8502, 8511, 8510, 8834, 8835, 8844, 8843
  206173, 8502, 8503, 8512, 8511, 8835, 8836, 8845, 8844
  206174, 8503, 8504, 8513, 8512, 8836, 8837, 8846, 8845
  206175, 8504, 8505, 8514, 8513, 8837, 8838, 8847, 8846
  206176, 8506, 8507, 8516, 8515, 8839, 8840, 8849, 8848
  206177, 8507, 8508, 8517, 8516, 8840, 8841, 8850, 8849
  206178, 8508, 8509, 8518, 8517, 8841, 8842, 8851, 8850
  206179, 8509, 8510, 8519, 8518, 8842, 8843, 8852, 8851
  206180, 8510, 8511, 8520, 8519, 8843, 8844, 8853, 8852
  206181, 8511, 8512, 8521, 8520, 8844, 8845, 8854, 8853
  206182, 8512, 8513, 8522, 8521, 8845, 8846, 8855, 8854
  206183, 8513, 8514, 8523, 8522, 8846, 8847, 8856, 8855
  206184, 8515, 8516, 8525, 8524, 8848, 8849, 8858, 8857
  206185, 8516, 8517, 8526, 8525, 8849, 8850, 8859, 8858
  206186, 8517, 8518, 8527, 8526, 8850, 8851, 8860, 8859
  206187, 8518, 8519, 8528, 8527, 8851, 8852, 8861, 8860
  206188, 8519, 8520, 8529, 8528, 8852, 8853, 8862, 8861
  206189, 8520, 8521, 8530, 8529, 8853, 8854, 8863, 8862
  206190, 8521, 8522, 8531, 8530, 8854, 8855, 8864, 8863
  206191, 8522, 8523, 8532, 8531, 8855, 8856, 8865, 8864
  206192, 8524, 8525, 8534, 8533, 8857, 8858, 8867, 8866
  206193, 8525, 8526, 8535, 8534, 8858, 8859, 8868, 8867
  206194, 8526, 8527, 8536, 8535, 8859, 8860, 8869, 8868
  206195, 8527, 8528, 8537, 8536, 8860, 8861, 8870, 8869
  206196, 8528, 8529, 8538, 8537, 8861, 8862, 8871, 8870
  206197, 8529, 8530, 8539, 8538, 8862, 8863, 8872, 8871
  206198, 8530, 8531, 8540, 8539, 8863, 8864, 8873, 8872
  206199, 8531, 8532, 8541, 8540, 8864, 8865, 8874, 8873
  206200, 8533, 8534, 8543, 8542, 8866, 8867, 8876, 8875
  206201, 8534, 8535, 8544, 8543, 8867, 8868, 8877, 8876
  206202, 8535, 8536, 8545, 8544, 8868, 8869, 8878, 8877
  206203, 8536, 8537, 8546, 8545, 8869, 8870, 8879, 8878
  206204, 8537, 8538, 8547, 8546, 8870, 8871, 8880, 8879
  206205, 8538, 8539, 8548, 8547, 8871, 8872, 8881, 8880
  206206, 8539, 8540, 8549, 8548, 8872, 8873, 8882, 8881
  206207, 8540, 8541, 8550, 8549, 8873, 8874, 8883, 8882
  206208, 8542, 8543, 8552, 8551, 8875, 8876, 8885, 8884
  206209, 8543, 8544, 8553, 8552, 8876, 8877, 8886, 8885
  206210, 8544, 8545, 8554, 8553, 8877, 8878, 8887, 8886
  206211, 8545, 8546, 8555, 8554, 8878, 8879, 8888, 8887
  206212, 8546, 8547, 8556, 8555, 8879, 8880, 8889, 8888
  206213, 8547, 8548, 8557, 8556, 8880, 8881, 8890, 8889
  206214, 8548, 8549, 8558, 8557, 8881, 8882, 8891, 8890
  206215, 8549, 8550, 8559, 8558, 8882, 8883, 8892, 8891
  206216, 8551, 8552, 8561, 8560, 8884, 8885, 8894, 8893
  206217, 8552, 8553, 8562, 8561, 8885, 8886, 8895, 8894
  206218, 8553, 8554, 8563, 8562, 8886, 8887, 8896, 8895
  206219, 8554, 8555, 8564, 8563, 8887, 8888, 8897, 8896
  206220, 8555, 8556, 8565, 8564, 8888, 8889, 8898, 8897
  206221, 8556, 8557, 8566, 8565, 8889, 8890, 8899, 8898
  206222, 8557, 8558, 8567, 8566, 8890, 8891, 8900, 8899
  206223, 8558, 8559, 8568, 8567, 8891, 8892, 8901, 8900
  206224, 8560, 8561, 8570, 8569, 8893, 8894, 8903, 8902
  206225, 8561, 8562, 8571, 8570, 8894, 8895, 8904, 8903
  206226, 8562, 8563, 8572, 8571, 8895, 8896, 8905, 8904
  206227, 8563, 8564, 8573, 8572, 8896, 8897, 8906, 8905
  206228, 8564, 8565, 8574, 8573, 8897, 8898, 8907, 8906
  206229, 8565, 8566, 8575, 8574, 8898, 8899, 8908, 8907
  206230, 8566, 8567, 8576, 8575, 8899, 8900, 8909, 8908
  206231, 8567, 8568, 8577, 8576, 8900, 8901, 8910, 8909
  206232, 8569, 8570, 8579, 8578, 8902, 8903, 8912, 8911
  206233, 8570, 8571, 8580, 8579, 8903, 8904, 8913, 8912
  206234, 8571, 8572, 8581, 8580, 8904, 8905, 8914, 8913
  206235, 8572, 8573, 8582, 8581, 8905, 8906, 8915, 8914
  206236, 8573, 8574, 8583, 8582, 8906, 8907, 8916, 8915
  206237, 8574, 8575, 8584, 8583, 8907, 8908, 8917, 8916
  206238, 8575, 8576, 8585, 8584, 8908, 8909, 8918, 8917
  206239, 8576, 8577, 8586, 8585, 8909, 8910, 8919, 8918
  206240, 8578, 8579, 8588, 8587, 8911, 8912, 8921, 8920
  206241, 8579, 8580, 8589, 8588, 8912, 8913, 8922, 8921
  206242, 8580, 8581, 8590, 8589, 8913, 8914, 8923, 8922
  206243, 8581, 8582, 8591, 8590, 8914, 8915, 8924, 8923
  206244, 8582, 8583, 8592, 8591, 8915, 8916, 8925, 8924
  206245, 8583, 8584, 8593, 8592, 8916, 8917, 8926, 8925
  206246, 8584, 8585, 8594, 8593, 8917, 8918, 8927, 8926
  206247, 8585, 8586, 8595, 8594, 8918, 8919, 8928, 8927
  206248, 8587, 8588, 8597, 8596, 8920, 8921, 8930, 8929
  206249, 8588, 8589, 8598, 8597, 8921, 8922, 8931, 8930
  206250, 8589, 8590, 8599, 8598, 8922, 8923, 8932, 8931
  206251, 8590, 8591, 8600, 8599, 8923, 8924, 8933, 8932
  206252, 8591, 8592, 8601, 8600, 8924, 8925, 8934, 8933
  206253, 8592, 8593, 8602, 8601, 8925, 8926, 8935, 8934
  206254, 8593, 8594, 8603, 8602, 8926, 8927, 8936, 8935
  206255, 8594, 8595, 8604, 8603, 8927, 8928, 8937, 8936
  206256, 8596, 8597, 8606, 8605, 8929, 8930, 8939, 8938
  206257, 8597, 8598, 8607, 8606, 8930, 8931, 8940, 8939
  206258, 8598, 8599, 8608, 8607, 8931, 8932, 8941, 8940
  206259, 8599, 8600, 8609, 8608, 8932, 8933, 8942, 8941
  206260, 8600, 8601, 8610, 8609, 8933, 8934, 8943, 8942
  206261, 8601, 8602, 8611, 8610, 8934, 8935, 8944, 8943
  206262, 8602, 8603, 8612, 8611, 8935, 8936, 8945, 8944
  206263, 8603, 8604, 8613, 8612, 8936, 8937, 8946, 8945
  206264, 8605, 8606, 8615, 8614, 8938, 8939, 8948, 8947
  206265, 8606, 8607, 8616, 8615, 8939, 8940, 8949, 8948
  206266, 8607, 8608, 8617, 8616, 8940, 8941, 8950, 8949
  206267, 8608, 8609, 8618, 8617, 8941, 8942, 8951, 8950
  206268, 8609, 8610, 8619, 8618, 8942, 8943, 8952, 8951
  206269, 8610, 8611, 8620, 8619, 8943, 8944, 8953, 8952
  206270, 8611, 8612, 8621, 8620, 8944, 8945, 8954, 8953
  206271, 8612, 8613, 8622, 8621, 8945, 8946, 8955, 8954
  206272, 8614, 8615, 8624, 8623, 8947, 8948, 8957, 8956
  206273, 8615, 8616, 8625, 8624, 8948, 8949, 8958, 8957
  206274, 8616, 8617, 8626, 8625, 8949, 8950, 8959, 8958
  206275, 8617, 8618, 8627, 8626, 8950, 8951, 8960, 8959
  206276, 8618, 8619, 8628, 8627, 8951, 8952, 8961, 8960
  206277, 8619, 8620, 8629, 8628, 8952, 8953, 8962, 8961
  206278, 8620, 8621, 8630, 8629, 8953, 8954, 8963, 8962
  206279, 8621, 8622, 8631, 8630, 8954, 8955, 8964, 8963
  206280, 8623, 8624, 8633, 8632, 8956, 8957, 8966, 8965
  206281, 8624, 8625, 8634, 8633, 8957, 8958, 8967, 8966
  206282, 8625, 8626, 8635, 8634, 8958, 8959, 8968, 8967
  206283, 8626, 8627, 8636, 8635, 8959, 8960, 8969, 8968
  206284, 8627, 8628, 8637, 8636, 8960, 8961, 8970, 8969
  206285, 8628, 8629, 8638, 8637, 8961, 8962, 8971, 8970
  206286, 8629, 8630, 8639, 8638, 8962, 8963, 8972, 8971
  206287, 8630, 8631, 8640, 8639, 8963, 8964, 8973, 8972
  206288, 8632, 8633, 8642, 8641, 8965, 8966, 8975, 8974
  206289, 8633, 8634, 8643, 8642, 8966, 8967, 8976, 8975
  206290, 8634, 8635, 8644, 8643, 8967, 8968, 8977, 8976
  206291, 8635, 8636, 8645, 8644, 8968, 8969, 8978, 8977
  206292, 8636, 8637, 8646, 8645, 8969, 8970, 8979, 8978
  206293, 8637, 8638, 8647, 8646, 8970, 8971, 8980, 8979
  206294, 8638, 8639, 8648, 8647, 8971, 8972, 8981, 8980
  206295, 8639, 8640, 8649, 8648, 8972, 8973, 8982, 8981
  206296, 8641, 8642, 8651, 8650, 8974, 8975, 8984, 8983
  206297, 8642, 8643, 8652, 8651, 8975, 8976, 8985, 8984
  206298, 8643, 8644, 8653, 8652, 8976, 8977, 8986, 8985
  206299, 8644, 8645, 8654, 8653, 8977, 8978, 8987, 8986
  206300, 8645, 8646, 8655, 8654, 8978, 8979, 8988, 8987
  206301, 8646, 8647, 8656, 8655, 8979, 8980, 8989, 8988
  206302, 8647, 8648, 8657, 8656, 8980, 8981, 8990, 8989
  206303, 8648, 8649, 8658, 8657, 8981, 8982, 8991, 8990
  206304, 8650, 8651, 8660, 8659, 8983, 8984, 8993, 8992
  206305, 8651, 8652, 8661, 8660, 8984, 8985, 8994, 8993
  206306, 8652, 8653, 8662, 8661, 8985, 8986, 8995, 8994
  206307, 8653, 8654, 8663, 8662, 8986, 8987, 8996, 8995
  206308, 8654, 8655, 8664, 8663, 8987, 8988, 8997, 8996
  206309, 8655, 8656, 8665, 8664, 8988, 8989, 8998, 8997
  206310, 8656, 8657, 8666, 8665, 8989, 8990, 8999, 8998
  206311, 8657, 8658, 8667, 8666, 8990, 8991, 9000, 8999
  206312, 8659, 8660, 8669, 8668, 8992, 8993, 9002, 9001
  206313, 8660, 8661, 8670, 8669, 8993, 8994, 9003, 9002
  206314, 8661, 8662, 8671, 8670, 8994, 8995, 9004, 9003
  206315, 8662, 8663, 8672, 8671, 8995, 8996, 9005, 9004
  206316, 8663, 8664, 8673, 8672, 8996, 8997, 9006, 9005
  206317, 8664, 8665, 8674, 8673, 8997, 8998, 9007, 9006
  206318, 8665, 8666, 8675, 8674, 8998, 8999, 9008, 9007
  206319, 8666, 8667, 8676, 8675, 8999, 9000, 9009, 9008
  206320, 8668, 8669, 8678, 8677, 9001, 9002, 9011, 9010
  206321, 8669, 8670, 8679, 8678, 9002, 9003, 9012, 9011
  206322, 8670, 8671, 8680, 8679, 9003, 9004, 9013, 9012
  206323, 8671, 8672, 8681, 8680, 9004, 9005, 9014, 9013
  206324, 8672, 8673, 8682, 8681, 9005, 9006, 9015, 9014
  206325, 8673, 8674, 8683, 8682, 9006, 9007, 9016, 9015
  206326, 8674, 8675, 8684, 8683, 9007, 9008, 9017, 9016
  206327, 8675, 8676, 8685, 8684, 9008, 9009, 9018, 9017
  206328, 8677, 8678, 8687, 8686, 9010, 9011, 9020, 9019
  206329, 8678, 8679, 8688, 8687, 9011, 9012, 9021, 9020
  206330, 8679, 8680, 8689, 8688, 9012, 9013, 9022, 9021
  206331, 8680, 8681, 8690, 8689, 9013, 9014, 9023, 9022
  206332, 8681, 8682, 8691, 8690, 9014, 9015, 9024, 9023
  206333, 8682, 8683, 8692, 8691, 9015, 9016, 9025, 9024
  206334, 8683, 8684, 8693, 8692, 9016, 9017, 9026, 9025
  206335, 8684, 8685, 8694, 8693, 9017, 9018, 9027, 9026
  206336, 8695, 8696, 8705, 8704, 9028, 9029, 9038, 9037
  206337, 8696, 8697, 8706, 8705, 9029, 9030, 9039, 9038
  206338, 8697, 8698, 8707, 8706, 9030, 9031, 9040, 9039
  206339, 8698, 8699, 8708, 8707, 9031, 9032, 9041, 9040
  206340, 8699, 8700, 8709, 8708, 9032, 9033, 9042, 9041
  206341, 8700, 8701, 8710, 8709, 9033, 9034, 9043, 9042
  206342, 8701, 8702, 8711, 8710, 9034, 9035, 9044, 9043
  206343, 8702, 8703, 8712, 8711, 9035, 9036, 9045, 9044
  206344, 8704, 8705, 8714, 8713, 9037, 9038, 9047, 9046
  206345, 8705, 8706, 8715, 8714, 9038, 9039, 9048, 9047
  206346, 8706, 8707, 8716, 8715, 9039, 9040, 9049, 9048
  206347, 8707, 8708, 8717, 8716, 9040, 9041, 9050, 9049
  206348, 8708, 8709, 8718, 8717, 9041, 9042, 9051, 9050
  206349, 8709, 8710, 8719, 8718, 9042, 9043, 9052, 9051
  206350, 8710, 8711, 8720, 8719, 9043, 9044, 9053, 9052
  206351, 8711, 8712, 8721, 8720, 9044, 9045, 9054, 9053
  206352, 8713, 8714, 8723, 8722, 9046, 9047, 9056, 9055
  206353, 8714, 8715, 8724, 8723, 9047, 9048, 9057, 9056
  206354, 8715, 8716, 8725, 8724, 9048, 9049, 9058, 9057
  206355, 8716, 8717, 8726, 8725, 9049, 9050, 9059, 9058
  206356, 8717, 8718, 8727, 8726, 9050, 9051, 9060, 9059
  206357, 8718, 8719, 8728, 8727, 9051, 9052, 9061, 9060
  206358, 8719, 8720, 8729, 8728, 9052, 9053, 9062, 9061
  206359, 8720, 8721, 8730, 8729, 9053, 9054, 9063, 9062
  206360, 8722, 8723, 8732, 8731, 9055, 9056, 9065, 9064
  206361, 8723, 8724, 8733, 8732, 9056, 9057, 9066, 9065
  206362, 8724, 8725, 8734, 8733, 9057, 9058, 9067, 9066
  206363, 8725, 8726, 8735, 8734, 9058, 9059, 9068, 9067
  206364, 8726, 8727, 8736, 8735, 9059, 9060, 9069, 9068
  206365, 8727, 8728, 8737, 8736, 9060, 9061, 9070, 9069
  206366, 8728, 8729, 8738, 8737, 9061, 9062, 9071, 9070
  206367, 8729, 8730, 8739, 8738, 9062, 9063, 9072, 9071
  206368, 8731, 8732, 8741, 8740, 9064, 9065, 9074, 9073
  206369, 8732, 8733, 8742, 8741, 9065, 9066, 9075, 9074
  206370, 8733, 8734, 8743, 8742, 9066, 9067, 9076, 9075
  206371, 8734, 8735, 8744, 8743, 9067, 9068, 9077, 9076
  206372, 8735, 8736, 8745, 8744, 9068, 9069, 9078, 9077
  206373, 8736, 8737, 8746, 8745, 9069, 9070, 9079, 9078
  206374, 8737, 8738, 8747, 8746, 9070, 9071, 9080, 9079
  206375, 8738, 8739, 8748, 8747, 9071, 9072, 9081, 9080
  206376, 8740, 8741, 8750, 8749, 9073, 9074, 9083, 9082
  206377, 8741, 8742, 8751, 8750, 9074, 9075, 9084, 9083
  206378, 8742, 8743, 8752, 8751, 9075, 9076, 9085, 9084
  206379, 8743, 8744, 8753, 8752, 9076, 9077, 9086, 9085
  206380, 8744, 8745, 8754, 8753, 9077, 9078, 9087, 9086
  206381, 8745, 8746, 8755, 8754, 9078, 9079, 9088, 9087
  206382, 8746, 8747, 8756, 8755, 9079, 9080, 9089, 9088
  206383, 8747, 8748, 8757, 8756, 9080, 9081, 9090, 9089
  206384, 8749, 8750, 8759, 8758, 9082, 9083, 9092, 9091
  206385, 8750, 8751, 8760, 8759, 9083, 9084, 9093, 9092
  206386, 8751, 8752, 8761, 8760, 9084, 9085, 9094, 9093
  206387, 8752, 8753, 8762, 8761, 9085, 9086, 9095, 9094
  206388, 8753, 8754, 8763, 8762, 9086, 9087, 9096, 9095
  206389, 8754, 8755, 8764, 8763, 9087, 9088, 9097, 9096
  206390, 8755, 8756, 8765, 8764, 9088, 9089, 9098, 9097
  206391, 8756, 8757, 8766, 8765, 9089, 9090, 9099, 9098
  206392, 8758, 8759, 8768, 8767, 9091, 9092, 9101, 9100
  206393, 8759, 8760, 8769, 8768, 9092, 9093, 9102, 9101
  206394, 8760, 8761, 8770, 8769, 9093, 9094, 9103, 9102
  206395, 8761, 8762, 8771, 8770, 9094, 9095, 9104, 9103
  206396, 8762, 8763, 8772, 8771, 9095, 9096, 9105, 9104
  206397, 8763, 8764, 8773, 8772, 9096, 9097, 9106, 9105
  206398, 8764, 8765, 8774, 8773, 9097, 9098, 9107, 9106
  206399, 8765, 8766, 8775, 8774, 9098, 9099, 9108, 9107
  206400, 8767, 8768, 8777, 8776, 9100, 9101, 9110, 9109
  206401, 8768, 8769, 8778, 8777, 9101, 9102, 9111, 9110
  206402, 8769, 8770, 8779, 8778, 9102, 9103, 9112, 9111
  206403, 8770, 8771, 8780, 8779, 9103, 9104, 9113, 9112
  206404, 8771, 8772, 8781, 8780, 9104, 9105, 9114, 9113
  206405, 8772, 8773, 8782, 8781, 9105, 9106, 9115, 9114
  206406, 8773, 8774, 8783, 8782, 9106, 9107, 9116, 9115
  206407, 8774, 8775, 8784, 8783, 9107, 9108, 9117, 9116
  206408, 8776, 8777, 8786, 8785, 9109, 9110, 9119, 9118
  206409, 8777, 8778, 8787, 8786, 9110, 9111, 9120, 9119
  206410, 8778, 8779, 8788, 8787, 9111, 9112, 9121, 9120
  206411, 8779, 8780, 8789, 8788, 9112, 9113, 9122, 9121
  206412, 8780, 8781, 8790, 8789, 9113, 9114, 9123, 9122
  206413, 8781, 8782, 8791, 8790, 9114, 9115, 9124, 9123
  206414, 8782, 8783, 8792, 8791, 9115, 9116, 9125, 9124
  206415, 8783, 8784, 8793, 8792, 9116, 9117, 9126, 9125
  206416, 8785, 8786, 8795, 8794, 9118, 9119, 9128, 9127
  206417, 8786, 8787, 8796, 8795, 9119, 9120, 9129, 9128
  206418, 8787, 8788, 8797, 8796, 9120, 9121, 9130, 9129
  206419, 8788, 8789, 8798, 8797, 9121, 9122, 9131, 9130
  206420, 8789, 8790, 8799, 8798, 9122, 9123, 9132, 9131
  206421, 8790, 8791, 8800, 8799, 9123, 9124, 9133, 9132
  206422, 8791, 8792, 8801, 8800, 9124, 9125, 9134, 9133
  206423, 8792, 8793, 8802, 8801, 9125, 9126, 9135, 9134
  206424, 8794, 8795, 8804, 8803, 9127, 9128, 9137, 9136
  206425, 8795, 8796, 8805, 8804, 9128, 9129, 9138, 9137
  206426, 8796, 8797, 8806, 8805, 9129, 9130, 9139, 9138
  206427, 8797, 8798, 8807, 8806, 9130, 9131, 9140, 9139
  206428, 8798, 8799, 8808, 8807, 9131, 9132, 9141, 9140
  206429, 8799, 8800, 8809, 8808, 9132, 9133, 9142, 9141
  206430, 8800, 8801, 8810, 8809, 9133, 9134, 9143, 9142
  206431, 8801, 8802, 8811, 8810, 9134, 9135, 9144, 9143
  206432, 8803, 8804, 8813, 8812, 9136, 9137, 9146, 9145
  206433, 8804, 8805, 8814, 8813, 9137, 9138, 9147, 9146
  206434, 8805, 8806, 8815, 8814, 9138, 9139, 9148, 9147
  206435, 8806, 8807, 8816, 8815, 9139, 9140, 9149, 9148
  206436, 8807, 8808, 8817, 8816, 9140, 9141, 9150, 9149
  206437, 8808, 8809, 8818, 8817, 9141, 9142, 9151, 9150
  206438, 8809, 8810, 8819, 8818, 9142, 9143, 9152, 9151
  206439, 8810, 8811, 8820, 8819, 9143, 9144, 9153, 9152
  206440, 8812, 8813, 8822, 8821, 9145, 9146, 9155, 9154
  206441, 8813, 8814, 8823, 8822, 9146, 9147, 9156, 9155
  206442, 8814, 8815, 8824, 8823, 9147, 9148, 9157, 9156
  206443, 8815, 8816, 8825, 8824, 9148, 9149, 9158, 9157
  206444, 8816, 8817, 8826, 8825, 9149, 9150, 9159, 9158
  206445, 8817, 8818, 8827, 8826, 9150, 9151, 9160, 9159
  206446, 8818, 8819, 8828, 8827, 9151, 9152, 9161, 9160
  206447, 8819, 8820, 8829, 8828, 9152, 9153, 9162, 9161
  206448, 8821, 8822, 8831, 8830, 9154, 9155, 9164, 9163
  206449, 8822, 8823, 8832, 8831, 9155, 9156, 9165, 9164
  206450, 8823, 8824, 8833, 8832, 9156, 9157, 9166, 9165
  206451, 8824, 8825, 8834, 8833, 9157, 9158, 9167, 9166
  206452, 8825, 8826, 8835, 8834, 9158, 9159, 9168, 9167
  206453, 8826, 8827, 8836, 8835, 9159, 9160, 9169, 9168
  206454, 8827, 8828, 8837, 8836, 9160, 9161, 9170, 9169
  206455, 8828, 8829, 8838, 8837, 9161, 9162, 9171, 9170
  206456, 8830, 8831, 8840, 8839, 9163, 9164, 9173, 9172
  206457, 8831, 8832, 8841, 8840, 9164, 9165, 9174, 9173
  206458, 8832, 8833, 8842, 8841, 9165, 9166, 9175, 9174
  206459, 8833, 8834, 8843, 8842, 9166, 9167, 9176, 9175
  206460, 8834, 8835, 8844, 8843, 9167, 9168, 9177, 9176
  206461, 8835, 8836, 8845, 8844, 9168, 9169, 9178, 9177
  206462, 8836, 8837, 8846, 8845, 9169, 9170, 9179, 9178
  206463, 8837, 8838, 8847, 8846, 9170, 9171, 9180, 9179
  206464, 8839, 8840, 8849, 8848, 9172, 9173, 9182, 9181
  206465, 8840, 8841, 8850, 8849, 9173, 9174, 9183, 9182
  206466, 8841, 8842, 8851, 8850, 9174, 9175, 9184, 9183
  206467, 8842, 8843, 8852, 8851, 9175, 9176, 9185, 9184
  206468, 8843, 8844, 8853, 8852, 9176, 9177, 9186, 9185
  206469, 8844, 8845, 8854, 8853, 9177, 9178, 9187, 9186
  206470, 8845, 8846, 8855, 8854, 9178, 9179, 9188, 9187
  206471, 8846, 8847, 8856, 8855, 9179, 9180, 9189, 9188
  206472, 8848, 8849, 8858, 8857, 9181, 9182, 9191, 9190
  206473, 8849, 8850, 8859, 8858, 9182, 9183, 9192, 9191
  206474, 8850, 8851, 8860, 8859, 9183, 9184, 9193, 9192
  206475, 8851, 8852, 8861, 8860, 9184, 9185, 9194, 9193
  206476, 8852, 8853, 8862, 8861, 9185, 9186, 9195, 9194
  206477, 8853, 8854, 8863, 8862, 9186, 9187, 9196, 9195
  206478, 8854, 8855, 8864, 8863, 9187, 9188, 9197, 9196
  206479, 8855, 8856, 8865, 8864, 9188, 9189, 9198, 9197
  206480, 8857, 8858, 8867, 8866, 9190, 9191, 9200, 9199
  206481, 8858, 8859, 8868, 8867, 9191, 9192, 9201, 9200
  206482, 8859, 8860, 8869, 8868, 9192, 9193, 9202, 9201
  206483, 8860, 8861, 8870, 8869, 9193, 9194, 9203, 9202
  206484, 8861, 8862, 8871, 8870, 9194, 9195, 9204, 9203
  206485, 8862, 8863, 8872, 8871, 9195, 9196, 9205, 9204
  206486, 8863, 8864, 8873, 8872, 9196, 9197, 9206, 9205
  206487, 8864, 8865, 8874, 8873, 9197, 9198, 9207, 9206
  206488, 8866, 8867, 8876, 8875, 9199, 9200, 9209, 9208
  206489, 8867, 8868, 8877, 8876, 9200, 9201, 9210, 9209
  206490, 8868, 8869, 8878, 8877, 9201, 9202, 9211, 9210
  206491, 8869, 8870, 8879, 8878, 9202, 9203, 9212, 9211
  206492, 8870, 8871, 8880, 8879, 9203, 9204, 9213, 9212
  206493, 8871, 8872, 8881, 8880, 9204, 9205, 9214, 9213
  206494, 8872, 8873, 8882, 8881, 9205, 9206, 9215, 9214
  206495, 8873, 8874, 8883, 8882, 9206, 9207, 9216, 9215
  206496, 8875, 8876, 8885, 8884, 9208, 9209, 9218, 9217
  206497, 8876, 8877, 8886, 8885, 9209, 9210, 9219, 9218
  206498, 8877, 8878, 8887, 8886, 9210, 9211, 9220, 9219
  206499, 8878, 8879, 8888, 8887, 9211, 9212, 9221, 9220
  206500, 8879, 8880, 8889, 8888, 9212, 9213, 9222, 9221
  206501, 8880, 8881, 8890, 8889, 9213, 9214, 9223, 9222
  206502, 8881, 8882, 8891, 8890, 9214, 9215, 9224, 9223
  206503, 8882, 8883, 8892, 8891, 9215, 9216, 9225, 9224
  206504, 8884, 8885, 8894, 8893, 9217, 9218, 9227, 9226
  206505, 8885, 8886, 8895, 8894, 9218, 9219, 9228, 9227
  206506, 8886, 8887, 8896, 8895, 9219, 9220, 9229, 9228
  206507, 8887, 8888, 8897, 8896, 9220, 9221, 9230, 9229
  206508, 8888, 8889, 8898, 8897, 9221, 9222, 9231, 9230
  206509, 8889, 8890, 8899, 8898, 9222, 9223, 9232, 9231
  206510, 8890, 8891, 8900, 8899, 9223, 9224, 9233, 9232
  206511, 8891, 8892, 8901, 8900, 9224, 9225, 9234, 9233
  206512, 8893, 8894, 8903, 8902, 9226, 9227, 9236, 9235
  206513, 8894, 8895, 8904, 8903, 9227, 9228, 9237, 9236
  206514, 8895, 8896, 8905, 8904, 9228, 9229, 9238, 9237
  206515, 8896, 8897, 8906, 8905, 9229, 9230, 9239, 9238
  206516, 8897, 8898, 8907, 8906, 9230, 9231, 9240, 9239
  206517, 8898, 8899, 8908, 8907, 9231, 9232, 9241, 9240
  206518, 8899, 8900, 8909, 8908, 9232, 9233, 9242, 9241
  206519, 8900, 8901, 8910, 8909, 9233, 9234, 9243, 9242
  206520, 8902, 8903, 8912, 8911, 9235, 9236, 9245, 9244
  206521, 8903, 8904, 8913, 8912, 9236, 9237, 9246, 9245
  206522, 8904, 8905, 8914, 8913, 9237, 9238, 9247, 9246
  206523, 8905, 8906, 8915, 8914, 9238, 9239, 9248, 9247
  206524, 8906, 8907, 8916, 8915, 9239, 9240, 9249, 9248
  206525, 8907, 8908, 8917, 8916, 9240, 9241, 9250, 9249
  206526, 8908, 8909, 8918, 8917, 9241, 9242, 9251, 9250
  206527, 8909, 8910, 8919, 8918, 9242, 9243, 9252, 9251
  206528, 8911, 8912, 8921, 8920, 9244, 9245, 9254, 9253
  206529, 8912, 8913, 8922, 8921, 9245, 9246, 9255, 9254
  206530, 8913, 8914, 8923, 8922, 9246, 9247, 9256, 9255
  206531, 8914, 8915, 8924, 8923, 9247, 9248, 9257, 9256
  206532, 8915, 8916, 8925, 8924, 9248, 9249, 9258, 9257
  206533, 8916, 8917, 8926, 8925, 9249, 9250, 9259, 9258
  206534, 8917, 8918, 8927, 8926, 9250, 9251, 9260, 9259
  206535, 8918, 8919, 8928, 8927, 9251, 9252, 9261, 9260
  206536, 8920, 8921, 8930, 8929, 9253, 9254, 9263, 9262
  206537, 8921, 8922, 8931, 8930, 9254, 9255, 9264, 9263
  206538, 8922, 8923, 8932, 8931, 9255, 9256, 9265, 9264
  206539, 8923, 8924, 8933, 8932, 9256, 9257, 9266, 9265
  206540, 8924, 8925, 8934, 8933, 9257, 9258, 9267, 9266
  206541, 8925, 8926, 8935, 8934, 9258, 9259, 9268, 9267
  206542, 8926, 8927, 8936, 8935, 9259, 9260, 9269, 9268
  206543, 8927, 8928, 8937, 8936, 9260, 9261, 9270, 9269
  206544, 8929, 8930, 8939, 8938, 9262, 9263, 9272, 9271
  206545, 8930, 8931, 8940, 8939, 9263, 9264, 9273, 9272
  206546, 8931, 8932, 8941, 8940, 9264, 9265, 9274, 9273
  206547, 8932, 8933, 8942, 8941, 9265, 9266, 9275, 9274
  206548, 8933, 8934, 8943, 8942, 9266, 9267, 9276, 9275
  206549, 8934, 8935, 8944, 8943, 9267, 9268, 9277, 9276
  206550, 8935, 8936, 8945, 8944, 9268, 9269, 9278, 9277
  206551, 8936, 8937, 8946, 8945, 9269, 9270, 9279, 9278
  206552, 8938, 8939, 8948, 8947, 9271, 9272, 9281, 9280
  206553, 8939, 8940, 8949, 8948, 9272, 9273, 9282, 9281
  206554, 8940, 8941, 8950, 8949, 9273, 9274, 9283, 9282
  206555, 8941, 8942, 8951, 8950, 9274, 9275, 9284, 9283
  206556, 8942, 8943, 8952, 8951, 9275, 9276, 9285, 9284
  206557, 8943, 8944, 8953, 8952, 9276, 9277, 9286, 9285
  206558, 8944, 8945, 8954, 8953, 9277, 9278, 9287, 9286
  206559, 8945, 8946, 8955, 8954, 9278, 9279, 9288, 9287
  206560, 8947, 8948, 8957, 8956, 9280, 9281, 9290, 9289
  206561, 8948, 8949, 8958, 8957, 9281, 9282, 9291, 9290
  206562, 8949, 8950, 8959, 8958, 9282, 9283, 9292, 9291
  206563, 8950, 8951, 8960, 8959, 9283, 9284, 9293, 9292
  206564, 8951, 8952, 8961, 8960, 9284, 9285, 9294, 9293
  206565, 8952, 8953, 8962, 8961, 9285, 9286, 9295, 9294
  206566, 8953, 8954, 8963, 8962, 9286, 9287, 9296, 9295
  206567, 8954, 8955, 8964, 8963, 9287, 9288, 9297, 9296
  206568, 8956, 8957, 8966, 8965, 9289, 9290, 9299, 9298
  206569, 8957, 8958, 8967, 8966, 9290, 9291, 9300, 9299
  206570, 8958, 8959, 8968, 8967, 9291, 9292, 9301, 9300
  206571, 8959, 8960, 8969, 8968, 9292, 9293, 9302, 9301
  206572, 8960, 8961, 8970, 8969, 9293, 9294, 9303, 9302
  206573, 8961, 8962, 8971, 8970, 9294, 9295, 9304, 9303
  206574, 8962, 8963, 8972, 8971, 9295, 9296, 9305, 9304
  206575, 8963, 8964, 8973, 8972, 9296, 9297, 9306, 9305
  206576, 8965, 8966, 8975, 8974, 9298, 9299, 9308, 9307
  206577, 8966, 8967, 8976, 8975, 9299, 9300, 9309, 9308
  206578, 8967, 8968, 8977, 8976, 9300, 9301, 9310, 9309
  206579, 8968, 8969, 8978, 8977, 9301, 9302, 9311, 9310
  206580, 8969, 8970, 8979, 8978, 9302, 9303, 9312, 9311
  206581, 8970, 8971, 8980, 8979, 9303, 9304, 9313, 9312
  206582, 8971, 8972, 8981, 8980, 9304, 9305, 9314, 9313
  206583, 8972, 8973, 8982, 8981, 9305, 9306, 9315, 9314
  206584, 8974, 8975, 8984, 8983, 9307, 9308, 9317, 9316
  206585, 8975, 8976, 8985, 8984, 9308, 9309, 9318, 9317
  206586, 8976, 8977, 8986, 8985, 9309, 9310, 9319, 9318
  206587, 8977, 8978, 8987, 8986, 9310, 9311, 9320, 9319
  206588, 8978, 8979, 8988, 8987, 9311, 9312, 9321, 9320
  206589, 8979, 8980, 8989, 8988, 9312, 9313, 9322, 9321
  206590, 8980, 8981, 8990, 8989, 9313, 9314, 9323, 9322
  206591, 8981, 8982, 8991, 8990, 9314, 9315, 9324, 9323
  206592, 8983, 8984, 8993, 8992, 9316, 9317, 9326, 9325
  206593, 8984, 8985, 8994, 8993, 9317, 9318, 9327, 9326
  206594, 8985, 8986, 8995, 8994, 9318, 9319, 9328, 9327
  206595, 8986, 8987, 8996, 8995, 9319, 9320, 9329, 9328
  206596, 8987, 8988, 8997, 8996, 9320, 9321, 9330, 9329
  206597, 8988, 8989, 8998, 8997, 9321, 9322, 9331, 9330
  206598, 8989, 8990, 8999, 8998, 9322, 9323, 9332, 9331
  206599, 8990, 8991, 9000, 8999, 9323, 9324, 9333, 9332
  206600, 8992, 8993, 9002, 9001, 9325, 9326, 9335, 9334
  206601, 8993, 8994, 9003, 9002, 9326, 9327, 9336, 9335
  206602, 8994, 8995, 9004, 9003, 9327, 9328, 9337, 9336
  206603, 8995, 8996, 9005, 9004, 9328, 9329, 9338, 9337
  206604, 8996, 8997, 9006, 9005, 9329, 9330, 9339, 9338
  206605, 8997, 8998, 9007, 9006, 9330, 9331, 9340, 9339
  206606, 8998, 8999, 9008, 9007, 9331, 9332, 9341, 9340
  206607, 8999, 9000, 9009, 9008, 9332, 9333, 9342, 9341
  206608, 9001, 9002, 9011, 9010, 9334, 9335, 9344, 9343
  206609, 9002, 9003, 9012, 9011, 9335, 9336, 9345, 9344
  206610, 9003, 9004, 9013, 9012, 9336, 9337, 9346, 9345
  206611, 9004, 9005, 9014, 9013, 9337, 9338, 9347, 9346
  206612, 9005, 9006, 9015, 9014, 9338, 9339, 9348, 9347
  206613, 9006, 9007, 9016, 9015, 9339, 9340, 9349, 9348
  206614, 9007, 9008, 9017, 9016, 9340, 9341, 9350, 9349
  206615, 9008, 9009, 9018, 9017, 9341, 9342, 9351, 9350
  206616, 9010, 9011, 9020, 9019, 9343, 9344, 9353, 9352
  206617, 9011, 9012, 9021, 9020, 9344, 9345, 9354, 9353
  206618, 9012, 9013, 9022, 9021, 9345, 9346, 9355, 9354
  206619, 9013, 9014, 9023, 9022, 9346, 9347, 9356, 9355
  206620, 9014, 9015, 9024, 9023, 9347, 9348, 9357, 9356
  206621, 9015, 9016, 9025, 9024, 9348, 9349, 9358, 9357
  206622, 9016, 9017, 9026, 9025, 9349, 9350, 9359, 9358
  206623, 9017, 9018, 9027, 9026, 9350, 9351, 9360, 9359
  206624, 9028, 9029, 9038, 9037, 9361, 9362, 9371, 9370
  206625, 9029, 9030, 9039, 9038, 9362, 9363, 9372, 9371
  206626, 9030, 9031, 9040, 9039, 9363, 9364, 9373, 9372
  206627, 9031, 9032, 9041, 9040, 9364, 9365, 9374, 9373
  206628, 9032, 9033, 9042, 9041, 9365, 9366, 9375, 9374
  206629, 9033, 9034, 9043, 9042, 9366, 9367, 9376, 9375
  206630, 9034, 9035, 9044, 9043, 9367, 9368, 9377, 9376
  206631, 9035, 9036, 9045, 9044, 9368, 9369, 9378, 9377
  206632, 9037, 9038, 9047, 9046, 9370, 9371, 9380, 9379
  206633, 9038, 9039, 9048, 9047, 9371, 9372, 9381, 9380
  206634, 9039, 9040, 9049, 9048, 9372, 9373, 9382, 9381
  206635, 9040, 9041, 9050, 9049, 9373, 9374, 9383, 9382
  206636, 9041, 9042, 9051, 9050, 9374, 9375, 9384, 9383
  206637, 9042, 9043, 9052, 9051, 9375, 9376, 9385, 9384
  206638, 9043, 9044, 9053, 9052, 9376, 9377, 9386, 9385
  206639, 9044, 9045, 9054, 9053, 9377, 9378, 9387, 9386
  206640, 9046, 9047, 9056, 9055, 9379, 9380, 9389, 9388
  206641, 9047, 9048, 9057, 9056, 9380, 9381, 9390, 9389
  206642, 9048, 9049, 9058, 9057, 9381, 9382, 9391, 9390
  206643, 9049, 9050, 9059, 9058, 9382, 9383, 9392, 9391
  206644, 9050, 9051, 9060, 9059, 9383, 9384, 9393, 9392
  206645, 9051, 9052, 9061, 9060, 9384, 9385, 9394, 9393
  206646, 9052, 9053, 9062, 9061, 9385, 9386, 9395, 9394
  206647, 9053, 9054, 9063, 9062, 9386, 9387, 9396, 9395
  206648, 9055, 9056, 9065, 9064, 9388, 9389, 9398, 9397
  206649, 9056, 9057, 9066, 9065, 9389, 9390, 9399, 9398
  206650, 9057, 9058, 9067, 9066, 9390, 9391, 9400, 9399
  206651, 9058, 9059, 9068, 9067, 9391, 9392, 9401, 9400
  206652, 9059, 9060, 9069, 9068, 9392, 9393, 9402, 9401
  206653, 9060, 9061, 9070, 9069, 9393, 9394, 9403, 9402
  206654, 9061, 9062, 9071, 9070, 9394, 9395, 9404, 9403
  206655, 9062, 9063, 9072, 9071, 9395, 9396, 9405, 9404
  206656, 9064, 9065, 9074, 9073, 9397, 9398, 9407, 9406
  206657, 9065, 9066, 9075, 9074, 9398, 9399, 9408, 9407
  206658, 9066, 9067, 9076, 9075, 9399, 9400, 9409, 9408
  206659, 9067, 9068, 9077, 9076, 9400, 9401, 9410, 9409
  206660, 9068, 9069, 9078, 9077, 9401, 9402, 9411, 9410
  206661, 9069, 9070, 9079, 9078, 9402, 9403, 9412, 9411
  206662, 9070, 9071, 9080, 9079, 9403, 9404, 9413, 9412
  206663, 9071, 9072, 9081, 9080, 9404, 9405, 9414, 9413
  206664, 9073, 9074, 9083, 9082, 9406, 9407, 9416, 9415
  206665, 9074, 9075, 9084, 9083, 9407, 9408, 9417, 9416
  206666, 9075, 9076, 9085, 9084, 9408, 9409, 9418, 9417
  206667, 9076, 9077, 9086, 9085, 9409, 9410, 9419, 9418
  206668, 9077, 9078, 9087, 9086, 9410, 9411, 9420, 9419
  206669, 9078, 9079, 9088, 9087, 9411, 9412, 9421, 9420
  206670, 9079, 9080, 9089, 9088, 9412, 9413, 9422, 9421
  206671, 9080, 9081, 9090, 9089, 9413, 9414, 9423, 9422
  206672, 9082, 9083, 9092, 9091, 9415, 9416, 9425, 9424
  206673, 9083, 9084, 9093, 9092, 9416, 9417, 9426, 9425
  206674, 9084, 9085, 9094, 9093, 9417, 9418, 9427, 9426
  206675, 9085, 9086, 9095, 9094, 9418, 9419, 9428, 9427
  206676, 9086, 9087, 9096, 9095, 9419, 9420, 9429, 9428
  206677, 9087, 9088, 9097, 9096, 9420, 9421, 9430, 9429
  206678, 9088, 9089, 9098, 9097, 9421, 9422, 9431, 9430
  206679, 9089, 9090, 9099, 9098, 9422, 9423, 9432, 9431
  206680, 9091, 9092, 9101, 9100, 9424, 9425, 9434, 9433
  206681, 9092, 9093, 9102, 9101, 9425, 9426, 9435, 9434
  206682, 9093, 9094, 9103, 9102, 9426, 9427, 9436, 9435
  206683, 9094, 9095, 9104, 9103, 9427, 9428, 9437, 9436
  206684, 9095, 9096, 9105, 9104, 9428, 9429, 9438, 9437
  206685, 9096, 9097, 9106, 9105, 9429, 9430, 9439, 9438
  206686, 9097, 9098, 9107, 9106, 9430, 9431, 9440, 9439
  206687, 9098, 9099, 9108, 9107, 9431, 9432, 9441, 9440
  206688, 9100, 9101, 9110, 9109, 9433, 9434, 9443, 9442
  206689, 9101, 9102, 9111, 9110, 9434, 9435, 9444, 9443
  206690, 9102, 9103, 9112, 9111, 9435, 9436, 9445, 9444
  206691, 9103, 9104, 9113, 9112, 9436, 9437, 9446, 9445
  206692, 9104, 9105, 9114, 9113, 9437, 9438, 9447, 9446
  206693, 9105, 9106, 9115, 9114, 9438, 9439, 9448, 9447
  206694, 9106, 9107, 9116, 9115, 9439, 9440, 9449, 9448
  206695, 9107, 9108, 9117, 9116, 9440, 9441, 9450, 9449
  206696, 9109, 9110, 9119, 9118, 9442, 9443, 9452, 9451
  206697, 9110, 9111, 9120, 9119, 9443, 9444, 9453, 9452
  206698, 9111, 9112, 9121, 9120, 9444, 9445, 9454, 9453
  206699, 9112, 9113, 9122, 9121, 9445, 9446, 9455, 9454
  206700, 9113, 9114, 9123, 9122, 9446, 9447, 9456, 9455
  206701, 9114, 9115, 9124, 9123, 9447, 9448, 9457, 9456
  206702, 9115, 9116, 9125, 9124, 9448, 9449, 9458, 9457
  206703, 9116, 9117, 9126, 9125, 9449, 9450, 9459, 9458
  206704, 9118, 9119, 9128, 9127, 9451, 9452, 9461, 9460
  206705, 9119, 9120, 9129, 9128, 9452, 9453, 9462, 9461
  206706, 9120, 9121, 9130, 9129, 9453, 9454, 9463, 9462
  206707, 9121, 9122, 9131, 9130, 9454, 9455, 9464, 9463
  206708, 9122, 9123, 9132, 9131, 9455, 9456, 9465, 9464
  206709, 9123, 9124, 9133, 9132, 9456, 9457, 9466, 9465
  206710, 9124, 9125, 9134, 9133, 9457, 9458, 9467, 9466
  206711, 9125, 9126, 9135, 9134, 9458, 9459, 9468, 9467
  206712, 9127, 9128, 9137, 9136, 9460, 9461, 9470, 9469
  206713, 9128, 9129, 9138, 9137, 9461, 9462, 9471, 9470
  206714, 9129, 9130, 9139, 9138, 9462, 9463, 9472, 9471
  206715, 9130, 9131, 9140, 9139, 9463, 9464, 9473, 9472
  206716, 9131, 9132, 9141, 9140, 9464, 9465, 9474, 9473
  206717, 9132, 9133, 9142, 9141, 9465, 9466, 9475, 9474
  206718, 9133, 9134, 9143, 9142, 9466, 9467, 9476, 9475
  206719, 9134, 9135, 9144, 9143, 9467, 9468, 9477, 9476
  206720, 9136, 9137, 9146, 9145, 9469, 9470, 9479, 9478
  206721, 9137, 9138, 9147, 9146, 9470, 9471, 9480, 9479
  206722, 9138, 9139, 9148, 9147, 9471, 9472, 9481, 9480
  206723, 9139, 9140, 9149, 9148, 9472, 9473, 9482, 9481
  206724, 9140, 9141, 9150, 9149, 9473, 9474, 9483, 9482
  206725, 9141, 9142, 9151, 9150, 9474, 9475, 9484, 9483
  206726, 9142, 9143, 9152, 9151, 9475, 9476, 9485, 9484
  206727, 9143, 9144, 9153, 9152, 9476, 9477, 9486, 9485
  206728, 9145, 9146, 9155, 9154, 9478, 9479, 9488, 9487
  206729, 9146, 9147, 9156, 9155, 9479, 9480, 9489, 9488
  206730, 9147, 9148, 9157, 9156, 9480, 9481, 9490, 9489
  206731, 9148, 9149, 9158, 9157, 9481, 9482, 9491, 9490
  206732, 9149, 9150, 9159, 9158, 9482, 9483, 9492, 9491
  206733, 9150, 9151, 9160, 9159, 9483, 9484, 9493, 9492
  206734, 9151, 9152, 9161, 9160, 9484, 9485, 9494, 9493
  206735, 9152, 9153, 9162, 9161, 9485, 9486, 9495, 9494
  206736, 9154, 9155, 9164, 9163, 9487, 9488, 9497, 9496
  206737, 9155, 9156, 9165, 9164, 9488, 9489, 9498, 9497
  206738, 9156, 9157, 9166, 9165, 9489, 9490, 9499, 9498
  206739, 9157, 9158, 9167, 9166, 9490, 9491, 9500, 9499
  206740, 9158, 9159, 9168, 9167, 9491, 9492, 9501, 9500
  206741, 9159, 9160, 9169, 9168, 9492, 9493, 9502, 9501
  206742, 9160, 9161, 9170, 9169, 9493, 9494, 9503, 9502
  206743, 9161, 9162, 9171, 9170, 9494, 9495, 9504, 9503
  206744, 9163, 9164, 9173, 9172, 9496, 9497, 9506, 9505
  206745, 9164, 9165, 9174, 9173, 9497, 9498, 9507, 9506
  206746, 9165, 9166, 9175, 9174, 9498, 9499, 9508, 9507
  206747, 9166, 9167, 9176, 9175, 9499, 9500, 9509, 9508
  206748, 9167, 9168, 9177, 9176, 9500, 9501, 9510, 9509
  206749, 9168, 9169, 9178, 9177, 9501, 9502, 9511, 9510
  206750, 9169, 9170, 9179, 9178, 9502, 9503, 9512, 9511
  206751, 9170, 9171, 9180, 9179, 9503, 9504, 9513, 9512
  206752, 9172, 9173, 9182, 9181, 9505, 9506, 9515, 9514
  206753, 9173, 9174, 9183, 9182, 9506, 9507, 9516, 9515
  206754, 9174, 9175, 9184, 9183, 9507, 9508, 9517, 9516
  206755, 9175, 9176, 9185, 9184, 9508, 9509, 9518, 9517
  206756, 9176, 9177, 9186, 9185, 9509, 9510, 9519, 9518
  206757, 9177, 9178, 9187, 9186, 9510, 9511, 9520, 9519
  206758, 9178, 9179, 9188, 9187, 9511, 9512, 9521, 9520
  206759, 9179, 9180, 9189, 9188, 9512, 9513, 9522, 9521
  206760, 9181, 9182, 9191, 9190, 9514, 9515, 9524, 9523
  206761, 9182, 9183, 9192, 9191, 9515, 9516, 9525, 9524
  206762, 9183, 9184, 9193, 9192, 9516, 9517, 9526, 9525
  206763, 9184, 9185, 9194, 9193, 9517, 9518, 9527, 9526
  206764, 9185, 9186, 9195, 9194, 9518, 9519, 9528, 9527
  206765, 9186, 9187, 9196, 9195, 9519, 9520, 9529, 9528
  206766, 9187, 9188, 9197, 9196, 9520, 9521, 9530, 9529
  206767, 9188, 9189, 9198, 9197, 9521, 9522, 9531, 9530
  206768, 9190, 9191, 9200, 9199, 9523, 9524, 9533, 9532
  206769, 9191, 9192, 9201, 9200, 9524, 9525, 9534, 9533
  206770, 9192, 9193, 9202, 9201, 9525, 9526, 9535, 9534
  206771, 9193, 9194, 9203, 9202, 9526, 9527, 9536, 9535
  206772, 9194, 9195, 9204, 9203, 9527, 9528, 9537, 9536
  206773, 9195, 9196, 9205, 9204, 9528, 9529, 9538, 9537
  206774, 9196, 9197, 9206, 9205, 9529, 9530, 9539, 9538
  206775, 9197, 9198, 9207, 9206, 9530, 9531, 9540, 9539
  206776, 9199, 9200, 9209, 9208, 9532, 9533, 9542, 9541
  206777, 9200, 9201, 9210, 9209, 9533, 9534, 9543, 9542
  206778, 9201, 9202, 9211, 9210, 9534, 9535, 9544, 9543
  206779, 9202, 9203, 9212, 9211, 9535, 9536, 9545, 9544
  206780, 9203, 9204, 9213, 9212, 9536, 9537, 9546, 9545
  206781, 9204, 9205, 9214, 9213, 9537, 9538, 9547, 9546
  206782, 9205, 9206, 9215, 9214, 9538, 9539, 9548, 9547
  206783, 9206, 9207, 9216, 9215, 9539, 9540, 9549, 9548
  206784, 9208, 9209, 9218, 9217, 9541, 9542, 9551, 9550
  206785, 9209, 9210, 9219, 9218, 9542, 9543, 9552, 9551
  206786, 9210, 9211, 9220, 9219, 9543, 9544, 9553, 9552
  206787, 9211, 9212, 9221, 9220, 9544, 9545, 9554, 9553
  206788, 9212, 9213, 9222, 9221, 9545, 9546, 9555, 9554
  206789, 9213, 9214, 9223, 9222, 9546, 9547, 9556, 9555
  206790, 9214, 9215, 9224, 9223, 9547, 9548, 9557, 9556
  206791, 9215, 9216, 9225, 9224, 9548, 9549, 9558, 9557
  206792, 9217, 9218, 9227, 9226, 9550, 9551, 9560, 9559
  206793, 9218, 9219, 9228, 9227, 9551, 9552, 9561, 9560
  206794, 9219, 9220, 9229, 9228, 9552, 9553, 9562, 9561
  206795, 9220, 9221, 9230, 9229, 9553, 9554, 9563, 9562
  206796, 9221, 9222, 9231, 9230, 9554, 9555, 9564, 9563
  206797, 9222, 9223, 9232, 9231, 9555, 9556, 9565, 9564
  206798, 9223, 9224, 9233, 9232, 9556, 9557, 9566, 9565
  206799, 9224, 9225, 9234, 9233, 9557, 9558, 9567, 9566
  206800, 9226, 9227, 9236, 9235, 9559, 9560, 9569, 9568
  206801, 9227, 9228, 9237, 9236, 9560, 9561, 9570, 9569
  206802, 9228, 9229, 9238, 9237, 9561, 9562, 9571, 9570
  206803, 9229, 9230, 9239, 9238, 9562, 9563, 9572, 9571
  206804, 9230, 9231, 9240, 9239, 9563, 9564, 9573, 9572
  206805, 9231, 9232, 9241, 9240, 9564, 9565, 9574, 9573
  206806, 9232, 9233, 9242, 9241, 9565, 9566, 9575, 9574
  206807, 9233, 9234, 9243, 9242, 9566, 9567, 9576, 9575
  206808, 9235, 9236, 9245, 9244, 9568, 9569, 9578, 9577
  206809, 9236, 9237, 9246, 9245, 9569, 9570, 9579, 9578
  206810, 9237, 9238, 9247, 9246, 9570, 9571, 9580, 9579
  206811, 9238, 9239, 9248, 9247, 9571, 9572, 9581, 9580
  206812, 9239, 9240, 9249, 9248, 9572, 9573, 9582, 9581
  206813, 9240, 9241, 9250, 9249, 9573, 9574, 9583, 9582
  206814, 9241, 9242, 9251, 9250, 9574, 9575, 9584, 9583
  206815, 9242, 9243, 9252, 9251, 9575, 9576, 9585, 9584
  206816, 9244, 9245, 9254, 9253, 9577, 9578, 9587, 9586
  206817, 9245, 9246, 9255, 9254, 9578, 9579, 9588, 9587
  206818, 9246, 9247, 9256, 9255, 9579, 9580, 9589, 9588
  206819, 9247, 9248, 9257, 9256, 9580, 9581, 9590, 9589
  206820, 9248, 9249, 9258, 9257, 9581, 9582, 9591, 9590
  206821, 9249, 9250, 9259, 9258, 9582, 9583, 9592, 9591
  206822, 9250, 9251, 9260, 9259, 9583, 9584, 9593, 9592
  206823, 9251, 9252, 9261, 9260, 9584, 9585, 9594, 9593
  206824, 9253, 9254, 9263, 9262, 9586, 9587, 9596, 9595
  206825, 9254, 9255, 9264, 9263, 9587, 9588, 9597, 9596
  206826, 9255, 9256, 9265, 9264, 9588, 9589, 9598, 9597
  206827, 9256, 9257, 9266, 9265, 9589, 9590, 9599, 9598
  206828, 9257, 9258, 9267, 9266, 9590, 9591, 9600, 9599
  206829, 9258, 9259, 9268, 9267, 9591, 9592, 9601, 9600
  206830, 9259, 9260, 9269, 9268, 9592, 9593, 9602, 9601
  206831, 9260, 9261, 9270, 9269, 9593, 9594, 9603, 9602
  206832, 9262, 9263, 9272, 9271, 9595, 9596, 9605, 9604
  206833, 9263, 9264, 9273, 9272, 9596, 9597, 9606, 9605
  206834, 9264, 9265, 9274, 9273, 9597, 9598, 9607, 9606
  206835, 9265, 9266, 9275, 9274, 9598, 9599, 9608, 9607
  206836, 9266, 9267, 9276, 9275, 9599, 9600, 9609, 9608
  206837, 9267, 9268, 9277, 9276, 9600, 9601, 9610, 9609
  206838, 9268, 9269, 9278, 9277, 9601, 9602, 9611, 9610
  206839, 9269, 9270, 9279, 9278, 9602, 9603, 9612, 9611
  206840, 9271, 9272, 9281, 9280, 9604, 9605, 9614, 9613
  206841, 9272, 9273, 9282, 9281, 9605, 9606, 9615, 9614
  206842, 9273, 9274, 9283, 9282, 9606, 9607, 9616, 9615
  206843, 9274, 9275, 9284, 9283, 9607, 9608, 9617, 9616
  206844, 9275, 9276, 9285, 9284, 9608, 9609, 9618, 9617
  206845, 9276, 9277, 9286, 9285, 9609, 9610, 9619, 9618
  206846, 9277, 9278, 9287, 9286, 9610, 9611, 9620, 9619
  206847, 9278, 9279, 9288, 9287, 9611, 9612, 9621, 9620
  206848, 9280, 9281, 9290, 9289, 9613, 9614, 9623, 9622
  206849, 9281, 9282, 9291, 9290, 9614, 9615, 9624, 9623
  206850, 9282, 9283, 9292, 9291, 9615, 9616, 9625, 9624
  206851, 9283, 9284, 9293, 9292, 9616, 9617, 9626, 9625
  206852, 9284, 9285, 9294, 9293, 9617, 9618, 9627, 9626
  206853, 9285, 9286, 9295, 9294, 9618, 9619, 9628, 9627
  206854, 9286, 9287, 9296, 9295, 9619, 9620, 9629, 9628
  206855, 9287, 9288, 9297, 9296, 9620, 9621, 9630, 9629
  206856, 9289, 9290, 9299, 9298, 9622, 9623, 9632, 9631
  206857, 9290, 9291, 9300, 9299, 9623, 9624, 9633, 9632
  206858, 9291, 9292, 9301, 9300, 9624, 9625, 9634, 9633
  206859, 9292, 9293, 9302, 9301, 9625, 9626, 9635, 9634
  206860, 9293, 9294, 9303, 9302, 9626, 9627, 9636, 9635
  206861, 9294, 9295, 9304, 9303, 9627, 9628, 9637, 9636
  206862, 9295, 9296, 9305, 9304, 9628, 9629, 9638, 9637
  206863, 9296, 9297, 9306, 9305, 9629, 9630, 9639, 9638
  206864, 9298, 9299, 9308, 9307, 9631, 9632, 9641, 9640
  206865, 9299, 9300, 9309, 9308, 9632, 9633, 9642, 9641
  206866, 9300, 9301, 9310, 9309, 9633, 9634, 9643, 9642
  206867, 9301, 9302, 9311, 9310, 9634, 9635, 9644, 9643
  206868, 9302, 9303, 9312, 9311, 9635, 9636, 9645, 9644
  206869, 9303, 9304, 9313, 9312, 9636, 9637, 9646, 9645
  206870, 9304, 9305, 9314, 9313, 9637, 9638, 9647, 9646
  206871, 9305, 9306, 9315, 9314, 9638, 9639, 9648, 9647
  206872, 9307, 9308, 9317, 9316, 9640, 9641, 9650, 9649
  206873, 9308, 9309, 9318, 9317, 9641, 9642, 9651, 9650
  206874, 9309, 9310, 9319, 9318, 9642, 9643, 9652, 9651
  206875, 9310, 9311, 9320, 9319, 9643, 9644, 9653, 9652
  206876, 9311, 9312, 9321, 9320, 9644, 9645, 9654, 9653
  206877, 9312, 9313, 9322, 9321, 9645, 9646, 9655, 9654
  206878, 9313, 9314, 9323, 9322, 9646, 9647, 9656, 9655
  206879, 9314, 9315, 9324, 9323, 9647, 9648, 9657, 9656
  206880, 9316, 9317, 9326, 9325, 9649, 9650, 9659, 9658
  206881, 9317, 9318, 9327, 9326, 9650, 9651, 9660, 9659
  206882, 9318, 9319, 9328, 9327, 9651, 9652, 9661, 9660
  206883, 9319, 9320, 9329, 9328, 9652, 9653, 9662, 9661
  206884, 9320, 9321, 9330, 9329, 9653, 9654, 9663, 9662
  206885, 9321, 9322, 9331, 9330, 9654, 9655, 9664, 9663
  206886, 9322, 9323, 9332, 9331, 9655, 9656, 9665, 9664
  206887, 9323, 9324, 9333, 9332, 9656, 9657, 9666, 9665
  206888, 9325, 9326, 9335, 9334, 9658, 9659, 9668, 9667
  206889, 9326, 9327, 9336, 9335, 9659, 9660, 9669, 9668
  206890, 9327, 9328, 9337, 9336, 9660, 9661, 9670, 9669
  206891, 9328, 9329, 9338, 9337, 9661, 9662, 9671, 9670
  206892, 9329, 9330, 9339, 9338, 9662, 9663, 9672, 9671
  206893, 9330, 9331, 9340, 9339, 9663, 9664, 9673, 9672
  206894, 9331, 9332, 9341, 9340, 9664, 9665, 9674, 9673
  206895, 9332, 9333, 9342, 9341, 9665, 9666, 9675, 9674
  206896, 9334, 9335, 9344, 9343, 9667, 9668, 9677, 9676
  206897, 9335, 9336, 9345, 9344, 9668, 9669, 9678, 9677
  206898, 9336, 9337, 9346, 9345, 9669, 9670, 9679, 9678
  206899, 9337, 9338, 9347, 9346, 9670, 9671, 9680, 9679
  206900, 9338, 9339, 9348, 9347, 9671, 9672, 9681, 9680
  206901, 9339, 9340, 9349, 9348, 9672, 9673, 9682, 9681
  206902, 9340, 9341, 9350, 9349, 9673, 9674, 9683, 9682
  206903, 9341, 9342, 9351, 9350, 9674, 9675, 9684, 9683
  206904, 9343, 9344, 9353, 9352, 9676, 9677, 9686, 9685
  206905, 9344, 9345, 9354, 9353, 9677, 9678, 9687, 9686
  206906, 9345, 9346, 9355, 9354, 9678, 9679, 9688, 9687
  206907, 9346, 9347, 9356, 9355, 9679, 9680, 9689, 9688
  206908, 9347, 9348, 9357, 9356, 9680, 9681, 9690, 9689
  206909, 9348, 9349, 9358, 9357, 9681, 9682, 9691, 9690
  206910, 9349, 9350, 9359, 9358, 9682, 9683, 9692, 9691
  206911, 9350, 9351, 9360, 9359, 9683, 9684, 9693, 9692
  206912, 9361, 9362, 9371, 9370, 9694, 9695, 9704, 9703
  206913, 9362, 9363, 9372, 9371, 9695, 9696, 9705, 9704
  206914, 9363, 9364, 9373, 9372, 9696, 9697, 9706, 9705
  206915, 9364, 9365, 9374, 9373, 9697, 9698, 9707, 9706
  206916, 9365, 9366, 9375, 9374, 9698, 9699, 9708, 9707
  206917, 9366, 9367, 9376, 9375, 9699, 9700, 9709, 9708
  206918, 9367, 9368, 9377, 9376, 9700, 9701, 9710, 9709
  206919, 9368, 9369, 9378, 9377, 9701, 9702, 9711, 9710
  206920, 9370, 9371, 9380, 9379, 9703, 9704, 9713, 9712
  206921, 9371, 9372, 9381, 9380, 9704, 9705, 9714, 9713
  206922, 9372, 9373, 9382, 9381, 9705, 9706, 9715, 9714
  206923, 9373, 9374, 9383, 9382, 9706, 9707, 9716, 9715
  206924, 9374, 9375, 9384, 9383, 9707, 9708, 9717, 9716
  206925, 9375, 9376, 9385, 9384, 9708, 9709, 9718, 9717
  206926, 9376, 9377, 9386, 9385, 9709, 9710, 9719, 9718
  206927, 9377, 9378, 9387, 9386, 9710, 9711, 9720, 9719
  206928, 9379, 9380, 9389, 9388, 9712, 9713, 9722, 9721
  206929, 9380, 9381, 9390, 9389, 9713, 9714, 9723, 9722
  206930, 9381, 9382, 9391, 9390, 9714, 9715, 9724, 9723
  206931, 9382, 9383, 9392, 9391, 9715, 9716, 9725, 9724
  206932, 9383, 9384, 9393, 9392, 9716, 9717, 9726, 9725
  206933, 9384, 9385, 9394, 9393, 9717, 9718, 9727, 9726
  206934, 9385, 9386, 9395, 9394, 9718, 9719, 9728, 9727
  206935, 9386, 9387, 9396, 9395, 9719, 9720, 9729, 9728
  206936, 9388, 9389, 9398, 9397, 9721, 9722, 9731, 9730
  206937, 9389, 9390, 9399, 9398, 9722, 9723, 9732, 9731
  206938, 9390, 9391, 9400, 9399, 9723, 9724, 9733, 9732
  206939, 9391, 9392, 9401, 9400, 9724, 9725, 9734, 9733
  206940, 9392, 9393, 9402, 9401, 9725, 9726, 9735, 9734
  206941, 9393, 9394, 9403, 9402, 9726, 9727, 9736, 9735
  206942, 9394, 9395, 9404, 9403, 9727, 9728, 9737, 9736
  206943, 9395, 9396, 9405, 9404, 9728, 9729, 9738, 9737
  206944, 9397, 9398, 9407, 9406, 9730, 9731, 9740, 9739
  206945, 9398, 9399, 9408, 9407, 9731, 9732, 9741, 9740
  206946, 9399, 9400, 9409, 9408, 9732, 9733, 9742, 9741
  206947, 9400, 9401, 9410, 9409, 9733, 9734, 9743, 9742
  206948, 9401, 9402, 9411, 9410, 9734, 9735, 9744, 9743
  206949, 9402, 9403, 9412, 9411, 9735, 9736, 9745, 9744
  206950, 9403, 9404, 9413, 9412, 9736, 9737, 9746, 9745
  206951, 9404, 9405, 9414, 9413, 9737, 9738, 9747, 9746
  206952, 9406, 9407, 9416, 9415, 9739, 9740, 9749, 9748
  206953, 9407, 9408, 9417, 9416, 9740, 9741, 9750, 9749
  206954, 9408, 9409, 9418, 9417, 9741, 9742, 9751, 9750
  206955, 9409, 9410, 9419, 9418, 9742, 9743, 9752, 9751
  206956, 9410, 9411, 9420, 9419, 9743, 9744, 9753, 9752
  206957, 9411, 9412, 9421, 9420, 9744, 9745, 9754, 9753
  206958, 9412, 9413, 9422, 9421, 9745, 9746, 9755, 9754
  206959, 9413, 9414, 9423, 9422, 9746, 9747, 9756, 9755
  206960, 9415, 9416, 9425, 9424, 9748, 9749, 9758, 9757
  206961, 9416, 9417, 9426, 9425, 9749, 9750, 9759, 9758
  206962, 9417, 9418, 9427, 9426, 9750, 9751, 9760, 9759
  206963, 9418, 9419, 9428, 9427, 9751, 9752, 9761, 9760
  206964, 9419, 9420, 9429, 9428, 9752, 9753, 9762, 9761
  206965, 9420, 9421, 9430, 9429, 9753, 9754, 9763, 9762
  206966, 9421, 9422, 9431, 9430, 9754, 9755, 9764, 9763
  206967, 9422, 9423, 9432, 9431, 9755, 9756, 9765, 9764
  206968, 9424, 9425, 9434, 9433, 9757, 9758, 9767, 9766
  206969, 9425, 9426, 9435, 9434, 9758, 9759, 9768, 9767
  206970, 9426, 9427, 9436, 9435, 9759, 9760, 9769, 9768
  206971, 9427, 9428, 9437, 9436, 9760, 9761, 9770, 9769
  206972, 9428, 9429, 9438, 9437, 9761, 9762, 9771, 9770
  206973, 9429, 9430, 9439, 9438, 9762, 9763, 9772, 9771
  206974, 9430, 9431, 9440, 9439, 9763, 9764, 9773, 9772
  206975, 9431, 9432, 9441, 9440, 9764, 9765, 9774, 9773
  206976, 9433, 9434, 9443, 9442, 9766, 9767, 9776, 9775
  206977, 9434, 9435, 9444, 9443, 9767, 9768, 9777, 9776
  206978, 9435, 9436, 9445, 9444, 9768, 9769, 9778, 9777
  206979, 9436, 9437, 9446, 9445, 9769, 9770, 9779, 9778
  206980, 9437, 9438, 9447, 9446, 9770, 9771, 9780, 9779
  206981, 9438, 9439, 9448, 9447, 9771, 9772, 9781, 9780
  206982, 9439, 9440, 9449, 9448, 9772, 9773, 9782, 9781
  206983, 9440, 9441, 9450, 9449, 9773, 9774, 9783, 9782
  206984, 9442, 9443, 9452, 9451, 9775, 9776, 9785, 9784
  206985, 9443, 9444, 9453, 9452, 9776, 9777, 9786, 9785
  206986, 9444, 9445, 9454, 9453, 9777, 9778, 9787, 9786
  206987, 9445, 9446, 9455, 9454, 9778, 9779, 9788, 9787
  206988, 9446, 9447, 9456, 9455, 9779, 9780, 9789, 9788
  206989, 9447, 9448, 9457, 9456, 9780, 9781, 9790, 9789
  206990, 9448, 9449, 9458, 9457, 9781, 9782, 9791, 9790
  206991, 9449, 9450, 9459, 9458, 9782, 9783, 9792, 9791
  206992, 9451, 9452, 9461, 9460, 9784, 9785, 9794, 9793
  206993, 9452, 9453, 9462, 9461, 9785, 9786, 9795, 9794
  206994, 9453, 9454, 9463, 9462, 9786, 9787, 9796, 9795
  206995, 9454, 9455, 9464, 9463, 9787, 9788, 9797, 9796
  206996, 9455, 9456, 9465, 9464, 9788, 9789, 9798, 9797
  206997, 9456, 9457, 9466, 9465, 9789, 9790, 9799, 9798
  206998, 9457, 9458, 9467, 9466, 9790, 9791, 9800, 9799
  206999, 9458, 9459, 9468, 9467, 9791, 9792, 9801, 9800
  207000, 9460, 9461, 9470, 9469, 9793, 9794, 9803, 9802
  207001, 9461, 9462, 9471, 9470, 9794, 9795, 9804, 9803
  207002, 9462, 9463, 9472, 9471, 9795, 9796, 9805, 9804
  207003, 9463, 9464, 9473, 9472, 9796, 9797, 9806, 9805
  207004, 9464, 9465, 9474, 9473, 9797, 9798, 9807, 9806
  207005, 9465, 9466, 9475, 9474, 9798, 9799, 9808, 9807
  207006, 9466, 9467, 9476, 9475, 9799, 9800, 9809, 9808
  207007, 9467, 9468, 9477, 9476, 9800, 9801, 9810, 9809
  207008, 9469, 9470, 9479, 9478, 9802, 9803, 9812, 9811
  207009, 9470, 9471, 9480, 9479, 9803, 9804, 9813, 9812
  207010, 9471, 9472, 9481, 9480, 9804, 9805, 9814, 9813
  207011, 9472, 9473, 9482, 9481, 9805, 9806, 9815, 9814
  207012, 9473, 9474, 9483, 9482, 9806, 9807, 9816, 9815
  207013, 9474, 9475, 9484, 9483, 9807, 9808, 9817, 9816
  207014, 9475, 9476, 9485, 9484, 9808, 9809, 9818, 9817
  207015, 9476, 9477, 9486, 9485, 9809, 9810, 9819, 9818
  207016, 9478, 9479, 9488, 9487, 9811, 9812, 9821, 9820
  207017, 9479, 9480, 9489, 9488, 9812, 9813, 9822, 9821
  207018, 9480, 9481, 9490, 9489, 9813, 9814, 9823, 9822
  207019, 9481, 9482, 9491, 9490, 9814, 9815, 9824, 9823
  207020, 9482, 9483, 9492, 9491, 9815, 9816, 9825, 9824
  207021, 9483, 9484, 9493, 9492, 9816, 9817, 9826, 9825
  207022, 9484, 9485, 9494, 9493, 9817, 9818, 9827, 9826
  207023, 9485, 9486, 9495, 9494, 9818, 9819, 9828, 9827
  207024, 9487, 9488, 9497, 9496, 9820, 9821, 9830, 9829
  207025, 9488, 9489, 9498, 9497, 9821, 9822, 9831, 9830
  207026, 9489, 9490, 9499, 9498, 9822, 9823, 9832, 9831
  207027, 9490, 9491, 9500, 9499, 9823, 9824, 9833, 9832
  207028, 9491, 9492, 9501, 9500, 9824, 9825, 9834, 9833
  207029, 9492, 9493, 9502, 9501, 9825, 9826, 9835, 9834
  207030, 9493, 9494, 9503, 9502, 9826, 9827, 9836, 9835
  207031, 9494, 9495, 9504, 9503, 9827, 9828, 9837, 9836
  207032, 9496, 9497, 9506, 9505, 9829, 9830, 9839, 9838
  207033, 9497, 9498, 9507, 9506, 9830, 9831, 9840, 9839
  207034, 9498, 9499, 9508, 9507, 9831, 9832, 9841, 9840
  207035, 9499, 9500, 9509, 9508, 9832, 9833, 9842, 9841
  207036, 9500, 9501, 9510, 9509, 9833, 9834, 9843, 9842
  207037, 9501, 9502, 9511, 9510, 9834, 9835, 9844, 9843
  207038, 9502, 9503, 9512, 9511, 9835, 9836, 9845, 9844
  207039, 9503, 9504, 9513, 9512, 9836, 9837, 9846, 9845
  207040, 9505, 9506, 9515, 9514, 9838, 9839, 9848, 9847
  207041, 9506, 9507, 9516, 9515, 9839, 9840, 9849, 9848
  207042, 9507, 9508, 9517, 9516, 9840, 9841, 9850, 9849
  207043, 9508, 9509, 9518, 9517, 9841, 9842, 9851, 9850
  207044, 9509, 9510, 9519, 9518, 9842, 9843, 9852, 9851
  207045, 9510, 9511, 9520, 9519, 9843, 9844, 9853, 9852
  207046, 9511, 9512, 9521, 9520, 9844, 9845, 9854, 9853
  207047, 9512, 9513, 9522, 9521, 9845, 9846, 9855, 9854
  207048, 9514, 9515, 9524, 9523, 9847, 9848, 9857, 9856
  207049, 9515, 9516, 9525, 9524, 9848, 9849, 9858, 9857
  207050, 9516, 9517, 9526, 9525, 9849, 9850, 9859, 9858
  207051, 9517, 9518, 9527, 9526, 9850, 9851, 9860, 9859
  207052, 9518, 9519, 9528, 9527, 9851, 9852, 9861, 9860
  207053, 9519, 9520, 9529, 9528, 9852, 9853, 9862, 9861
  207054, 9520, 9521, 9530, 9529, 9853, 9854, 9863, 9862
  207055, 9521, 9522, 9531, 9530, 9854, 9855, 9864, 9863
  207056, 9523, 9524, 9533, 9532, 9856, 9857, 9866, 9865
  207057, 9524, 9525, 9534, 9533, 9857, 9858, 9867, 9866
  207058, 9525, 9526, 9535, 9534, 9858, 9859, 9868, 9867
  207059, 9526, 9527, 9536, 9535, 9859, 9860, 9869, 9868
  207060, 9527, 9528, 9537, 9536, 9860, 9861, 9870, 9869
  207061, 9528, 9529, 9538, 9537, 9861, 9862, 9871, 9870
  207062, 9529, 9530, 9539, 9538, 9862, 9863, 9872, 9871
  207063, 9530, 9531, 9540, 9539, 9863, 9864, 9873, 9872
  207064, 9532, 9533, 9542, 9541, 9865, 9866, 9875, 9874
  207065, 9533, 9534, 9543, 9542, 9866, 9867, 9876, 9875
  207066, 9534, 9535, 9544, 9543, 9867, 9868, 9877, 9876
  207067, 9535, 9536, 9545, 9544, 9868, 9869, 9878, 9877
  207068, 9536, 9537, 9546, 9545, 9869, 9870, 9879, 9878
  207069, 9537, 9538, 9547, 9546, 9870, 9871, 9880, 9879
  207070, 9538, 9539, 9548, 9547, 9871, 9872, 9881, 9880
  207071, 9539, 9540, 9549, 9548, 9872, 9873, 9882, 9881
  207072, 9541, 9542, 9551, 9550, 9874, 9875, 9884, 9883
  207073, 9542, 9543, 9552, 9551, 9875, 9876, 9885, 9884
  207074, 9543, 9544, 9553, 9552, 9876, 9877, 9886, 9885
  207075, 9544, 9545, 9554, 9553, 9877, 9878, 9887, 9886
  207076, 9545, 9546, 9555, 9554, 9878, 9879, 9888, 9887
  207077, 9546, 9547, 9556, 9555, 9879, 9880, 9889, 9888
  207078, 9547, 9548, 9557, 9556, 9880, 9881, 9890, 9889
  207079, 9548, 9549, 9558, 9557, 9881, 9882, 9891, 9890
  207080, 9550, 9551, 9560, 9559, 9883, 9884, 9893, 9892
  207081, 9551, 9552, 9561, 9560, 9884, 9885, 9894, 9893
  207082, 9552, 9553, 9562, 9561, 9885, 9886, 9895, 9894
  207083, 9553, 9554, 9563, 9562, 9886, 9887, 9896, 9895
  207084, 9554, 9555, 9564, 9563, 9887, 9888, 9897, 9896
  207085, 9555, 9556, 9565, 9564, 9888, 9889, 9898, 9897
  207086, 9556, 9557, 9566, 9565, 9889, 9890, 9899, 9898
  207087, 9557, 9558, 9567, 9566, 9890, 9891, 9900, 9899
  207088, 9559, 9560, 9569, 9568, 9892, 9893, 9902, 9901
  207089, 9560, 9561, 9570, 9569, 9893, 9894, 9903, 9902
  207090, 9561, 9562, 9571, 9570, 9894, 9895, 9904, 9903
  207091, 9562, 9563, 9572, 9571, 9895, 9896, 9905, 9904
  207092, 9563, 9564, 9573, 9572, 9896, 9897, 9906, 9905
  207093, 9564, 9565, 9574, 9573, 9897, 9898, 9907, 9906
  207094, 9565, 9566, 9575, 9574, 9898, 9899, 9908, 9907
  207095, 9566, 9567, 9576, 9575, 9899, 9900, 9909, 9908
  207096, 9568, 9569, 9578, 9577, 9901, 9902, 9911, 9910
  207097, 9569, 9570, 9579, 9578, 9902, 9903, 9912, 9911
  207098, 9570, 9571, 9580, 9579, 9903, 9904, 9913, 9912
  207099, 9571, 9572, 9581, 9580, 9904, 9905, 9914, 9913
  207100, 9572, 9573, 9582, 9581, 9905, 9906, 9915, 9914
  207101, 9573, 9574, 9583, 9582, 9906, 9907, 9916, 9915
  207102, 9574, 9575, 9584, 9583, 9907, 9908, 9917, 9916
  207103, 9575, 9576, 9585, 9584, 9908, 9909, 9918, 9917
  207104, 9577, 9578, 9587, 9586, 9910, 9911, 9920, 9919
  207105, 9578, 9579, 9588, 9587, 9911, 9912, 9921, 9920
  207106, 9579, 9580, 9589, 9588, 9912, 9913, 9922, 9921
  207107, 9580, 9581, 9590, 9589, 9913, 9914, 9923, 9922
  207108, 9581, 9582, 9591, 9590, 9914, 9915, 9924, 9923
  207109, 9582, 9583, 9592, 9591, 9915, 9916, 9925, 9924
  207110, 9583, 9584, 9593, 9592, 9916, 9917, 9926, 9925
  207111, 9584, 9585, 9594, 9593, 9917, 9918, 9927, 9926
  207112, 9586, 9587, 9596, 9595, 9919, 9920, 9929, 9928
  207113, 9587, 9588, 9597, 9596, 9920, 9921, 9930, 9929
  207114, 9588, 9589, 9598, 9597, 9921, 9922, 9931, 9930
  207115, 9589, 9590, 9599, 9598, 9922, 9923, 9932, 9931
  207116, 9590, 9591, 9600, 9599, 9923, 9924, 9933, 9932
  207117, 9591, 9592, 9601, 9600, 9924, 9925, 9934, 9933
  207118, 9592, 9593, 9602, 9601, 9925, 9926, 9935, 9934
  207119, 9593, 9594, 9603, 9602, 9926, 9927, 9936, 9935
  207120, 9595, 9596, 9605, 9604, 9928, 9929, 9938, 9937
  207121, 9596, 9597, 9606, 9605, 9929, 9930, 9939, 9938
  207122, 9597, 9598, 9607, 9606, 9930, 9931, 9940, 9939
  207123, 9598, 9599, 9608, 9607, 9931, 9932, 9941, 9940
  207124, 9599, 9600, 9609, 9608, 9932, 9933, 9942, 9941
  207125, 9600, 9601, 9610, 9609, 9933, 9934, 9943, 9942
  207126, 9601, 9602, 9611, 9610, 9934, 9935, 9944, 9943
  207127, 9602, 9603, 9612, 9611, 9935, 9936, 9945, 9944
  207128, 9604, 9605, 9614, 9613, 9937, 9938, 9947, 9946
  207129, 9605, 9606, 9615, 9614, 9938, 9939, 9948, 9947
  207130, 9606, 9607, 9616, 9615, 9939, 9940, 9949, 9948
  207131, 9607, 9608, 9617, 9616, 9940, 9941, 9950, 9949
  207132, 9608, 9609, 9618, 9617, 9941, 9942, 9951, 9950
  207133, 9609, 9610, 9619, 9618, 9942, 9943, 9952, 9951
  207134, 9610, 9611, 9620, 9619, 9943, 9944, 9953, 9952
  207135, 9611, 9612, 9621, 9620, 9944, 9945, 9954, 9953
  207136, 9613, 9614, 9623, 9622, 9946, 9947, 9956, 9955
  207137, 9614, 9615, 9624, 9623, 9947, 9948, 9957, 9956
  207138, 9615, 9616, 9625, 9624, 9948, 9949, 9958, 9957
  207139, 9616, 9617, 9626, 9625, 9949, 9950, 9959, 9958
  207140, 9617, 9618, 9627, 9626, 9950, 9951, 9960, 9959
  207141, 9618, 9619, 9628, 9627, 9951, 9952, 9961, 9960
  207142, 9619, 9620, 9629, 9628, 9952, 9953, 9962, 9961
  207143, 9620, 9621, 9630, 9629, 9953, 9954, 9963, 9962
  207144, 9622, 9623, 9632, 9631, 9955, 9956, 9965, 9964
  207145, 9623, 9624, 9633, 9632, 9956, 9957, 9966, 9965
  207146, 9624, 9625, 9634, 9633, 9957, 9958, 9967, 9966
  207147, 9625, 9626, 9635, 9634, 9958, 9959, 9968, 9967
  207148, 9626, 9627, 9636, 9635, 9959, 9960, 9969, 9968
  207149, 9627, 9628, 9637, 9636, 9960, 9961, 9970, 9969
  207150, 9628, 9629, 9638, 9637, 9961, 9962, 9971, 9970
  207151, 9629, 9630, 9639, 9638, 9962, 9963, 9972, 9971
  207152, 9631, 9632, 9641, 9640, 9964, 9965, 9974, 9973
  207153, 9632, 9633, 9642, 9641, 9965, 9966, 9975, 9974
  207154, 9633, 9634, 9643, 9642, 9966, 9967, 9976, 9975
  207155, 9634, 9635, 9644, 9643, 9967, 9968, 9977, 9976
  207156, 9635, 9636, 9645, 9644, 9968, 9969, 9978, 9977
  207157, 9636, 9637, 9646, 9645, 9969, 9970, 9979, 9978
  207158, 9637, 9638, 9647, 9646, 9970, 9971, 9980, 9979
  207159, 9638, 9639, 9648, 9647, 9971, 9972, 9981, 9980
  207160, 9640, 9641, 9650, 9649, 9973, 9974, 9983, 9982
  207161, 9641, 9642, 9651, 9650, 9974, 9975, 9984, 9983
  207162, 9642, 9643, 9652, 9651, 9975, 9976, 9985, 9984
  207163, 9643, 9644, 9653, 9652, 9976, 9977, 9986, 9985
  207164, 9644, 9645, 9654, 9653, 9977, 9978, 9987, 9986
  207165, 9645, 9646, 9655, 9654, 9978, 9979, 9988, 9987
  207166, 9646, 9647, 9656, 9655, 9979, 9980, 9989, 9988
  207167, 9647, 9648, 9657, 9656, 9980, 9981, 9990, 9989
  207168, 9649, 9650, 9659, 9658, 9982, 9983, 9992, 9991
  207169, 9650, 9651, 9660, 9659, 9983, 9984, 9993, 9992
  207170, 9651, 9652, 9661, 9660, 9984, 9985, 9994, 9993
  207171, 9652, 9653, 9662, 9661, 9985, 9986, 9995, 9994
  207172, 9653, 9654, 9663, 9662, 9986, 9987, 9996, 9995
  207173, 9654, 9655, 9664, 9663, 9987, 9988, 9997, 9996
  207174, 9655, 9656, 9665, 9664, 9988, 9989, 9998, 9997
  207175, 9656, 9657, 9666, 9665, 9989, 9990, 9999, 9998
  207176, 9658, 9659, 9668, 9667, 9991, 9992, 10001, 10000
  207177, 9659, 9660, 9669, 9668, 9992, 9993, 10002, 10001
  207178, 9660, 9661, 9670, 9669, 9993, 9994, 10003, 10002
  207179, 9661, 9662, 9671, 9670, 9994, 9995, 10004, 10003
  207180, 9662, 9663, 9672, 9671, 9995, 9996, 10005, 10004
  207181, 9663, 9664, 9673, 9672, 9996, 9997, 10006, 10005
  207182, 9664, 9665, 9674, 9673, 9997, 9998, 10007, 10006
  207183, 9665, 9666, 9675, 9674, 9998, 9999, 10008, 10007
  207184, 9667, 9668, 9677, 9676, 10000, 10001, 10010, 10009
  207185, 9668, 9669, 9678, 9677, 10001, 10002, 10011, 10010
  207186, 9669, 9670, 9679, 9678, 10002, 10003, 10012, 10011
  207187, 9670, 9671, 9680, 9679, 10003, 10004, 10013, 10012
  207188, 9671, 9672, 9681, 9680, 10004, 10005, 10014, 10013
  207189, 9672, 9673, 9682, 9681, 10005, 10006, 10015, 10014
  207190, 9673, 9674, 9683, 9682, 10006, 10007, 10016, 10015
  207191, 9674, 9675, 9684, 9683, 10007, 10008, 10017, 10016
  207192, 9676, 9677, 9686, 9685, 10009, 10010, 10019, 10018
  207193, 9677, 9678, 9687, 9686, 10010, 10011, 10020, 10019
  207194, 9678, 9679, 9688, 9687, 10011, 10012, 10021, 10020
  207195, 9679, 9680, 9689, 9688, 10012, 10013, 10022, 10021
  207196, 9680, 9681, 9690, 9689, 10013, 10014, 10023, 10022
  207197, 9681, 9682, 9691, 9690, 10014, 10015, 10024, 10023
  207198, 9682, 9683, 9692, 9691, 10015, 10016, 10025, 10024
  207199, 9683, 9684, 9693, 9692, 10016, 10017, 10026, 10025
  207200, 9694, 9695, 9704, 9703, 10027, 10028, 10037, 10036
  207201, 9695, 9696, 9705, 9704, 10028, 10029, 10038, 10037
  207202, 9696, 9697, 9706, 9705, 10029, 10030, 10039, 10038
  207203, 9697, 9698, 9707, 9706, 10030, 10031, 10040, 10039
  207204, 9698, 9699, 9708, 9707, 10031, 10032, 10041, 10040
  207205, 9699, 9700, 9709, 9708, 10032, 10033, 10042, 10041
  207206, 9700, 9701, 9710, 9709, 10033, 10034, 10043, 10042
  207207, 9701, 9702, 9711, 9710, 10034, 10035, 10044, 10043
  207208, 9703, 9704, 9713, 9712, 10036, 10037, 10046, 10045
  207209, 9704, 9705, 9714, 9713, 10037, 10038, 10047, 10046
  207210, 9705, 9706, 9715, 9714, 10038, 10039, 10048, 10047
  207211, 9706, 9707, 9716, 9715, 10039, 10040, 10049, 10048
  207212, 9707, 9708, 9717, 9716, 10040, 10041, 10050, 10049
  207213, 9708, 9709, 9718, 9717, 10041, 10042, 10051, 10050
  207214, 9709, 9710, 9719, 9718, 10042, 10043, 10052, 10051
  207215, 9710, 9711, 9720, 9719, 10043, 10044, 10053, 10052
  207216, 9712, 9713, 9722, 9721, 10045, 10046, 10055, 10054
  207217, 9713, 9714, 9723, 9722, 10046, 10047, 10056, 10055
  207218, 9714, 9715, 9724, 9723, 10047, 10048, 10057, 10056
  207219, 9715, 9716, 9725, 9724, 10048, 10049, 10058, 10057
  207220, 9716, 9717, 9726, 9725, 10049, 10050, 10059, 10058
  207221, 9717, 9718, 9727, 9726, 10050, 10051, 10060, 10059
  207222, 9718, 9719, 9728, 9727, 10051, 10052, 10061, 10060
  207223, 9719, 9720, 9729, 9728, 10052, 10053, 10062, 10061
  207224, 9721, 9722, 9731, 9730, 10054, 10055, 10064, 10063
  207225, 9722, 9723, 9732, 9731, 10055, 10056, 10065, 10064
  207226, 9723, 9724, 9733, 9732, 10056, 10057, 10066, 10065
  207227, 9724, 9725, 9734, 9733, 10057, 10058, 10067, 10066
  207228, 9725, 9726, 9735, 9734, 10058, 10059, 10068, 10067
  207229, 9726, 9727, 9736, 9735, 10059, 10060, 10069, 10068
  207230, 9727, 9728, 9737, 9736, 10060, 10061, 10070, 10069
  207231, 9728, 9729, 9738, 9737, 10061, 10062, 10071, 10070
  207232, 9730, 9731, 9740, 9739, 10063, 10064, 10073, 10072
  207233, 9731, 9732, 9741, 9740, 10064, 10065, 10074, 10073
  207234, 9732, 9733, 9742, 9741, 10065, 10066, 10075, 10074
  207235, 9733, 9734, 9743, 9742, 10066, 10067, 10076, 10075
  207236, 9734, 9735, 9744, 9743, 10067, 10068, 10077, 10076
  207237, 9735, 9736, 9745, 9744, 10068, 10069, 10078, 10077
  207238, 9736, 9737, 9746, 9745, 10069, 10070, 10079, 10078
  207239, 9737, 9738, 9747, 9746, 10070, 10071, 10080, 10079
  207240, 9739, 9740, 9749, 9748, 10072, 10073, 10082, 10081
  207241, 9740, 9741, 9750, 9749, 10073, 10074, 10083, 10082
  207242, 9741, 9742, 9751, 9750, 10074, 10075, 10084, 10083
  207243, 9742, 9743, 9752, 9751, 10075, 10076, 10085, 10084
  207244, 9743, 9744, 9753, 9752, 10076, 10077, 10086, 10085
  207245, 9744, 9745, 9754, 9753, 10077, 10078, 10087, 10086
  207246, 9745, 9746, 9755, 9754, 10078, 10079, 10088, 10087
  207247, 9746, 9747, 9756, 9755, 10079, 10080, 10089, 10088
  207248, 9748, 9749, 9758, 9757, 10081, 10082, 10091, 10090
  207249, 9749, 9750, 9759, 9758, 10082, 10083, 10092, 10091
  207250, 9750, 9751, 9760, 9759, 10083, 10084, 10093, 10092
  207251, 9751, 9752, 9761, 9760, 10084, 10085, 10094, 10093
  207252, 9752, 9753, 9762, 9761, 10085, 10086, 10095, 10094
  207253, 9753, 9754, 9763, 9762, 10086, 10087, 10096, 10095
  207254, 9754, 9755, 9764, 9763, 10087, 10088, 10097, 10096
  207255, 9755, 9756, 9765, 9764, 10088, 10089, 10098, 10097
  207256, 9757, 9758, 9767, 9766, 10090, 10091, 10100, 10099
  207257, 9758, 9759, 9768, 9767, 10091, 10092, 10101, 10100
  207258, 9759, 9760, 9769, 9768, 10092, 10093, 10102, 10101
  207259, 9760, 9761, 9770, 9769, 10093, 10094, 10103, 10102
  207260, 9761, 9762, 9771, 9770, 10094, 10095, 10104, 10103
  207261, 9762, 9763, 9772, 9771, 10095, 10096, 10105, 10104
  207262, 9763, 9764, 9773, 9772, 10096, 10097, 10106, 10105
  207263, 9764, 9765, 9774, 9773, 10097, 10098, 10107, 10106
  207264, 9766, 9767, 9776, 9775, 10099, 10100, 10109, 10108
  207265, 9767, 9768, 9777, 9776, 10100, 10101, 10110, 10109
  207266, 9768, 9769, 9778, 9777, 10101, 10102, 10111, 10110
  207267, 9769, 9770, 9779, 9778, 10102, 10103, 10112, 10111
  207268, 9770, 9771, 9780, 9779, 10103, 10104, 10113, 10112
  207269, 9771, 9772, 9781, 9780, 10104, 10105, 10114, 10113
  207270, 9772, 9773, 9782, 9781, 10105, 10106, 10115, 10114
  207271, 9773, 9774, 9783, 9782, 10106, 10107, 10116, 10115
  207272, 9775, 9776, 9785, 9784, 10108, 10109, 10118, 10117
  207273, 9776, 9777, 9786, 9785, 10109, 10110, 10119, 10118
  207274, 9777, 9778, 9787, 9786, 10110, 10111, 10120, 10119
  207275, 9778, 9779, 9788, 9787, 10111, 10112, 10121, 10120
  207276, 9779, 9780, 9789, 9788, 10112, 10113, 10122, 10121
  207277, 9780, 9781, 9790, 9789, 10113, 10114, 10123, 10122
  207278, 9781, 9782, 9791, 9790, 10114, 10115, 10124, 10123
  207279, 9782, 9783, 9792, 9791, 10115, 10116, 10125, 10124
  207280, 9784, 9785, 9794, 9793, 10117, 10118, 10127, 10126
  207281, 9785, 9786, 9795, 9794, 10118, 10119, 10128, 10127
  207282, 9786, 9787, 9796, 9795, 10119, 10120, 10129, 10128
  207283, 9787, 9788, 9797, 9796, 10120, 10121, 10130, 10129
  207284, 9788, 9789, 9798, 9797, 10121, 10122, 10131, 10130
  207285, 9789, 9790, 9799, 9798, 10122, 10123, 10132, 10131
  207286, 9790, 9791, 9800, 9799, 10123, 10124, 10133, 10132
  207287, 9791, 9792, 9801, 9800, 10124, 10125, 10134, 10133
  207288, 9793, 9794, 9803, 9802, 10126, 10127, 10136, 10135
  207289, 9794, 9795, 9804, 9803, 10127, 10128, 10137, 10136
  207290, 9795, 9796, 9805, 9804, 10128, 10129, 10138, 10137
  207291, 9796, 9797, 9806, 9805, 10129, 10130, 10139, 10138
  207292, 9797, 9798, 9807, 9806, 10130, 10131, 10140, 10139
  207293, 9798, 9799, 9808, 9807, 10131, 10132, 10141, 10140
  207294, 9799, 9800, 9809, 9808, 10132, 10133, 10142, 10141
  207295, 9800, 9801, 9810, 9809, 10133, 10134, 10143, 10142
  207296, 9802, 9803, 9812, 9811, 10135, 10136, 10145, 10144
  207297, 9803, 9804, 9813, 9812, 10136, 10137, 10146, 10145
  207298, 9804, 9805, 9814, 9813, 10137, 10138, 10147, 10146
  207299, 9805, 9806, 9815, 9814, 10138, 10139, 10148, 10147
  207300, 9806, 9807, 9816, 9815, 10139, 10140, 10149, 10148
  207301, 9807, 9808, 9817, 9816, 10140, 10141, 10150, 10149
  207302, 9808, 9809, 9818, 9817, 10141, 10142, 10151, 10150
  207303, 9809, 9810, 9819, 9818, 10142, 10143, 10152, 10151
  207304, 9811, 9812, 9821, 9820, 10144, 10145, 10154, 10153
  207305, 9812, 9813, 9822, 9821, 10145, 10146, 10155, 10154
  207306, 9813, 9814, 9823, 9822, 10146, 10147, 10156, 10155
  207307, 9814, 9815, 9824, 9823, 10147, 10148, 10157, 10156
  207308, 9815, 9816, 9825, 9824, 10148, 10149, 10158, 10157
  207309, 9816, 9817, 9826, 9825, 10149, 10150, 10159, 10158
  207310, 9817, 9818, 9827, 9826, 10150, 10151, 10160, 10159
  207311, 9818, 9819, 9828, 9827, 10151, 10152, 10161, 10160
  207312, 9820, 9821, 9830, 9829, 10153, 10154, 10163, 10162
  207313, 9821, 9822, 9831, 9830, 10154, 10155, 10164, 10163
  207314, 9822, 9823, 9832, 9831, 10155, 10156, 10165, 10164
  207315, 9823, 9824, 9833, 9832, 10156, 10157, 10166, 10165
  207316, 9824, 9825, 9834, 9833, 10157, 10158, 10167, 10166
  207317, 9825, 9826, 9835, 9834, 10158, 10159, 10168, 10167
  207318, 9826, 9827, 9836, 9835, 10159, 10160, 10169, 10168
  207319, 9827, 9828, 9837, 9836, 10160, 10161, 10170, 10169
  207320, 9829, 9830, 9839, 9838, 10162, 10163, 10172, 10171
  207321, 9830, 9831, 9840, 9839, 10163, 10164, 10173, 10172
  207322, 9831, 9832, 9841, 9840, 10164, 10165, 10174, 10173
  207323, 9832, 9833, 9842, 9841, 10165, 10166, 10175, 10174
  207324, 9833, 9834, 9843, 9842, 10166, 10167, 10176, 10175
  207325, 9834, 9835, 9844, 9843, 10167, 10168, 10177, 10176
  207326, 9835, 9836, 9845, 9844, 10168, 10169, 10178, 10177
  207327, 9836, 9837, 9846, 9845, 10169, 10170, 10179, 10178
  207328, 9838, 9839, 9848, 9847, 10171, 10172, 10181, 10180
  207329, 9839, 9840, 9849, 9848, 10172, 10173, 10182, 10181
  207330, 9840, 9841, 9850, 9849, 10173, 10174, 10183, 10182
  207331, 9841, 9842, 9851, 9850, 10174, 10175, 10184, 10183
  207332, 9842, 9843, 9852, 9851, 10175, 10176, 10185, 10184
  207333, 9843, 9844, 9853, 9852, 10176, 10177, 10186, 10185
  207334, 9844, 9845, 9854, 9853, 10177, 10178, 10187, 10186
  207335, 9845, 9846, 9855, 9854, 10178, 10179, 10188, 10187
  207336, 9847, 9848, 9857, 9856, 10180, 10181, 10190, 10189
  207337, 9848, 9849, 9858, 9857, 10181, 10182, 10191, 10190
  207338, 9849, 9850, 9859, 9858, 10182, 10183, 10192, 10191
  207339, 9850, 9851, 9860, 9859, 10183, 10184, 10193, 10192
  207340, 9851, 9852, 9861, 9860, 10184, 10185, 10194, 10193
  207341, 9852, 9853, 9862, 9861, 10185, 10186, 10195, 10194
  207342, 9853, 9854, 9863, 9862, 10186, 10187, 10196, 10195
  207343, 9854, 9855, 9864, 9863, 10187, 10188, 10197, 10196
  207344, 9856, 9857, 9866, 9865, 10189, 10190, 10199, 10198
  207345, 9857, 9858, 9867, 9866, 10190, 10191, 10200, 10199
  207346, 9858, 9859, 9868, 9867, 10191, 10192, 10201, 10200
  207347, 9859, 9860, 9869, 9868, 10192, 10193, 10202, 10201
  207348, 9860, 9861, 9870, 9869, 10193, 10194, 10203, 10202
  207349, 9861, 9862, 9871, 9870, 10194, 10195, 10204, 10203
  207350, 9862, 9863, 9872, 9871, 10195, 10196, 10205, 10204
  207351, 9863, 9864, 9873, 9872, 10196, 10197, 10206, 10205
  207352, 9865, 9866, 9875, 9874, 10198, 10199, 10208, 10207
  207353, 9866, 9867, 9876, 9875, 10199, 10200, 10209, 10208
  207354, 9867, 9868, 9877, 9876, 10200, 10201, 10210, 10209
  207355, 9868, 9869, 9878, 9877, 10201, 10202, 10211, 10210
  207356, 9869, 9870, 9879, 9878, 10202, 10203, 10212, 10211
  207357, 9870, 9871, 9880, 9879, 10203, 10204, 10213, 10212
  207358, 9871, 9872, 9881, 9880, 10204, 10205, 10214, 10213
  207359, 9872, 9873, 9882, 9881, 10205, 10206, 10215, 10214
  207360, 9874, 9875, 9884, 9883, 10207, 10208, 10217, 10216
  207361, 9875, 9876, 9885, 9884, 10208, 10209, 10218, 10217
  207362, 9876, 9877, 9886, 9885, 10209, 10210, 10219, 10218
  207363, 9877, 9878, 9887, 9886, 10210, 10211, 10220, 10219
  207364, 9878, 9879, 9888, 9887, 10211, 10212, 10221, 10220
  207365, 9879, 9880, 9889, 9888, 10212, 10213, 10222, 10221
  207366, 9880, 9881, 9890, 9889, 10213, 10214, 10223, 10222
  207367, 9881, 9882, 9891, 9890, 10214, 10215, 10224, 10223
  207368, 9883, 9884, 9893, 9892, 10216, 10217, 10226, 10225
  207369, 9884, 9885, 9894, 9893, 10217, 10218, 10227, 10226
  207370, 9885, 9886, 9895, 9894, 10218, 10219, 10228, 10227
  207371, 9886, 9887, 9896, 9895, 10219, 10220, 10229, 10228
  207372, 9887, 9888, 9897, 9896, 10220, 10221, 10230, 10229
  207373, 9888, 9889, 9898, 9897, 10221, 10222, 10231, 10230
  207374, 9889, 9890, 9899, 9898, 10222, 10223, 10232, 10231
  207375, 9890, 9891, 9900, 9899, 10223, 10224, 10233, 10232
  207376, 9892, 9893, 9902, 9901, 10225, 10226, 10235, 10234
  207377, 9893, 9894, 9903, 9902, 10226, 10227, 10236, 10235
  207378, 9894, 9895, 9904, 9903, 10227, 10228, 10237, 10236
  207379, 9895, 9896, 9905, 9904, 10228, 10229, 10238, 10237
  207380, 9896, 9897, 9906, 9905, 10229, 10230, 10239, 10238
  207381, 9897, 9898, 9907, 9906, 10230, 10231, 10240, 10239
  207382, 9898, 9899, 9908, 9907, 10231, 10232, 10241, 10240
  207383, 9899, 9900, 9909, 9908, 10232, 10233, 10242, 10241
  207384, 9901, 9902, 9911, 9910, 10234, 10235, 10244, 10243
  207385, 9902, 9903, 9912, 9911, 10235, 10236, 10245, 10244
  207386, 9903, 9904, 9913, 9912, 10236, 10237, 10246, 10245
  207387, 9904, 9905, 9914, 9913, 10237, 10238, 10247, 10246
  207388, 9905, 9906, 9915, 9914, 10238, 10239, 10248, 10247
  207389, 9906, 9907, 9916, 9915, 10239, 10240, 10249, 10248
  207390, 9907, 9908, 9917, 9916, 10240, 10241, 10250, 10249
  207391, 9908, 9909, 9918, 9917, 10241, 10242, 10251, 10250
  207392, 9910, 9911, 9920, 9919, 10243, 10244, 10253, 10252
  207393, 9911, 9912, 9921, 9920, 10244, 10245, 10254, 10253
  207394, 9912, 9913, 9922, 9921, 10245, 10246, 10255, 10254
  207395, 9913, 9914, 9923, 9922, 10246, 10247, 10256, 10255
  207396, 9914, 9915, 9924, 9923, 10247, 10248, 10257, 10256
  207397, 9915, 9916, 9925, 9924, 10248, 10249, 10258, 10257
  207398, 9916, 9917, 9926, 9925, 10249, 10250, 10259, 10258
  207399, 9917, 9918, 9927, 9926, 10250, 10251, 10260, 10259
  207400, 9919, 9920, 9929, 9928, 10252, 10253, 10262, 10261
  207401, 9920, 9921, 9930, 9929, 10253, 10254, 10263, 10262
  207402, 9921, 9922, 9931, 9930, 10254, 10255, 10264, 10263
  207403, 9922, 9923, 9932, 9931, 10255, 10256, 10265, 10264
  207404, 9923, 9924, 9933, 9932, 10256, 10257, 10266, 10265
  207405, 9924, 9925, 9934, 9933, 10257, 10258, 10267, 10266
  207406, 9925, 9926, 9935, 9934, 10258, 10259, 10268, 10267
  207407, 9926, 9927, 9936, 9935, 10259, 10260, 10269, 10268
  207408, 9928, 9929, 9938, 9937, 10261, 10262, 10271, 10270
  207409, 9929, 9930, 9939, 9938, 10262, 10263, 10272, 10271
  207410, 9930, 9931, 9940, 9939, 10263, 10264, 10273, 10272
  207411, 9931, 9932, 9941, 9940, 10264, 10265, 10274, 10273
  207412, 9932, 9933, 9942, 9941, 10265, 10266, 10275, 10274
  207413, 9933, 9934, 9943, 9942, 10266, 10267, 10276, 10275
  207414, 9934, 9935, 9944, 9943, 10267, 10268, 10277, 10276
  207415, 9935, 9936, 9945, 9944, 10268, 10269, 10278, 10277
  207416, 9937, 9938, 9947, 9946, 10270, 10271, 10280, 10279
  207417, 9938, 9939, 9948, 9947, 10271, 10272, 10281, 10280
  207418, 9939, 9940, 9949, 9948, 10272, 10273, 10282, 10281
  207419, 9940, 9941, 9950, 9949, 10273, 10274, 10283, 10282
  207420, 9941, 9942, 9951, 9950, 10274, 10275, 10284, 10283
  207421, 9942, 9943, 9952, 9951, 10275, 10276, 10285, 10284
  207422, 9943, 9944, 9953, 9952, 10276, 10277, 10286, 10285
  207423, 9944, 9945, 9954, 9953, 10277, 10278, 10287, 10286
  207424, 9946, 9947, 9956, 9955, 10279, 10280, 10289, 10288
  207425, 9947, 9948, 9957, 9956, 10280, 10281, 10290, 10289
  207426, 9948, 9949, 9958, 9957, 10281, 10282, 10291, 10290
  207427, 9949, 9950, 9959, 9958, 10282, 10283, 10292, 10291
  207428, 9950, 9951, 9960, 9959, 10283, 10284, 10293, 10292
  207429, 9951, 9952, 9961, 9960, 10284, 10285, 10294, 10293
  207430, 9952, 9953, 9962, 9961, 10285, 10286, 10295, 10294
  207431, 9953, 9954, 9963, 9962, 10286, 10287, 10296, 10295
  207432, 9955, 9956, 9965, 9964, 10288, 10289, 10298, 10297
  207433, 9956, 9957, 9966, 9965, 10289, 10290, 10299, 10298
  207434, 9957, 9958, 9967, 9966, 10290, 10291, 10300, 10299
  207435, 9958, 9959, 9968, 9967, 10291, 10292, 10301, 10300
  207436, 9959, 9960, 9969, 9968, 10292, 10293, 10302, 10301
  207437, 9960, 9961, 9970, 9969, 10293, 10294, 10303, 10302
  207438, 9961, 9962, 9971, 9970, 10294, 10295, 10304, 10303
  207439, 9962, 9963, 9972, 9971, 10295, 10296, 10305, 10304
  207440, 9964, 9965, 9974, 9973, 10297, 10298, 10307, 10306
  207441, 9965, 9966, 9975, 9974, 10298, 10299, 10308, 10307
  207442, 9966, 9967, 9976, 9975, 10299, 10300, 10309, 10308
  207443, 9967, 9968, 9977, 9976, 10300, 10301, 10310, 10309
  207444, 9968, 9969, 9978, 9977, 10301, 10302, 10311, 10310
  207445, 9969, 9970, 9979, 9978, 10302, 10303, 10312, 10311
  207446, 9970, 9971, 9980, 9979, 10303, 10304, 10313, 10312
  207447, 9971, 9972, 9981, 9980, 10304, 10305, 10314, 10313
  207448, 9973, 9974, 9983, 9982, 10306, 10307, 10316, 10315
  207449, 9974, 9975, 9984, 9983, 10307, 10308, 10317, 10316
  207450, 9975, 9976, 9985, 9984, 10308, 10309, 10318, 10317
  207451, 9976, 9977, 9986, 9985, 10309, 10310, 10319, 10318
  207452, 9977, 9978, 9987, 9986, 10310, 10311, 10320, 10319
  207453, 9978, 9979, 9988, 9987, 10311, 10312, 10321, 10320
  207454, 9979, 9980, 9989, 9988, 10312, 10313, 10322, 10321
  207455, 9980, 9981, 9990, 9989, 10313, 10314, 10323, 10322
  207456, 9982, 9983, 9992, 9991, 10315, 10316, 10325, 10324
  207457, 9983, 9984, 9993, 9992, 10316, 10317, 10326, 10325
  207458, 9984, 9985, 9994, 9993, 10317, 10318, 10327, 10326
  207459, 9985, 9986, 9995, 9994, 10318, 10319, 10328, 10327
  207460, 9986, 9987, 9996, 9995, 10319, 10320, 10329, 10328
  207461, 9987, 9988, 9997, 9996, 10320, 10321, 10330, 10329
  207462, 9988, 9989, 9998, 9997, 10321, 10322, 10331, 10330
  207463, 9989, 9990, 9999, 9998, 10322, 10323, 10332, 10331
  207464, 9991, 9992, 10001, 10000, 10324, 10325, 10334, 10333
  207465, 9992, 9993, 10002, 10001, 10325, 10326, 10335, 10334
  207466, 9993, 9994, 10003, 10002, 10326, 10327, 10336, 10335
  207467, 9994, 9995, 10004, 10003, 10327, 10328, 10337, 10336
  207468, 9995, 9996, 10005, 10004, 10328, 10329, 10338, 10337
  207469, 9996, 9997, 10006, 10005, 10329, 10330, 10339, 10338
  207470, 9997, 9998, 10007, 10006, 10330, 10331, 10340, 10339
  207471, 9998, 9999, 10008, 10007, 10331, 10332, 10341, 10340
  207472, 10000, 10001, 10010, 10009, 10333, 10334, 10343, 10342
  207473, 10001, 10002, 10011, 10010, 10334, 10335, 10344, 10343
  207474, 10002, 10003, 10012, 10011, 10335, 10336, 10345, 10344
  207475, 10003, 10004, 10013, 10012, 10336, 10337, 10346, 10345
  207476, 10004, 10005, 10014, 10013, 10337, 10338, 10347, 10346
  207477, 10005, 10006, 10015, 10014, 10338, 10339, 10348, 10347
  207478, 10006, 10007, 10016, 10015, 10339, 10340, 10349, 10348
  207479, 10007, 10008, 10017, 10016, 10340, 10341, 10350, 10349
  207480, 10009, 10010, 10019, 10018, 10342, 10343, 10352, 10351
  207481, 10010, 10011, 10020, 10019, 10343, 10344, 10353, 10352
  207482, 10011, 10012, 10021, 10020, 10344, 10345, 10354, 10353
  207483, 10012, 10013, 10022, 10021, 10345, 10346, 10355, 10354
  207484, 10013, 10014, 10023, 10022, 10346, 10347, 10356, 10355
  207485, 10014, 10015, 10024, 10023, 10347, 10348, 10357, 10356
  207486, 10015, 10016, 10025, 10024, 10348, 10349, 10358, 10357
  207487, 10016, 10017, 10026, 10025, 10349, 10350, 10359, 10358
  207488, 10027, 10028, 10037, 10036, 10360, 10361, 10370, 10369
  207489, 10028, 10029, 10038, 10037, 10361, 10362, 10371, 10370
  207490, 10029, 10030, 10039, 10038, 10362, 10363, 10372, 10371
  207491, 10030, 10031, 10040, 10039, 10363, 10364, 10373, 10372
  207492, 10031, 10032, 10041, 10040, 10364, 10365, 10374, 10373
  207493, 10032, 10033, 10042, 10041, 10365, 10366, 10375, 10374
  207494, 10033, 10034, 10043, 10042, 10366, 10367, 10376, 10375
  207495, 10034, 10035, 10044, 10043, 10367, 10368, 10377, 10376
  207496, 10036, 10037, 10046, 10045, 10369, 10370, 10379, 10378
  207497, 10037, 10038, 10047, 10046, 10370, 10371, 10380, 10379
  207498, 10038, 10039, 10048, 10047, 10371, 10372, 10381, 10380
  207499, 10039, 10040, 10049, 10048, 10372, 10373, 10382, 10381
  207500, 10040, 10041, 10050, 10049, 10373, 10374, 10383, 10382
  207501, 10041, 10042, 10051, 10050, 10374, 10375, 10384, 10383
  207502, 10042, 10043, 10052, 10051, 10375, 10376, 10385, 10384
  207503, 10043, 10044, 10053, 10052, 10376, 10377, 10386, 10385
  207504, 10045, 10046, 10055, 10054, 10378, 10379, 10388, 10387
  207505, 10046, 10047, 10056, 10055, 10379, 10380, 10389, 10388
  207506, 10047, 10048, 10057, 10056, 10380, 10381, 10390, 10389
  207507, 10048, 10049, 10058, 10057, 10381, 10382, 10391, 10390
  207508, 10049, 10050, 10059, 10058, 10382, 10383, 10392, 10391
  207509, 10050, 10051, 10060, 10059, 10383, 10384, 10393, 10392
  207510, 10051, 10052, 10061, 10060, 10384, 10385, 10394, 10393
  207511, 10052, 10053, 10062, 10061, 10385, 10386, 10395, 10394
  207512, 10054, 10055, 10064, 10063, 10387, 10388, 10397, 10396
  207513, 10055, 10056, 10065, 10064, 10388, 10389, 10398, 10397
  207514, 10056, 10057, 10066, 10065, 10389, 10390, 10399, 10398
  207515, 10057, 10058, 10067, 10066, 10390, 10391, 10400, 10399
  207516, 10058, 10059, 10068, 10067, 10391, 10392, 10401, 10400
  207517, 10059, 10060, 10069, 10068, 10392, 10393, 10402, 10401
  207518, 10060, 10061, 10070, 10069, 10393, 10394, 10403, 10402
  207519, 10061, 10062, 10071, 10070, 10394, 10395, 10404, 10403
  207520, 10063, 10064, 10073, 10072, 10396, 10397, 10406, 10405
  207521, 10064, 10065, 10074, 10073, 10397, 10398, 10407, 10406
  207522, 10065, 10066, 10075, 10074, 10398, 10399, 10408, 10407
  207523, 10066, 10067, 10076, 10075, 10399, 10400, 10409, 10408
  207524, 10067, 10068, 10077, 10076, 10400, 10401, 10410, 10409
  207525, 10068, 10069, 10078, 10077, 10401, 10402, 10411, 10410
  207526, 10069, 10070, 10079, 10078, 10402, 10403, 10412, 10411
  207527, 10070, 10071, 10080, 10079, 10403, 10404, 10413, 10412
  207528, 10072, 10073, 10082, 10081, 10405, 10406, 10415, 10414
  207529, 10073, 10074, 10083, 10082, 10406, 10407, 10416, 10415
  207530, 10074, 10075, 10084, 10083, 10407, 10408, 10417, 10416
  207531, 10075, 10076, 10085, 10084, 10408, 10409, 10418, 10417
  207532, 10076, 10077, 10086, 10085, 10409, 10410, 10419, 10418
  207533, 10077, 10078, 10087, 10086, 10410, 10411, 10420, 10419
  207534, 10078, 10079, 10088, 10087, 10411, 10412, 10421, 10420
  207535, 10079, 10080, 10089, 10088, 10412, 10413, 10422, 10421
  207536, 10081, 10082, 10091, 10090, 10414, 10415, 10424, 10423
  207537, 10082, 10083, 10092, 10091, 10415, 10416, 10425, 10424
  207538, 10083, 10084, 10093, 10092, 10416, 10417, 10426, 10425
  207539, 10084, 10085, 10094, 10093, 10417, 10418, 10427, 10426
  207540, 10085, 10086, 10095, 10094, 10418, 10419, 10428, 10427
  207541, 10086, 10087, 10096, 10095, 10419, 10420, 10429, 10428
  207542, 10087, 10088, 10097, 10096, 10420, 10421, 10430, 10429
  207543, 10088, 10089, 10098, 10097, 10421, 10422, 10431, 10430
  207544, 10090, 10091, 10100, 10099, 10423, 10424, 10433, 10432
  207545, 10091, 10092, 10101, 10100, 10424, 10425, 10434, 10433
  207546, 10092, 10093, 10102, 10101, 10425, 10426, 10435, 10434
  207547, 10093, 10094, 10103, 10102, 10426, 10427, 10436, 10435
  207548, 10094, 10095, 10104, 10103, 10427, 10428, 10437, 10436
  207549, 10095, 10096, 10105, 10104, 10428, 10429, 10438, 10437
  207550, 10096, 10097, 10106, 10105, 10429, 10430, 10439, 10438
  207551, 10097, 10098, 10107, 10106, 10430, 10431, 10440, 10439
  207552, 10099, 10100, 10109, 10108, 10432, 10433, 10442, 10441
  207553, 10100, 10101, 10110, 10109, 10433, 10434, 10443, 10442
  207554, 10101, 10102, 10111, 10110, 10434, 10435, 10444, 10443
  207555, 10102, 10103, 10112, 10111, 10435, 10436, 10445, 10444
  207556, 10103, 10104, 10113, 10112, 10436, 10437, 10446, 10445
  207557, 10104, 10105, 10114, 10113, 10437, 10438, 10447, 10446
  207558, 10105, 10106, 10115, 10114, 10438, 10439, 10448, 10447
  207559, 10106, 10107, 10116, 10115, 10439, 10440, 10449, 10448
  207560, 10108, 10109, 10118, 10117, 10441, 10442, 10451, 10450
  207561, 10109, 10110, 10119, 10118, 10442, 10443, 10452, 10451
  207562, 10110, 10111, 10120, 10119, 10443, 10444, 10453, 10452
  207563, 10111, 10112, 10121, 10120, 10444, 10445, 10454, 10453
  207564, 10112, 10113, 10122, 10121, 10445, 10446, 10455, 10454
  207565, 10113, 10114, 10123, 10122, 10446, 10447, 10456, 10455
  207566, 10114, 10115, 10124, 10123, 10447, 10448, 10457, 10456
  207567, 10115, 10116, 10125, 10124, 10448, 10449, 10458, 10457
  207568, 10117, 10118, 10127, 10126, 10450, 10451, 10460, 10459
  207569, 10118, 10119, 10128, 10127, 10451, 10452, 10461, 10460
  207570, 10119, 10120, 10129, 10128, 10452, 10453, 10462, 10461
  207571, 10120, 10121, 10130, 10129, 10453, 10454, 10463, 10462
  207572, 10121, 10122, 10131, 10130, 10454, 10455, 10464, 10463
  207573, 10122, 10123, 10132, 10131, 10455, 10456, 10465, 10464
  207574, 10123, 10124, 10133, 10132, 10456, 10457, 10466, 10465
  207575, 10124, 10125, 10134, 10133, 10457, 10458, 10467, 10466
  207576, 10126, 10127, 10136, 10135, 10459, 10460, 10469, 10468
  207577, 10127, 10128, 10137, 10136, 10460, 10461, 10470, 10469
  207578, 10128, 10129, 10138, 10137, 10461, 10462, 10471, 10470
  207579, 10129, 10130, 10139, 10138, 10462, 10463, 10472, 10471
  207580, 10130, 10131, 10140, 10139, 10463, 10464, 10473, 10472
  207581, 10131, 10132, 10141, 10140, 10464, 10465, 10474, 10473
  207582, 10132, 10133, 10142, 10141, 10465, 10466, 10475, 10474
  207583, 10133, 10134, 10143, 10142, 10466, 10467, 10476, 10475
  207584, 10135, 10136, 10145, 10144, 10468, 10469, 10478, 10477
  207585, 10136, 10137, 10146, 10145, 10469, 10470, 10479, 10478
  207586, 10137, 10138, 10147, 10146, 10470, 10471, 10480, 10479
  207587, 10138, 10139, 10148, 10147, 10471, 10472, 10481, 10480
  207588, 10139, 10140, 10149, 10148, 10472, 10473, 10482, 10481
  207589, 10140, 10141, 10150, 10149, 10473, 10474, 10483, 10482
  207590, 10141, 10142, 10151, 10150, 10474, 10475, 10484, 10483
  207591, 10142, 10143, 10152, 10151, 10475, 10476, 10485, 10484
  207592, 10144, 10145, 10154, 10153, 10477, 10478, 10487, 10486
  207593, 10145, 10146, 10155, 10154, 10478, 10479, 10488, 10487
  207594, 10146, 10147, 10156, 10155, 10479, 10480, 10489, 10488
  207595, 10147, 10148, 10157, 10156, 10480, 10481, 10490, 10489
  207596, 10148, 10149, 10158, 10157, 10481, 10482, 10491, 10490
  207597, 10149, 10150, 10159, 10158, 10482, 10483, 10492, 10491
  207598, 10150, 10151, 10160, 10159, 10483, 10484, 10493, 10492
  207599, 10151, 10152, 10161, 10160, 10484, 10485, 10494, 10493
  207600, 10153, 10154, 10163, 10162, 10486, 10487, 10496, 10495
  207601, 10154, 10155, 10164, 10163, 10487, 10488, 10497, 10496
  207602, 10155, 10156, 10165, 10164, 10488, 10489, 10498, 10497
  207603, 10156, 10157, 10166, 10165, 10489, 10490, 10499, 10498
  207604, 10157, 10158, 10167, 10166, 10490, 10491, 10500, 10499
  207605, 10158, 10159, 10168, 10167, 10491, 10492, 10501, 10500
  207606, 10159, 10160, 10169, 10168, 10492, 10493, 10502, 10501
  207607, 10160, 10161, 10170, 10169, 10493, 10494, 10503, 10502
  207608, 10162, 10163, 10172, 10171, 10495, 10496, 10505, 10504
  207609, 10163, 10164, 10173, 10172, 10496, 10497, 10506, 10505
  207610, 10164, 10165, 10174, 10173, 10497, 10498, 10507, 10506
  207611, 10165, 10166, 10175, 10174, 10498, 10499, 10508, 10507
  207612, 10166, 10167, 10176, 10175, 10499, 10500, 10509, 10508
  207613, 10167, 10168, 10177, 10176, 10500, 10501, 10510, 10509
  207614, 10168, 10169, 10178, 10177, 10501, 10502, 10511, 10510
  207615, 10169, 10170, 10179, 10178, 10502, 10503, 10512, 10511
  207616, 10171, 10172, 10181, 10180, 10504, 10505, 10514, 10513
  207617, 10172, 10173, 10182, 10181, 10505, 10506, 10515, 10514
  207618, 10173, 10174, 10183, 10182, 10506, 10507, 10516, 10515
  207619, 10174, 10175, 10184, 10183, 10507, 10508, 10517, 10516
  207620, 10175, 10176, 10185, 10184, 10508, 10509, 10518, 10517
  207621, 10176, 10177, 10186, 10185, 10509, 10510, 10519, 10518
  207622, 10177, 10178, 10187, 10186, 10510, 10511, 10520, 10519
  207623, 10178, 10179, 10188, 10187, 10511, 10512, 10521, 10520
  207624, 10180, 10181, 10190, 10189, 10513, 10514, 10523, 10522
  207625, 10181, 10182, 10191, 10190, 10514, 10515, 10524, 10523
  207626, 10182, 10183, 10192, 10191, 10515, 10516, 10525, 10524
  207627, 10183, 10184, 10193, 10192, 10516, 10517, 10526, 10525
  207628, 10184, 10185, 10194, 10193, 10517, 10518, 10527, 10526
  207629, 10185, 10186, 10195, 10194, 10518, 10519, 10528, 10527
  207630, 10186, 10187, 10196, 10195, 10519, 10520, 10529, 10528
  207631, 10187, 10188, 10197, 10196, 10520, 10521, 10530, 10529
  207632, 10189, 10190, 10199, 10198, 10522, 10523, 10532, 10531
  207633, 10190, 10191, 10200, 10199, 10523, 10524, 10533, 10532
  207634, 10191, 10192, 10201, 10200, 10524, 10525, 10534, 10533
  207635, 10192, 10193, 10202, 10201, 10525, 10526, 10535, 10534
  207636, 10193, 10194, 10203, 10202, 10526, 10527, 10536, 10535
  207637, 10194, 10195, 10204, 10203, 10527, 10528, 10537, 10536
  207638, 10195, 10196, 10205, 10204, 10528, 10529, 10538, 10537
  207639, 10196, 10197, 10206, 10205, 10529, 10530, 10539, 10538
  207640, 10198, 10199, 10208, 10207, 10531, 10532, 10541, 10540
  207641, 10199, 10200, 10209, 10208, 10532, 10533, 10542, 10541
  207642, 10200, 10201, 10210, 10209, 10533, 10534, 10543, 10542
  207643, 10201, 10202, 10211, 10210, 10534, 10535, 10544, 10543
  207644, 10202, 10203, 10212, 10211, 10535, 10536, 10545, 10544
  207645, 10203, 10204, 10213, 10212, 10536, 10537, 10546, 10545
  207646, 10204, 10205, 10214, 10213, 10537, 10538, 10547, 10546
  207647, 10205, 10206, 10215, 10214, 10538, 10539, 10548, 10547
  207648, 10207, 10208, 10217, 10216, 10540, 10541, 10550, 10549
  207649, 10208, 10209, 10218, 10217, 10541, 10542, 10551, 10550
  207650, 10209, 10210, 10219, 10218, 10542, 10543, 10552, 10551
  207651, 10210, 10211, 10220, 10219, 10543, 10544, 10553, 10552
  207652, 10211, 10212, 10221, 10220, 10544, 10545, 10554, 10553
  207653, 10212, 10213, 10222, 10221, 10545, 10546, 10555, 10554
  207654, 10213, 10214, 10223, 10222, 10546, 10547, 10556, 10555
  207655, 10214, 10215, 10224, 10223, 10547, 10548, 10557, 10556
  207656, 10216, 10217, 10226, 10225, 10549, 10550, 10559, 10558
  207657, 10217, 10218, 10227, 10226, 10550, 10551, 10560, 10559
  207658, 10218, 10219, 10228, 10227, 10551, 10552, 10561, 10560
  207659, 10219, 10220, 10229, 10228, 10552, 10553, 10562, 10561
  207660, 10220, 10221, 10230, 10229, 10553, 10554, 10563, 10562
  207661, 10221, 10222, 10231, 10230, 10554, 10555, 10564, 10563
  207662, 10222, 10223, 10232, 10231, 10555, 10556, 10565, 10564
  207663, 10223, 10224, 10233, 10232, 10556, 10557, 10566, 10565
  207664, 10225, 10226, 10235, 10234, 10558, 10559, 10568, 10567
  207665, 10226, 10227, 10236, 10235, 10559, 10560, 10569, 10568
  207666, 10227, 10228, 10237, 10236, 10560, 10561, 10570, 10569
  207667, 10228, 10229, 10238, 10237, 10561, 10562, 10571, 10570
  207668, 10229, 10230, 10239, 10238, 10562, 10563, 10572, 10571
  207669, 10230, 10231, 10240, 10239, 10563, 10564, 10573, 10572
  207670, 10231, 10232, 10241, 10240, 10564, 10565, 10574, 10573
  207671, 10232, 10233, 10242, 10241, 10565, 10566, 10575, 10574
  207672, 10234, 10235, 10244, 10243, 10567, 10568, 10577, 10576
  207673, 10235, 10236, 10245, 10244, 10568, 10569, 10578, 10577
  207674, 10236, 10237, 10246, 10245, 10569, 10570, 10579, 10578
  207675, 10237, 10238, 10247, 10246, 10570, 10571, 10580, 10579
  207676, 10238, 10239, 10248, 10247, 10571, 10572, 10581, 10580
  207677, 10239, 10240, 10249, 10248, 10572, 10573, 10582, 10581
  207678, 10240, 10241, 10250, 10249, 10573, 10574, 10583, 10582
  207679, 10241, 10242, 10251, 10250, 10574, 10575, 10584, 10583
  207680, 10243, 10244, 10253, 10252, 10576, 10577, 10586, 10585
  207681, 10244, 10245, 10254, 10253, 10577, 10578, 10587, 10586
  207682, 10245, 10246, 10255, 10254, 10578, 10579, 10588, 10587
  207683, 10246, 10247, 10256, 10255, 10579, 10580, 10589, 10588
  207684, 10247, 10248, 10257, 10256, 10580, 10581, 10590, 10589
  207685, 10248, 10249, 10258, 10257, 10581, 10582, 10591, 10590
  207686, 10249, 10250, 10259, 10258, 10582, 10583, 10592, 10591
  207687, 10250, 10251, 10260, 10259, 10583, 10584, 10593, 10592
  207688, 10252, 10253, 10262, 10261, 10585, 10586, 10595, 10594
  207689, 10253, 10254, 10263, 10262, 10586, 10587, 10596, 10595
  207690, 10254, 10255, 10264, 10263, 10587, 10588, 10597, 10596
  207691, 10255, 10256, 10265, 10264, 10588, 10589, 10598, 10597
  207692, 10256, 10257, 10266, 10265, 10589, 10590, 10599, 10598
  207693, 10257, 10258, 10267, 10266, 10590, 10591, 10600, 10599
  207694, 10258, 10259, 10268, 10267, 10591, 10592, 10601, 10600
  207695, 10259, 10260, 10269, 10268, 10592, 10593, 10602, 10601
  207696, 10261, 10262, 10271, 10270, 10594, 10595, 10604, 10603
  207697, 10262, 10263, 10272, 10271, 10595, 10596, 10605, 10604
  207698, 10263, 10264, 10273, 10272, 10596, 10597, 10606, 10605
  207699, 10264, 10265, 10274, 10273, 10597, 10598, 10607, 10606
  207700, 10265, 10266, 10275, 10274, 10598, 10599, 10608, 10607
  207701, 10266, 10267, 10276, 10275, 10599, 10600, 10609, 10608
  207702, 10267, 10268, 10277, 10276, 10600, 10601, 10610, 10609
  207703, 10268, 10269, 10278, 10277, 10601, 10602, 10611, 10610
  207704, 10270, 10271, 10280, 10279, 10603, 10604, 10613, 10612
  207705, 10271, 10272, 10281, 10280, 10604, 10605, 10614, 10613
  207706, 10272, 10273, 10282, 10281, 10605, 10606, 10615, 10614
  207707, 10273, 10274, 10283, 10282, 10606, 10607, 10616, 10615
  207708, 10274, 10275, 10284, 10283, 10607, 10608, 10617, 10616
  207709, 10275, 10276, 10285, 10284, 10608, 10609, 10618, 10617
  207710, 10276, 10277, 10286, 10285, 10609, 10610, 10619, 10618
  207711, 10277, 10278, 10287, 10286, 10610, 10611, 10620, 10619
  207712, 10279, 10280, 10289, 10288, 10612, 10613, 10622, 10621
  207713, 10280, 10281, 10290, 10289, 10613, 10614, 10623, 10622
  207714, 10281, 10282, 10291, 10290, 10614, 10615, 10624, 10623
  207715, 10282, 10283, 10292, 10291, 10615, 10616, 10625, 10624
  207716, 10283, 10284, 10293, 10292, 10616, 10617, 10626, 10625
  207717, 10284, 10285, 10294, 10293, 10617, 10618, 10627, 10626
  207718, 10285, 10286, 10295, 10294, 10618, 10619, 10628, 10627
  207719, 10286, 10287, 10296, 10295, 10619, 10620, 10629, 10628
  207720, 10288, 10289, 10298, 10297, 10621, 10622, 10631, 10630
  207721, 10289, 10290, 10299, 10298, 10622, 10623, 10632, 10631
  207722, 10290, 10291, 10300, 10299, 10623, 10624, 10633, 10632
  207723, 10291, 10292, 10301, 10300, 10624, 10625, 10634, 10633
  207724, 10292, 10293, 10302, 10301, 10625, 10626, 10635, 10634
  207725, 10293, 10294, 10303, 10302, 10626, 10627, 10636, 10635
  207726, 10294, 10295, 10304, 10303, 10627, 10628, 10637, 10636
  207727, 10295, 10296, 10305, 10304, 10628, 10629, 10638, 10637
  207728, 10297, 10298, 10307, 10306, 10630, 10631, 10640, 10639
  207729, 10298, 10299, 10308, 10307, 10631, 10632, 10641, 10640
  207730, 10299, 10300, 10309, 10308, 10632, 10633, 10642, 10641
  207731, 10300, 10301, 10310, 10309, 10633, 10634, 10643, 10642
  207732, 10301, 10302, 10311, 10310, 10634, 10635, 10644, 10643
  207733, 10302, 10303, 10312, 10311, 10635, 10636, 10645, 10644
  207734, 10303, 10304, 10313, 10312, 10636, 10637, 10646, 10645
  207735, 10304, 10305, 10314, 10313, 10637, 10638, 10647, 10646
  207736, 10306, 10307, 10316, 10315, 10639, 10640, 10649, 10648
  207737, 10307, 10308, 10317, 10316, 10640, 10641, 10650, 10649
  207738, 10308, 10309, 10318, 10317, 10641, 10642, 10651, 10650
  207739, 10309, 10310, 10319, 10318, 10642, 10643, 10652, 10651
  207740, 10310, 10311, 10320, 10319, 10643, 10644, 10653, 10652
  207741, 10311, 10312, 10321, 10320, 10644, 10645, 10654, 10653
  207742, 10312, 10313, 10322, 10321, 10645, 10646, 10655, 10654
  207743, 10313, 10314, 10323, 10322, 10646, 10647, 10656, 10655
  207744, 10315, 10316, 10325, 10324, 10648, 10649, 10658, 10657
  207745, 10316, 10317, 10326, 10325, 10649, 10650, 10659, 10658
  207746, 10317, 10318, 10327, 10326, 10650, 10651, 10660, 10659
  207747, 10318, 10319, 10328, 10327, 10651, 10652, 10661, 10660
  207748, 10319, 10320, 10329, 10328, 10652, 10653, 10662, 10661
  207749, 10320, 10321, 10330, 10329, 10653, 10654, 10663, 10662
  207750, 10321, 10322, 10331, 10330, 10654, 10655, 10664, 10663
  207751, 10322, 10323, 10332, 10331, 10655, 10656, 10665, 10664
  207752, 10324, 10325, 10334, 10333, 10657, 10658, 10667, 10666
  207753, 10325, 10326, 10335, 10334, 10658, 10659, 10668, 10667
  207754, 10326, 10327, 10336, 10335, 10659, 10660, 10669, 10668
  207755, 10327, 10328, 10337, 10336, 10660, 10661, 10670, 10669
  207756, 10328, 10329, 10338, 10337, 10661, 10662, 10671, 10670
  207757, 10329, 10330, 10339, 10338, 10662, 10663, 10672, 10671
  207758, 10330, 10331, 10340, 10339, 10663, 10664, 10673, 10672
  207759, 10331, 10332, 10341, 10340, 10664, 10665, 10674, 10673
  207760, 10333, 10334, 10343, 10342, 10666, 10667, 10676, 10675
  207761, 10334, 10335, 10344, 10343, 10667, 10668, 10677, 10676
  207762, 10335, 10336, 10345, 10344, 10668, 10669, 10678, 10677
  207763, 10336, 10337, 10346, 10345, 10669, 10670, 10679, 10678
  207764, 10337, 10338, 10347, 10346, 10670, 10671, 10680, 10679
  207765, 10338, 10339, 10348, 10347, 10671, 10672, 10681, 10680
  207766, 10339, 10340, 10349, 10348, 10672, 10673, 10682, 10681
  207767, 10340, 10341, 10350, 10349, 10673, 10674, 10683, 10682
  207768, 10342, 10343, 10352, 10351, 10675, 10676, 10685, 10684
  207769, 10343, 10344, 10353, 10352, 10676, 10677, 10686, 10685
  207770, 10344, 10345, 10354, 10353, 10677, 10678, 10687, 10686
  207771, 10345, 10346, 10355, 10354, 10678, 10679, 10688, 10687
  207772, 10346, 10347, 10356, 10355, 10679, 10680, 10689, 10688
  207773, 10347, 10348, 10357, 10356, 10680, 10681, 10690, 10689
  207774, 10348, 10349, 10358, 10357, 10681, 10682, 10691, 10690
  207775, 10349, 10350, 10359, 10358, 10682, 10683, 10692, 10691
  207776, 10360, 10361, 10370, 10369, 10693, 10694, 10703, 10702
  207777, 10361, 10362, 10371, 10370, 10694, 10695, 10704, 10703
  207778, 10362, 10363, 10372, 10371, 10695, 10696, 10705, 10704
  207779, 10363, 10364, 10373, 10372, 10696, 10697, 10706, 10705
  207780, 10364, 10365, 10374, 10373, 10697, 10698, 10707, 10706
  207781, 10365, 10366, 10375, 10374, 10698, 10699, 10708, 10707
  207782, 10366, 10367, 10376, 10375, 10699, 10700, 10709, 10708
  207783, 10367, 10368, 10377, 10376, 10700, 10701, 10710, 10709
  207784, 10369, 10370, 10379, 10378, 10702, 10703, 10712, 10711
  207785, 10370, 10371, 10380, 10379, 10703, 10704, 10713, 10712
  207786, 10371, 10372, 10381, 10380, 10704, 10705, 10714, 10713
  207787, 10372, 10373, 10382, 10381, 10705, 10706, 10715, 10714
  207788, 10373, 10374, 10383, 10382, 10706, 10707, 10716, 10715
  207789, 10374, 10375, 10384, 10383, 10707, 10708, 10717, 10716
  207790, 10375, 10376, 10385, 10384, 10708, 10709, 10718, 10717
  207791, 10376, 10377, 10386, 10385, 10709, 10710, 10719, 10718
  207792, 10378, 10379, 10388, 10387, 10711, 10712, 10721, 10720
  207793, 10379, 10380, 10389, 10388, 10712, 10713, 10722, 10721
  207794, 10380, 10381, 10390, 10389, 10713, 10714, 10723, 10722
  207795, 10381, 10382, 10391, 10390, 10714, 10715, 10724, 10723
  207796, 10382, 10383, 10392, 10391, 10715, 10716, 10725, 10724
  207797, 10383, 10384, 10393, 10392, 10716, 10717, 10726, 10725
  207798, 10384, 10385, 10394, 10393, 10717, 10718, 10727, 10726
  207799, 10385, 10386, 10395, 10394, 10718, 10719, 10728, 10727
  207800, 10387, 10388, 10397, 10396, 10720, 10721, 10730, 10729
  207801, 10388, 10389, 10398, 10397, 10721, 10722, 10731, 10730
  207802, 10389, 10390, 10399, 10398, 10722, 10723, 10732, 10731
  207803, 10390, 10391, 10400, 10399, 10723, 10724, 10733, 10732
  207804, 10391, 10392, 10401, 10400, 10724, 10725, 10734, 10733
  207805, 10392, 10393, 10402, 10401, 10725, 10726, 10735, 10734
  207806, 10393, 10394, 10403, 10402, 10726, 10727, 10736, 10735
  207807, 10394, 10395, 10404, 10403, 10727, 10728, 10737, 10736
  207808, 10396, 10397, 10406, 10405, 10729, 10730, 10739, 10738
  207809, 10397, 10398, 10407, 10406, 10730, 10731, 10740, 10739
  207810, 10398, 10399, 10408, 10407, 10731, 10732, 10741, 10740
  207811, 10399, 10400, 10409, 10408, 10732, 10733, 10742, 10741
  207812, 10400, 10401, 10410, 10409, 10733, 10734, 10743, 10742
  207813, 10401, 10402, 10411, 10410, 10734, 10735, 10744, 10743
  207814, 10402, 10403, 10412, 10411, 10735, 10736, 10745, 10744
  207815, 10403, 10404, 10413, 10412, 10736, 10737, 10746, 10745
  207816, 10405, 10406, 10415, 10414, 10738, 10739, 10748, 10747
  207817, 10406, 10407, 10416, 10415, 10739, 10740, 10749, 10748
  207818, 10407, 10408, 10417, 10416, 10740, 10741, 10750, 10749
  207819, 10408, 10409, 10418, 10417, 10741, 10742, 10751, 10750
  207820, 10409, 10410, 10419, 10418, 10742, 10743, 10752, 10751
  207821, 10410, 10411, 10420, 10419, 10743, 10744, 10753, 10752
  207822, 10411, 10412, 10421, 10420, 10744, 10745, 10754, 10753
  207823, 10412, 10413, 10422, 10421, 10745, 10746, 10755, 10754
  207824, 10414, 10415, 10424, 10423, 10747, 10748, 10757, 10756
  207825, 10415, 10416, 10425, 10424, 10748, 10749, 10758, 10757
  207826, 10416, 10417, 10426, 10425, 10749, 10750, 10759, 10758
  207827, 10417, 10418, 10427, 10426, 10750, 10751, 10760, 10759
  207828, 10418, 10419, 10428, 10427, 10751, 10752, 10761, 10760
  207829, 10419, 10420, 10429, 10428, 10752, 10753, 10762, 10761
  207830, 10420, 10421, 10430, 10429, 10753, 10754, 10763, 10762
  207831, 10421, 10422, 10431, 10430, 10754, 10755, 10764, 10763
  207832, 10423, 10424, 10433, 10432, 10756, 10757, 10766, 10765
  207833, 10424, 10425, 10434, 10433, 10757, 10758, 10767, 10766
  207834, 10425, 10426, 10435, 10434, 10758, 10759, 10768, 10767
  207835, 10426, 10427, 10436, 10435, 10759, 10760, 10769, 10768
  207836, 10427, 10428, 10437, 10436, 10760, 10761, 10770, 10769
  207837, 10428, 10429, 10438, 10437, 10761, 10762, 10771, 10770
  207838, 10429, 10430, 10439, 10438, 10762, 10763, 10772, 10771
  207839, 10430, 10431, 10440, 10439, 10763, 10764, 10773, 10772
  207840, 10432, 10433, 10442, 10441, 10765, 10766, 10775, 10774
  207841, 10433, 10434, 10443, 10442, 10766, 10767, 10776, 10775
  207842, 10434, 10435, 10444, 10443, 10767, 10768, 10777, 10776
  207843, 10435, 10436, 10445, 10444, 10768, 10769, 10778, 10777
  207844, 10436, 10437, 10446, 10445, 10769, 10770, 10779, 10778
  207845, 10437, 10438, 10447, 10446, 10770, 10771, 10780, 10779
  207846, 10438, 10439, 10448, 10447, 10771, 10772, 10781, 10780
  207847, 10439, 10440, 10449, 10448, 10772, 10773, 10782, 10781
  207848, 10441, 10442, 10451, 10450, 10774, 10775, 10784, 10783
  207849, 10442, 10443, 10452, 10451, 10775, 10776, 10785, 10784
  207850, 10443, 10444, 10453, 10452, 10776, 10777, 10786, 10785
  207851, 10444, 10445, 10454, 10453, 10777, 10778, 10787, 10786
  207852, 10445, 10446, 10455, 10454, 10778, 10779, 10788, 10787
  207853, 10446, 10447, 10456, 10455, 10779, 10780, 10789, 10788
  207854, 10447, 10448, 10457, 10456, 10780, 10781, 10790, 10789
  207855, 10448, 10449, 10458, 10457, 10781, 10782, 10791, 10790
  207856, 10450, 10451, 10460, 10459, 10783, 10784, 10793, 10792
  207857, 10451, 10452, 10461, 10460, 10784, 10785, 10794, 10793
  207858, 10452, 10453, 10462, 10461, 10785, 10786, 10795, 10794
  207859, 10453, 10454, 10463, 10462, 10786, 10787, 10796, 10795
  207860, 10454, 10455, 10464, 10463, 10787, 10788, 10797, 10796
  207861, 10455, 10456, 10465, 10464, 10788, 10789, 10798, 10797
  207862, 10456, 10457, 10466, 10465, 10789, 10790, 10799, 10798
  207863, 10457, 10458, 10467, 10466, 10790, 10791, 10800, 10799
  207864, 10459, 10460, 10469, 10468, 10792, 10793, 10802, 10801
  207865, 10460, 10461, 10470, 10469, 10793, 10794, 10803, 10802
  207866, 10461, 10462, 10471, 10470, 10794, 10795, 10804, 10803
  207867, 10462, 10463, 10472, 10471, 10795, 10796, 10805, 10804
  207868, 10463, 10464, 10473, 10472, 10796, 10797, 10806, 10805
  207869, 10464, 10465, 10474, 10473, 10797, 10798, 10807, 10806
  207870, 10465, 10466, 10475, 10474, 10798, 10799, 10808, 10807
  207871, 10466, 10467, 10476, 10475, 10799, 10800, 10809, 10808
  207872, 10468, 10469, 10478, 10477, 10801, 10802, 10811, 10810
  207873, 10469, 10470, 10479, 10478, 10802, 10803, 10812, 10811
  207874, 10470, 10471, 10480, 10479, 10803, 10804, 10813, 10812
  207875, 10471, 10472, 10481, 10480, 10804, 10805, 10814, 10813
  207876, 10472, 10473, 10482, 10481, 10805, 10806, 10815, 10814
  207877, 10473, 10474, 10483, 10482, 10806, 10807, 10816, 10815
  207878, 10474, 10475, 10484, 10483, 10807, 10808, 10817, 10816
  207879, 10475, 10476, 10485, 10484, 10808, 10809, 10818, 10817
  207880, 10477, 10478, 10487, 10486, 10810, 10811, 10820, 10819
  207881, 10478, 10479, 10488, 10487, 10811, 10812, 10821, 10820
  207882, 10479, 10480, 10489, 10488, 10812, 10813, 10822, 10821
  207883, 10480, 10481, 10490, 10489, 10813, 10814, 10823, 10822
  207884, 10481, 10482, 10491, 10490, 10814, 10815, 10824, 10823
  207885, 10482, 10483, 10492, 10491, 10815, 10816, 10825, 10824
  207886, 10483, 10484, 10493, 10492, 10816, 10817, 10826, 10825
  207887, 10484, 10485, 10494, 10493, 10817, 10818, 10827, 10826
  207888, 10486, 10487, 10496, 10495, 10819, 10820, 10829, 10828
  207889, 10487, 10488, 10497, 10496, 10820, 10821, 10830, 10829
  207890, 10488, 10489, 10498, 10497, 10821, 10822, 10831, 10830
  207891, 10489, 10490, 10499, 10498, 10822, 10823, 10832, 10831
  207892, 10490, 10491, 10500, 10499, 10823, 10824, 10833, 10832
  207893, 10491, 10492, 10501, 10500, 10824, 10825, 10834, 10833
  207894, 10492, 10493, 10502, 10501, 10825, 10826, 10835, 10834
  207895, 10493, 10494, 10503, 10502, 10826, 10827, 10836, 10835
  207896, 10495, 10496, 10505, 10504, 10828, 10829, 10838, 10837
  207897, 10496, 10497, 10506, 10505, 10829, 10830, 10839, 10838
  207898, 10497, 10498, 10507, 10506, 10830, 10831, 10840, 10839
  207899, 10498, 10499, 10508, 10507, 10831, 10832, 10841, 10840
  207900, 10499, 10500, 10509, 10508, 10832, 10833, 10842, 10841
  207901, 10500, 10501, 10510, 10509, 10833, 10834, 10843, 10842
  207902, 10501, 10502, 10511, 10510, 10834, 10835, 10844, 10843
  207903, 10502, 10503, 10512, 10511, 10835, 10836, 10845, 10844
  207904, 10504, 10505, 10514, 10513, 10837, 10838, 10847, 10846
  207905, 10505, 10506, 10515, 10514, 10838, 10839, 10848, 10847
  207906, 10506, 10507, 10516, 10515, 10839, 10840, 10849, 10848
  207907, 10507, 10508, 10517, 10516, 10840, 10841, 10850, 10849
  207908, 10508, 10509, 10518, 10517, 10841, 10842, 10851, 10850
  207909, 10509, 10510, 10519, 10518, 10842, 10843, 10852, 10851
  207910, 10510, 10511, 10520, 10519, 10843, 10844, 10853, 10852
  207911, 10511, 10512, 10521, 10520, 10844, 10845, 10854, 10853
  207912, 10513, 10514, 10523, 10522, 10846, 10847, 10856, 10855
  207913, 10514, 10515, 10524, 10523, 10847, 10848, 10857, 10856
  207914, 10515, 10516, 10525, 10524, 10848, 10849, 10858, 10857
  207915, 10516, 10517, 10526, 10525, 10849, 10850, 10859, 10858
  207916, 10517, 10518, 10527, 10526, 10850, 10851, 10860, 10859
  207917, 10518, 10519, 10528, 10527, 10851, 10852, 10861, 10860
  207918, 10519, 10520, 10529, 10528, 10852, 10853, 10862, 10861
  207919, 10520, 10521, 10530, 10529, 10853, 10854, 10863, 10862
  207920, 10522, 10523, 10532, 10531, 10855, 10856, 10865, 10864
  207921, 10523, 10524, 10533, 10532, 10856, 10857, 10866, 10865
  207922, 10524, 10525, 10534, 10533, 10857, 10858, 10867, 10866
  207923, 10525, 10526, 10535, 10534, 10858, 10859, 10868, 10867
  207924, 10526, 10527, 10536, 10535, 10859, 10860, 10869, 10868
  207925, 10527, 10528, 10537, 10536, 10860, 10861, 10870, 10869
  207926, 10528, 10529, 10538, 10537, 10861, 10862, 10871, 10870
  207927, 10529, 10530, 10539, 10538, 10862, 10863, 10872, 10871
  207928, 10531, 10532, 10541, 10540, 10864, 10865, 10874, 10873
  207929, 10532, 10533, 10542, 10541, 10865, 10866, 10875, 10874
  207930, 10533, 10534, 10543, 10542, 10866, 10867, 10876, 10875
  207931, 10534, 10535, 10544, 10543, 10867, 10868, 10877, 10876
  207932, 10535, 10536, 10545, 10544, 10868, 10869, 10878, 10877
  207933, 10536, 10537, 10546, 10545, 10869, 10870, 10879, 10878
  207934, 10537, 10538, 10547, 10546, 10870, 10871, 10880, 10879
  207935, 10538, 10539, 10548, 10547, 10871, 10872, 10881, 10880
  207936, 10540, 10541, 10550, 10549, 10873, 10874, 10883, 10882
  207937, 10541, 10542, 10551, 10550, 10874, 10875, 10884, 10883
  207938, 10542, 10543, 10552, 10551, 10875, 10876, 10885, 10884
  207939, 10543, 10544, 10553, 10552, 10876, 10877, 10886, 10885
  207940, 10544, 10545, 10554, 10553, 10877, 10878, 10887, 10886
  207941, 10545, 10546, 10555, 10554, 10878, 10879, 10888, 10887
  207942, 10546, 10547, 10556, 10555, 10879, 10880, 10889, 10888
  207943, 10547, 10548, 10557, 10556, 10880, 10881, 10890, 10889
  207944, 10549, 10550, 10559, 10558, 10882, 10883, 10892, 10891
  207945, 10550, 10551, 10560, 10559, 10883, 10884, 10893, 10892
  207946, 10551, 10552, 10561, 10560, 10884, 10885, 10894, 10893
  207947, 10552, 10553, 10562, 10561, 10885, 10886, 10895, 10894
  207948, 10553, 10554, 10563, 10562, 10886, 10887, 10896, 10895
  207949, 10554, 10555, 10564, 10563, 10887, 10888, 10897, 10896
  207950, 10555, 10556, 10565, 10564, 10888, 10889, 10898, 10897
  207951, 10556, 10557, 10566, 10565, 10889, 10890, 10899, 10898
  207952, 10558, 10559, 10568, 10567, 10891, 10892, 10901, 10900
  207953, 10559, 10560, 10569, 10568, 10892, 10893, 10902, 10901
  207954, 10560, 10561, 10570, 10569, 10893, 10894, 10903, 10902
  207955, 10561, 10562, 10571, 10570, 10894, 10895, 10904, 10903
  207956, 10562, 10563, 10572, 10571, 10895, 10896, 10905, 10904
  207957, 10563, 10564, 10573, 10572, 10896, 10897, 10906, 10905
  207958, 10564, 10565, 10574, 10573, 10897, 10898, 10907, 10906
  207959, 10565, 10566, 10575, 10574, 10898, 10899, 10908, 10907
  207960, 10567, 10568, 10577, 10576, 10900, 10901, 10910, 10909
  207961, 10568, 10569, 10578, 10577, 10901, 10902, 10911, 10910
  207962, 10569, 10570, 10579, 10578, 10902, 10903, 10912, 10911
  207963, 10570, 10571, 10580, 10579, 10903, 10904, 10913, 10912
  207964, 10571, 10572, 10581, 10580, 10904, 10905, 10914, 10913
  207965, 10572, 10573, 10582, 10581, 10905, 10906, 10915, 10914
  207966, 10573, 10574, 10583, 10582, 10906, 10907, 10916, 10915
  207967, 10574, 10575, 10584, 10583, 10907, 10908, 10917, 10916
  207968, 10576, 10577, 10586, 10585, 10909, 10910, 10919, 10918
  207969, 10577, 10578, 10587, 10586, 10910, 10911, 10920, 10919
  207970, 10578, 10579, 10588, 10587, 10911, 10912, 10921, 10920
  207971, 10579, 10580, 10589, 10588, 10912, 10913, 10922, 10921
  207972, 10580, 10581, 10590, 10589, 10913, 10914, 10923, 10922
  207973, 10581, 10582, 10591, 10590, 10914, 10915, 10924, 10923
  207974, 10582, 10583, 10592, 10591, 10915, 10916, 10925, 10924
  207975, 10583, 10584, 10593, 10592, 10916, 10917, 10926, 10925
  207976, 10585, 10586, 10595, 10594, 10918, 10919, 10928, 10927
  207977, 10586, 10587, 10596, 10595, 10919, 10920, 10929, 10928
  207978, 10587, 10588, 10597, 10596, 10920, 10921, 10930, 10929
  207979, 10588, 10589, 10598, 10597, 10921, 10922, 10931, 10930
  207980, 10589, 10590, 10599, 10598, 10922, 10923, 10932, 10931
  207981, 10590, 10591, 10600, 10599, 10923, 10924, 10933, 10932
  207982, 10591, 10592, 10601, 10600, 10924, 10925, 10934, 10933
  207983, 10592, 10593, 10602, 10601, 10925, 10926, 10935, 10934
  207984, 10594, 10595, 10604, 10603, 10927, 10928, 10937, 10936
  207985, 10595, 10596, 10605, 10604, 10928, 10929, 10938, 10937
  207986, 10596, 10597, 10606, 10605, 10929, 10930, 10939, 10938
  207987, 10597, 10598, 10607, 10606, 10930, 10931, 10940, 10939
  207988, 10598, 10599, 10608, 10607, 10931, 10932, 10941, 10940
  207989, 10599, 10600, 10609, 10608, 10932, 10933, 10942, 10941
  207990, 10600, 10601, 10610, 10609, 10933, 10934, 10943, 10942
  207991, 10601, 10602, 10611, 10610, 10934, 10935, 10944, 10943
  207992, 10603, 10604, 10613, 10612, 10936, 10937, 10946, 10945
  207993, 10604, 10605, 10614, 10613, 10937, 10938, 10947, 10946
  207994, 10605, 10606, 10615, 10614, 10938, 10939, 10948, 10947
  207995, 10606, 10607, 10616, 10615, 10939, 10940, 10949, 10948
  207996, 10607, 10608, 10617, 10616, 10940, 10941, 10950, 10949
  207997, 10608, 10609, 10618, 10617, 10941, 10942, 10951, 10950
  207998, 10609, 10610, 10619, 10618, 10942, 10943, 10952, 10951
  207999, 10610, 10611, 10620, 10619, 10943, 10944, 10953, 10952
  208000, 10612, 10613, 10622, 10621, 10945, 10946, 10955, 10954
  208001, 10613, 10614, 10623, 10622, 10946, 10947, 10956, 10955
  208002, 10614, 10615, 10624, 10623, 10947, 10948, 10957, 10956
  208003, 10615, 10616, 10625, 10624, 10948, 10949, 10958, 10957
  208004, 10616, 10617, 10626, 10625, 10949, 10950, 10959, 10958
  208005, 10617, 10618, 10627, 10626, 10950, 10951, 10960, 10959
  208006, 10618, 10619, 10628, 10627, 10951, 10952, 10961, 10960
  208007, 10619, 10620, 10629, 10628, 10952, 10953, 10962, 10961
  208008, 10621, 10622, 10631, 10630, 10954, 10955, 10964, 10963
  208009, 10622, 10623, 10632, 10631, 10955, 10956, 10965, 10964
  208010, 10623, 10624, 10633, 10632, 10956, 10957, 10966, 10965
  208011, 10624, 10625, 10634, 10633, 10957, 10958, 10967, 10966
  208012, 10625, 10626, 10635, 10634, 10958, 10959, 10968, 10967
  208013, 10626, 10627, 10636, 10635, 10959, 10960, 10969, 10968
  208014, 10627, 10628, 10637, 10636, 10960, 10961, 10970, 10969
  208015, 10628, 10629, 10638, 10637, 10961, 10962, 10971, 10970
  208016, 10630, 10631, 10640, 10639, 10963, 10964, 10973, 10972
  208017, 10631, 10632, 10641, 10640, 10964, 10965, 10974, 10973
  208018, 10632, 10633, 10642, 10641, 10965, 10966, 10975, 10974
  208019, 10633, 10634, 10643, 10642, 10966, 10967, 10976, 10975
  208020, 10634, 10635, 10644, 10643, 10967, 10968, 10977, 10976
  208021, 10635, 10636, 10645, 10644, 10968, 10969, 10978, 10977
  208022, 10636, 10637, 10646, 10645, 10969, 10970, 10979, 10978
  208023, 10637, 10638, 10647, 10646, 10970, 10971, 10980, 10979
  208024, 10639, 10640, 10649, 10648, 10972, 10973, 10982, 10981
  208025, 10640, 10641, 10650, 10649, 10973, 10974, 10983, 10982
  208026, 10641, 10642, 10651, 10650, 10974, 10975, 10984, 10983
  208027, 10642, 10643, 10652, 10651, 10975, 10976, 10985, 10984
  208028, 10643, 10644, 10653, 10652, 10976, 10977, 10986, 10985
  208029, 10644, 10645, 10654, 10653, 10977, 10978, 10987, 10986
  208030, 10645, 10646, 10655, 10654, 10978, 10979, 10988, 10987
  208031, 10646, 10647, 10656, 10655, 10979, 10980, 10989, 10988
  208032, 10648, 10649, 10658, 10657, 10981, 10982, 10991, 10990
  208033, 10649, 10650, 10659, 10658, 10982, 10983, 10992, 10991
  208034, 10650, 10651, 10660, 10659, 10983, 10984, 10993, 10992
  208035, 10651, 10652, 10661, 10660, 10984, 10985, 10994, 10993
  208036, 10652, 10653, 10662, 10661, 10985, 10986, 10995, 10994
  208037, 10653, 10654, 10663, 10662, 10986, 10987, 10996, 10995
  208038, 10654, 10655, 10664, 10663, 10987, 10988, 10997, 10996
  208039, 10655, 10656, 10665, 10664, 10988, 10989, 10998, 10997
  208040, 10657, 10658, 10667, 10666, 10990, 10991, 11000, 10999
  208041, 10658, 10659, 10668, 10667, 10991, 10992, 11001, 11000
  208042, 10659, 10660, 10669, 10668, 10992, 10993, 11002, 11001
  208043, 10660, 10661, 10670, 10669, 10993, 10994, 11003, 11002
  208044, 10661, 10662, 10671, 10670, 10994, 10995, 11004, 11003
  208045, 10662, 10663, 10672, 10671, 10995, 10996, 11005, 11004
  208046, 10663, 10664, 10673, 10672, 10996, 10997, 11006, 11005
  208047, 10664, 10665, 10674, 10673, 10997, 10998, 11007, 11006
  208048, 10666, 10667, 10676, 10675, 10999, 11000, 11009, 11008
  208049, 10667, 10668, 10677, 10676, 11000, 11001, 11010, 11009
  208050, 10668, 10669, 10678, 10677, 11001, 11002, 11011, 11010
  208051, 10669, 10670, 10679, 10678, 11002, 11003, 11012, 11011
  208052, 10670, 10671, 10680, 10679, 11003, 11004, 11013, 11012
  208053, 10671, 10672, 10681, 10680, 11004, 11005, 11014, 11013
  208054, 10672, 10673, 10682, 10681, 11005, 11006, 11015, 11014
  208055, 10673, 10674, 10683, 10682, 11006, 11007, 11016, 11015
  208056, 10675, 10676, 10685, 10684, 11008, 11009, 11018, 11017
  208057, 10676, 10677, 10686, 10685, 11009, 11010, 11019, 11018
  208058, 10677, 10678, 10687, 10686, 11010, 11011, 11020, 11019
  208059, 10678, 10679, 10688, 10687, 11011, 11012, 11021, 11020
  208060, 10679, 10680, 10689, 10688, 11012, 11013, 11022, 11021
  208061, 10680, 10681, 10690, 10689, 11013, 11014, 11023, 11022
  208062, 10681, 10682, 10691, 10690, 11014, 11015, 11024, 11023
  208063, 10682, 10683, 10692, 10691, 11015, 11016, 11025, 11024
  208064, 10693, 10694, 10703, 10702, 11026, 11027, 11036, 11035
  208065, 10694, 10695, 10704, 10703, 11027, 11028, 11037, 11036
  208066, 10695, 10696, 10705, 10704, 11028, 11029, 11038, 11037
  208067, 10696, 10697, 10706, 10705, 11029, 11030, 11039, 11038
  208068, 10697, 10698, 10707, 10706, 11030, 11031, 11040, 11039
  208069, 10698, 10699, 10708, 10707, 11031, 11032, 11041, 11040
  208070, 10699, 10700, 10709, 10708, 11032, 11033, 11042, 11041
  208071, 10700, 10701, 10710, 10709, 11033, 11034, 11043, 11042
  208072, 10702, 10703, 10712, 10711, 11035, 11036, 11045, 11044
  208073, 10703, 10704, 10713, 10712, 11036, 11037, 11046, 11045
  208074, 10704, 10705, 10714, 10713, 11037, 11038, 11047, 11046
  208075, 10705, 10706, 10715, 10714, 11038, 11039, 11048, 11047
  208076, 10706, 10707, 10716, 10715, 11039, 11040, 11049, 11048
  208077, 10707, 10708, 10717, 10716, 11040, 11041, 11050, 11049
  208078, 10708, 10709, 10718, 10717, 11041, 11042, 11051, 11050
  208079, 10709, 10710, 10719, 10718, 11042, 11043, 11052, 11051
  208080, 10711, 10712, 10721, 10720, 11044, 11045, 11054, 11053
  208081, 10712, 10713, 10722, 10721, 11045, 11046, 11055, 11054
  208082, 10713, 10714, 10723, 10722, 11046, 11047, 11056, 11055
  208083, 10714, 10715, 10724, 10723, 11047, 11048, 11057, 11056
  208084, 10715, 10716, 10725, 10724, 11048, 11049, 11058, 11057
  208085, 10716, 10717, 10726, 10725, 11049, 11050, 11059, 11058
  208086, 10717, 10718, 10727, 10726, 11050, 11051, 11060, 11059
  208087, 10718, 10719, 10728, 10727, 11051, 11052, 11061, 11060
  208088, 10720, 10721, 10730, 10729, 11053, 11054, 11063, 11062
  208089, 10721, 10722, 10731, 10730, 11054, 11055, 11064, 11063
  208090, 10722, 10723, 10732, 10731, 11055, 11056, 11065, 11064
  208091, 10723, 10724, 10733, 10732, 11056, 11057, 11066, 11065
  208092, 10724, 10725, 10734, 10733, 11057, 11058, 11067, 11066
  208093, 10725, 10726, 10735, 10734, 11058, 11059, 11068, 11067
  208094, 10726, 10727, 10736, 10735, 11059, 11060, 11069, 11068
  208095, 10727, 10728, 10737, 10736, 11060, 11061, 11070, 11069
  208096, 10729, 10730, 10739, 10738, 11062, 11063, 11072, 11071
  208097, 10730, 10731, 10740, 10739, 11063, 11064, 11073, 11072
  208098, 10731, 10732, 10741, 10740, 11064, 11065, 11074, 11073
  208099, 10732, 10733, 10742, 10741, 11065, 11066, 11075, 11074
  208100, 10733, 10734, 10743, 10742, 11066, 11067, 11076, 11075
  208101, 10734, 10735, 10744, 10743, 11067, 11068, 11077, 11076
  208102, 10735, 10736, 10745, 10744, 11068, 11069, 11078, 11077
  208103, 10736, 10737, 10746, 10745, 11069, 11070, 11079, 11078
  208104, 10738, 10739, 10748, 10747, 11071, 11072, 11081, 11080
  208105, 10739, 10740, 10749, 10748, 11072, 11073, 11082, 11081
  208106, 10740, 10741, 10750, 10749, 11073, 11074, 11083, 11082
  208107, 10741, 10742, 10751, 10750, 11074, 11075, 11084, 11083
  208108, 10742, 10743, 10752, 10751, 11075, 11076, 11085, 11084
  208109, 10743, 10744, 10753, 10752, 11076, 11077, 11086, 11085
  208110, 10744, 10745, 10754, 10753, 11077, 11078, 11087, 11086
  208111, 10745, 10746, 10755, 10754, 11078, 11079, 11088, 11087
  208112, 10747, 10748, 10757, 10756, 11080, 11081, 11090, 11089
  208113, 10748, 10749, 10758, 10757, 11081, 11082, 11091, 11090
  208114, 10749, 10750, 10759, 10758, 11082, 11083, 11092, 11091
  208115, 10750, 10751, 10760, 10759, 11083, 11084, 11093, 11092
  208116, 10751, 10752, 10761, 10760, 11084, 11085, 11094, 11093
  208117, 10752, 10753, 10762, 10761, 11085, 11086, 11095, 11094
  208118, 10753, 10754, 10763, 10762, 11086, 11087, 11096, 11095
  208119, 10754, 10755, 10764, 10763, 11087, 11088, 11097, 11096
  208120, 10756, 10757, 10766, 10765, 11089, 11090, 11099, 11098
  208121, 10757, 10758, 10767, 10766, 11090, 11091, 11100, 11099
  208122, 10758, 10759, 10768, 10767, 11091, 11092, 11101, 11100
  208123, 10759, 10760, 10769, 10768, 11092, 11093, 11102, 11101
  208124, 10760, 10761, 10770, 10769, 11093, 11094, 11103, 11102
  208125, 10761, 10762, 10771, 10770, 11094, 11095, 11104, 11103
  208126, 10762, 10763, 10772, 10771, 11095, 11096, 11105, 11104
  208127, 10763, 10764, 10773, 10772, 11096, 11097, 11106, 11105
  208128, 10765, 10766, 10775, 10774, 11098, 11099, 11108, 11107
  208129, 10766, 10767, 10776, 10775, 11099, 11100, 11109, 11108
  208130, 10767, 10768, 10777, 10776, 11100, 11101, 11110, 11109
  208131, 10768, 10769, 10778, 10777, 11101, 11102, 11111, 11110
  208132, 10769, 10770, 10779, 10778, 11102, 11103, 11112, 11111
  208133, 10770, 10771, 10780, 10779, 11103, 11104, 11113, 11112
  208134, 10771, 10772, 10781, 10780, 11104, 11105, 11114, 11113
  208135, 10772, 10773, 10782, 10781, 11105, 11106, 11115, 11114
  208136, 10774, 10775, 10784, 10783, 11107, 11108, 11117, 11116
  208137, 10775, 10776, 10785, 10784, 11108, 11109, 11118, 11117
  208138, 10776, 10777, 10786, 10785, 11109, 11110, 11119, 11118
  208139, 10777, 10778, 10787, 10786, 11110, 11111, 11120, 11119
  208140, 10778, 10779, 10788, 10787, 11111, 11112, 11121, 11120
  208141, 10779, 10780, 10789, 10788, 11112, 11113, 11122, 11121
  208142, 10780, 10781, 10790, 10789, 11113, 11114, 11123, 11122
  208143, 10781, 10782, 10791, 10790, 11114, 11115, 11124, 11123
  208144, 10783, 10784, 10793, 10792, 11116, 11117, 11126, 11125
  208145, 10784, 10785, 10794, 10793, 11117, 11118, 11127, 11126
  208146, 10785, 10786, 10795, 10794, 11118, 11119, 11128, 11127
  208147, 10786, 10787, 10796, 10795, 11119, 11120, 11129, 11128
  208148, 10787, 10788, 10797, 10796, 11120, 11121, 11130, 11129
  208149, 10788, 10789, 10798, 10797, 11121, 11122, 11131, 11130
  208150, 10789, 10790, 10799, 10798, 11122, 11123, 11132, 11131
  208151, 10790, 10791, 10800, 10799, 11123, 11124, 11133, 11132
  208152, 10792, 10793, 10802, 10801, 11125, 11126, 11135, 11134
  208153, 10793, 10794, 10803, 10802, 11126, 11127, 11136, 11135
  208154, 10794, 10795, 10804, 10803, 11127, 11128, 11137, 11136
  208155, 10795, 10796, 10805, 10804, 11128, 11129, 11138, 11137
  208156, 10796, 10797, 10806, 10805, 11129, 11130, 11139, 11138
  208157, 10797, 10798, 10807, 10806, 11130, 11131, 11140, 11139
  208158, 10798, 10799, 10808, 10807, 11131, 11132, 11141, 11140
  208159, 10799, 10800, 10809, 10808, 11132, 11133, 11142, 11141
  208160, 10801, 10802, 10811, 10810, 11134, 11135, 11144, 11143
  208161, 10802, 10803, 10812, 10811, 11135, 11136, 11145, 11144
  208162, 10803, 10804, 10813, 10812, 11136, 11137, 11146, 11145
  208163, 10804, 10805, 10814, 10813, 11137, 11138, 11147, 11146
  208164, 10805, 10806, 10815, 10814, 11138, 11139, 11148, 11147
  208165, 10806, 10807, 10816, 10815, 11139, 11140, 11149, 11148
  208166, 10807, 10808, 10817, 10816, 11140, 11141, 11150, 11149
  208167, 10808, 10809, 10818, 10817, 11141, 11142, 11151, 11150
  208168, 10810, 10811, 10820, 10819, 11143, 11144, 11153, 11152
  208169, 10811, 10812, 10821, 10820, 11144, 11145, 11154, 11153
  208170, 10812, 10813, 10822, 10821, 11145, 11146, 11155, 11154
  208171, 10813, 10814, 10823, 10822, 11146, 11147, 11156, 11155
  208172, 10814, 10815, 10824, 10823, 11147, 11148, 11157, 11156
  208173, 10815, 10816, 10825, 10824, 11148, 11149, 11158, 11157
  208174, 10816, 10817, 10826, 10825, 11149, 11150, 11159, 11158
  208175, 10817, 10818, 10827, 10826, 11150, 11151, 11160, 11159
  208176, 10819, 10820, 10829, 10828, 11152, 11153, 11162, 11161
  208177, 10820, 10821, 10830, 10829, 11153, 11154, 11163, 11162
  208178, 10821, 10822, 10831, 10830, 11154, 11155, 11164, 11163
  208179, 10822, 10823, 10832, 10831, 11155, 11156, 11165, 11164
  208180, 10823, 10824, 10833, 10832, 11156, 11157, 11166, 11165
  208181, 10824, 10825, 10834, 10833, 11157, 11158, 11167, 11166
  208182, 10825, 10826, 10835, 10834, 11158, 11159, 11168, 11167
  208183, 10826, 10827, 10836, 10835, 11159, 11160, 11169, 11168
  208184, 10828, 10829, 10838, 10837, 11161, 11162, 11171, 11170
  208185, 10829, 10830, 10839, 10838, 11162, 11163, 11172, 11171
  208186, 10830, 10831, 10840, 10839, 11163, 11164, 11173, 11172
  208187, 10831, 10832, 10841, 10840, 11164, 11165, 11174, 11173
  208188, 10832, 10833, 10842, 10841, 11165, 11166, 11175, 11174
  208189, 10833, 10834, 10843, 10842, 11166, 11167, 11176, 11175
  208190, 10834, 10835, 10844, 10843, 11167, 11168, 11177, 11176
  208191, 10835, 10836, 10845, 10844, 11168, 11169, 11178, 11177
  208192, 10837, 10838, 10847, 10846, 11170, 11171, 11180, 11179
  208193, 10838, 10839, 10848, 10847, 11171, 11172, 11181, 11180
  208194, 10839, 10840, 10849, 10848, 11172, 11173, 11182, 11181
  208195, 10840, 10841, 10850, 10849, 11173, 11174, 11183, 11182
  208196, 10841, 10842, 10851, 10850, 11174, 11175, 11184, 11183
  208197, 10842, 10843, 10852, 10851, 11175, 11176, 11185, 11184
  208198, 10843, 10844, 10853, 10852, 11176, 11177, 11186, 11185
  208199, 10844, 10845, 10854, 10853, 11177, 11178, 11187, 11186
  208200, 10846, 10847, 10856, 10855, 11179, 11180, 11189, 11188
  208201, 10847, 10848, 10857, 10856, 11180, 11181, 11190, 11189
  208202, 10848, 10849, 10858, 10857, 11181, 11182, 11191, 11190
  208203, 10849, 10850, 10859, 10858, 11182, 11183, 11192, 11191
  208204, 10850, 10851, 10860, 10859, 11183, 11184, 11193, 11192
  208205, 10851, 10852, 10861, 10860, 11184, 11185, 11194, 11193
  208206, 10852, 10853, 10862, 10861, 11185, 11186, 11195, 11194
  208207, 10853, 10854, 10863, 10862, 11186, 11187, 11196, 11195
  208208, 10855, 10856, 10865, 10864, 11188, 11189, 11198, 11197
  208209, 10856, 10857, 10866, 10865, 11189, 11190, 11199, 11198
  208210, 10857, 10858, 10867, 10866, 11190, 11191, 11200, 11199
  208211, 10858, 10859, 10868, 10867, 11191, 11192, 11201, 11200
  208212, 10859, 10860, 10869, 10868, 11192, 11193, 11202, 11201
  208213, 10860, 10861, 10870, 10869, 11193, 11194, 11203, 11202
  208214, 10861, 10862, 10871, 10870, 11194, 11195, 11204, 11203
  208215, 10862, 10863, 10872, 10871, 11195, 11196, 11205, 11204
  208216, 10864, 10865, 10874, 10873, 11197, 11198, 11207, 11206
  208217, 10865, 10866, 10875, 10874, 11198, 11199, 11208, 11207
  208218, 10866, 10867, 10876, 10875, 11199, 11200, 11209, 11208
  208219, 10867, 10868, 10877, 10876, 11200, 11201, 11210, 11209
  208220, 10868, 10869, 10878, 10877, 11201, 11202, 11211, 11210
  208221, 10869, 10870, 10879, 10878, 11202, 11203, 11212, 11211
  208222, 10870, 10871, 10880, 10879, 11203, 11204, 11213, 11212
  208223, 10871, 10872, 10881, 10880, 11204, 11205, 11214, 11213
  208224, 10873, 10874, 10883, 10882, 11206, 11207, 11216, 11215
  208225, 10874, 10875, 10884, 10883, 11207, 11208, 11217, 11216
  208226, 10875, 10876, 10885, 10884, 11208, 11209, 11218, 11217
  208227, 10876, 10877, 10886, 10885, 11209, 11210, 11219, 11218
  208228, 10877, 10878, 10887, 10886, 11210, 11211, 11220, 11219
  208229, 10878, 10879, 10888, 10887, 11211, 11212, 11221, 11220
  208230, 10879, 10880, 10889, 10888, 11212, 11213, 11222, 11221
  208231, 10880, 10881, 10890, 10889, 11213, 11214, 11223, 11222
  208232, 10882, 10883, 10892, 10891, 11215, 11216, 11225, 11224
  208233, 10883, 10884, 10893, 10892, 11216, 11217, 11226, 11225
  208234, 10884, 10885, 10894, 10893, 11217, 11218, 11227, 11226
  208235, 10885, 10886, 10895, 10894, 11218, 11219, 11228, 11227
  208236, 10886, 10887, 10896, 10895, 11219, 11220, 11229, 11228
  208237, 10887, 10888, 10897, 10896, 11220, 11221, 11230, 11229
  208238, 10888, 10889, 10898, 10897, 11221, 11222, 11231, 11230
  208239, 10889, 10890, 10899, 10898, 11222, 11223, 11232, 11231
  208240, 10891, 10892, 10901, 10900, 11224, 11225, 11234, 11233
  208241, 10892, 10893, 10902, 10901, 11225, 11226, 11235, 11234
  208242, 10893, 10894, 10903, 10902, 11226, 11227, 11236, 11235
  208243, 10894, 10895, 10904, 10903, 11227, 11228, 11237, 11236
  208244, 10895, 10896, 10905, 10904, 11228, 11229, 11238, 11237
  208245, 10896, 10897, 10906, 10905, 11229, 11230, 11239, 11238
  208246, 10897, 10898, 10907, 10906, 11230, 11231, 11240, 11239
  208247, 10898, 10899, 10908, 10907, 11231, 11232, 11241, 11240
  208248, 10900, 10901, 10910, 10909, 11233, 11234, 11243, 11242
  208249, 10901, 10902, 10911, 10910, 11234, 11235, 11244, 11243
  208250, 10902, 10903, 10912, 10911, 11235, 11236, 11245, 11244
  208251, 10903, 10904, 10913, 10912, 11236, 11237, 11246, 11245
  208252, 10904, 10905, 10914, 10913, 11237, 11238, 11247, 11246
  208253, 10905, 10906, 10915, 10914, 11238, 11239, 11248, 11247
  208254, 10906, 10907, 10916, 10915, 11239, 11240, 11249, 11248
  208255, 10907, 10908, 10917, 10916, 11240, 11241, 11250, 11249
  208256, 10909, 10910, 10919, 10918, 11242, 11243, 11252, 11251
  208257, 10910, 10911, 10920, 10919, 11243, 11244, 11253, 11252
  208258, 10911, 10912, 10921, 10920, 11244, 11245, 11254, 11253
  208259, 10912, 10913, 10922, 10921, 11245, 11246, 11255, 11254
  208260, 10913, 10914, 10923, 10922, 11246, 11247, 11256, 11255
  208261, 10914, 10915, 10924, 10923, 11247, 11248, 11257, 11256
  208262, 10915, 10916, 10925, 10924, 11248, 11249, 11258, 11257
  208263, 10916, 10917, 10926, 10925, 11249, 11250, 11259, 11258
  208264, 10918, 10919, 10928, 10927, 11251, 11252, 11261, 11260
  208265, 10919, 10920, 10929, 10928, 11252, 11253, 11262, 11261
  208266, 10920, 10921, 10930, 10929, 11253, 11254, 11263, 11262
  208267, 10921, 10922, 10931, 10930, 11254, 11255, 11264, 11263
  208268, 10922, 10923, 10932, 10931, 11255, 11256, 11265, 11264
  208269, 10923, 10924, 10933, 10932, 11256, 11257, 11266, 11265
  208270, 10924, 10925, 10934, 10933, 11257, 11258, 11267, 11266
  208271, 10925, 10926, 10935, 10934, 11258, 11259, 11268, 11267
  208272, 10927, 10928, 10937, 10936, 11260, 11261, 11270, 11269
  208273, 10928, 10929, 10938, 10937, 11261, 11262, 11271, 11270
  208274, 10929, 10930, 10939, 10938, 11262, 11263, 11272, 11271
  208275, 10930, 10931, 10940, 10939, 11263, 11264, 11273, 11272
  208276, 10931, 10932, 10941, 10940, 11264, 11265, 11274, 11273
  208277, 10932, 10933, 10942, 10941, 11265, 11266, 11275, 11274
  208278, 10933, 10934, 10943, 10942, 11266, 11267, 11276, 11275
  208279, 10934, 10935, 10944, 10943, 11267, 11268, 11277, 11276
  208280, 10936, 10937, 10946, 10945, 11269, 11270, 11279, 11278
  208281, 10937, 10938, 10947, 10946, 11270, 11271, 11280, 11279
  208282, 10938, 10939, 10948, 10947, 11271, 11272, 11281, 11280
  208283, 10939, 10940, 10949, 10948, 11272, 11273, 11282, 11281
  208284, 10940, 10941, 10950, 10949, 11273, 11274, 11283, 11282
  208285, 10941, 10942, 10951, 10950, 11274, 11275, 11284, 11283
  208286, 10942, 10943, 10952, 10951, 11275, 11276, 11285, 11284
  208287, 10943, 10944, 10953, 10952, 11276, 11277, 11286, 11285
  208288, 10945, 10946, 10955, 10954, 11278, 11279, 11288, 11287
  208289, 10946, 10947, 10956, 10955, 11279, 11280, 11289, 11288
  208290, 10947, 10948, 10957, 10956, 11280, 11281, 11290, 11289
  208291, 10948, 10949, 10958, 10957, 11281, 11282, 11291, 11290
  208292, 10949, 10950, 10959, 10958, 11282, 11283, 11292, 11291
  208293, 10950, 10951, 10960, 10959, 11283, 11284, 11293, 11292
  208294, 10951, 10952, 10961, 10960, 11284, 11285, 11294, 11293
  208295, 10952, 10953, 10962, 10961, 11285, 11286, 11295, 11294
  208296, 10954, 10955, 10964, 10963, 11287, 11288, 11297, 11296
  208297, 10955, 10956, 10965, 10964, 11288, 11289, 11298, 11297
  208298, 10956, 10957, 10966, 10965, 11289, 11290, 11299, 11298
  208299, 10957, 10958, 10967, 10966, 11290, 11291, 11300, 11299
  208300, 10958, 10959, 10968, 10967, 11291, 11292, 11301, 11300
  208301, 10959, 10960, 10969, 10968, 11292, 11293, 11302, 11301
  208302, 10960, 10961, 10970, 10969, 11293, 11294, 11303, 11302
  208303, 10961, 10962, 10971, 10970, 11294, 11295, 11304, 11303
  208304, 10963, 10964, 10973, 10972, 11296, 11297, 11306, 11305
  208305, 10964, 10965, 10974, 10973, 11297, 11298, 11307, 11306
  208306, 10965, 10966, 10975, 10974, 11298, 11299, 11308, 11307
  208307, 10966, 10967, 10976, 10975, 11299, 11300, 11309, 11308
  208308, 10967, 10968, 10977, 10976, 11300, 11301, 11310, 11309
  208309, 10968, 10969, 10978, 10977, 11301, 11302, 11311, 11310
  208310, 10969, 10970, 10979, 10978, 11302, 11303, 11312, 11311
  208311, 10970, 10971, 10980, 10979, 11303, 11304, 11313, 11312
  208312, 10972, 10973, 10982, 10981, 11305, 11306, 11315, 11314
  208313, 10973, 10974, 10983, 10982, 11306, 11307, 11316, 11315
  208314, 10974, 10975, 10984, 10983, 11307, 11308, 11317, 11316
  208315, 10975, 10976, 10985, 10984, 11308, 11309, 11318, 11317
  208316, 10976, 10977, 10986, 10985, 11309, 11310, 11319, 11318
  208317, 10977, 10978, 10987, 10986, 11310, 11311, 11320, 11319
  208318, 10978, 10979, 10988, 10987, 11311, 11312, 11321, 11320
  208319, 10979, 10980, 10989, 10988, 11312, 11313, 11322, 11321
  208320, 10981, 10982, 10991, 10990, 11314, 11315, 11324, 11323
  208321, 10982, 10983, 10992, 10991, 11315, 11316, 11325, 11324
  208322, 10983, 10984, 10993, 10992, 11316, 11317, 11326, 11325
  208323, 10984, 10985, 10994, 10993, 11317, 11318, 11327, 11326
  208324, 10985, 10986, 10995, 10994, 11318, 11319, 11328, 11327
  208325, 10986, 10987, 10996, 10995, 11319, 11320, 11329, 11328
  208326, 10987, 10988, 10997, 10996, 11320, 11321, 11330, 11329
  208327, 10988, 10989, 10998, 10997, 11321, 11322, 11331, 11330
  208328, 10990, 10991, 11000, 10999, 11323, 11324, 11333, 11332
  208329, 10991, 10992, 11001, 11000, 11324, 11325, 11334, 11333
  208330, 10992, 10993, 11002, 11001, 11325, 11326, 11335, 11334
  208331, 10993, 10994, 11003, 11002, 11326, 11327, 11336, 11335
  208332, 10994, 10995, 11004, 11003, 11327, 11328, 11337, 11336
  208333, 10995, 10996, 11005, 11004, 11328, 11329, 11338, 11337
  208334, 10996, 10997, 11006, 11005, 11329, 11330, 11339, 11338
  208335, 10997, 10998, 11007, 11006, 11330, 11331, 11340, 11339
  208336, 10999, 11000, 11009, 11008, 11332, 11333, 11342, 11341
  208337, 11000, 11001, 11010, 11009, 11333, 11334, 11343, 11342
  208338, 11001, 11002, 11011, 11010, 11334, 11335, 11344, 11343
  208339, 11002, 11003, 11012, 11011, 11335, 11336, 11345, 11344
  208340, 11003, 11004, 11013, 11012, 11336, 11337, 11346, 11345
  208341, 11004, 11005, 11014, 11013, 11337, 11338, 11347, 11346
  208342, 11005, 11006, 11015, 11014, 11338, 11339, 11348, 11347
  208343, 11006, 11007, 11016, 11015, 11339, 11340, 11349, 11348
  208344, 11008, 11009, 11018, 11017, 11341, 11342, 11351, 11350
  208345, 11009, 11010, 11019, 11018, 11342, 11343, 11352, 11351
  208346, 11010, 11011, 11020, 11019, 11343, 11344, 11353, 11352
  208347, 11011, 11012, 11021, 11020, 11344, 11345, 11354, 11353
  208348, 11012, 11013, 11022, 11021, 11345, 11346, 11355, 11354
  208349, 11013, 11014, 11023, 11022, 11346, 11347, 11356, 11355
  208350, 11014, 11015, 11024, 11023, 11347, 11348, 11357, 11356
  208351, 11015, 11016, 11025, 11024, 11348, 11349, 11358, 11357
  208352, 11026, 11027, 11036, 11035, 11359, 11360, 11369, 11368
  208353, 11027, 11028, 11037, 11036, 11360, 11361, 11370, 11369
  208354, 11028, 11029, 11038, 11037, 11361, 11362, 11371, 11370
  208355, 11029, 11030, 11039, 11038, 11362, 11363, 11372, 11371
  208356, 11030, 11031, 11040, 11039, 11363, 11364, 11373, 11372
  208357, 11031, 11032, 11041, 11040, 11364, 11365, 11374, 11373
  208358, 11032, 11033, 11042, 11041, 11365, 11366, 11375, 11374
  208359, 11033, 11034, 11043, 11042, 11366, 11367, 11376, 11375
  208360, 11035, 11036, 11045, 11044, 11368, 11369, 11378, 11377
  208361, 11036, 11037, 11046, 11045, 11369, 11370, 11379, 11378
  208362, 11037, 11038, 11047, 11046, 11370, 11371, 11380, 11379
  208363, 11038, 11039, 11048, 11047, 11371, 11372, 11381, 11380
  208364, 11039, 11040, 11049, 11048, 11372, 11373, 11382, 11381
  208365, 11040, 11041, 11050, 11049, 11373, 11374, 11383, 11382
  208366, 11041, 11042, 11051, 11050, 11374, 11375, 11384, 11383
  208367, 11042, 11043, 11052, 11051, 11375, 11376, 11385, 11384
  208368, 11044, 11045, 11054, 11053, 11377, 11378, 11387, 11386
  208369, 11045, 11046, 11055, 11054, 11378, 11379, 11388, 11387
  208370, 11046, 11047, 11056, 11055, 11379, 11380, 11389, 11388
  208371, 11047, 11048, 11057, 11056, 11380, 11381, 11390, 11389
  208372, 11048, 11049, 11058, 11057, 11381, 11382, 11391, 11390
  208373, 11049, 11050, 11059, 11058, 11382, 11383, 11392, 11391
  208374, 11050, 11051, 11060, 11059, 11383, 11384, 11393, 11392
  208375, 11051, 11052, 11061, 11060, 11384, 11385, 11394, 11393
  208376, 11053, 11054, 11063, 11062, 11386, 11387, 11396, 11395
  208377, 11054, 11055, 11064, 11063, 11387, 11388, 11397, 11396
  208378, 11055, 11056, 11065, 11064, 11388, 11389, 11398, 11397
  208379, 11056, 11057, 11066, 11065, 11389, 11390, 11399, 11398
  208380, 11057, 11058, 11067, 11066, 11390, 11391, 11400, 11399
  208381, 11058, 11059, 11068, 11067, 11391, 11392, 11401, 11400
  208382, 11059, 11060, 11069, 11068, 11392, 11393, 11402, 11401
  208383, 11060, 11061, 11070, 11069, 11393, 11394, 11403, 11402
  208384, 11062, 11063, 11072, 11071, 11395, 11396, 11405, 11404
  208385, 11063, 11064, 11073, 11072, 11396, 11397, 11406, 11405
  208386, 11064, 11065, 11074, 11073, 11397, 11398, 11407, 11406
  208387, 11065, 11066, 11075, 11074, 11398, 11399, 11408, 11407
  208388, 11066, 11067, 11076, 11075, 11399, 11400, 11409, 11408
  208389, 11067, 11068, 11077, 11076, 11400, 11401, 11410, 11409
  208390, 11068, 11069, 11078, 11077, 11401, 11402, 11411, 11410
  208391, 11069, 11070, 11079, 11078, 11402, 11403, 11412, 11411
  208392, 11071, 11072, 11081, 11080, 11404, 11405, 11414, 11413
  208393, 11072, 11073, 11082, 11081, 11405, 11406, 11415, 11414
  208394, 11073, 11074, 11083, 11082, 11406, 11407, 11416, 11415
  208395, 11074, 11075, 11084, 11083, 11407, 11408, 11417, 11416
  208396, 11075, 11076, 11085, 11084, 11408, 11409, 11418, 11417
  208397, 11076, 11077, 11086, 11085, 11409, 11410, 11419, 11418
  208398, 11077, 11078, 11087, 11086, 11410, 11411, 11420, 11419
  208399, 11078, 11079, 11088, 11087, 11411, 11412, 11421, 11420
  208400, 11080, 11081, 11090, 11089, 11413, 11414, 11423, 11422
  208401, 11081, 11082, 11091, 11090, 11414, 11415, 11424, 11423
  208402, 11082, 11083, 11092, 11091, 11415, 11416, 11425, 11424
  208403, 11083, 11084, 11093, 11092, 11416, 11417, 11426, 11425
  208404, 11084, 11085, 11094, 11093, 11417, 11418, 11427, 11426
  208405, 11085, 11086, 11095, 11094, 11418, 11419, 11428, 11427
  208406, 11086, 11087, 11096, 11095, 11419, 11420, 11429, 11428
  208407, 11087, 11088, 11097, 11096, 11420, 11421, 11430, 11429
  208408, 11089, 11090, 11099, 11098, 11422, 11423, 11432, 11431
  208409, 11090, 11091, 11100, 11099, 11423, 11424, 11433, 11432
  208410, 11091, 11092, 11101, 11100, 11424, 11425, 11434, 11433
  208411, 11092, 11093, 11102, 11101, 11425, 11426, 11435, 11434
  208412, 11093, 11094, 11103, 11102, 11426, 11427, 11436, 11435
  208413, 11094, 11095, 11104, 11103, 11427, 11428, 11437, 11436
  208414, 11095, 11096, 11105, 11104, 11428, 11429, 11438, 11437
  208415, 11096, 11097, 11106, 11105, 11429, 11430, 11439, 11438
  208416, 11098, 11099, 11108, 11107, 11431, 11432, 11441, 11440
  208417, 11099, 11100, 11109, 11108, 11432, 11433, 11442, 11441
  208418, 11100, 11101, 11110, 11109, 11433, 11434, 11443, 11442
  208419, 11101, 11102, 11111, 11110, 11434, 11435, 11444, 11443
  208420, 11102, 11103, 11112, 11111, 11435, 11436, 11445, 11444
  208421, 11103, 11104, 11113, 11112, 11436, 11437, 11446, 11445
  208422, 11104, 11105, 11114, 11113, 11437, 11438, 11447, 11446
  208423, 11105, 11106, 11115, 11114, 11438, 11439, 11448, 11447
  208424, 11107, 11108, 11117, 11116, 11440, 11441, 11450, 11449
  208425, 11108, 11109, 11118, 11117, 11441, 11442, 11451, 11450
  208426, 11109, 11110, 11119, 11118, 11442, 11443, 11452, 11451
  208427, 11110, 11111, 11120, 11119, 11443, 11444, 11453, 11452
  208428, 11111, 11112, 11121, 11120, 11444, 11445, 11454, 11453
  208429, 11112, 11113, 11122, 11121, 11445, 11446, 11455, 11454
  208430, 11113, 11114, 11123, 11122, 11446, 11447, 11456, 11455
  208431, 11114, 11115, 11124, 11123, 11447, 11448, 11457, 11456
  208432, 11116, 11117, 11126, 11125, 11449, 11450, 11459, 11458
  208433, 11117, 11118, 11127, 11126, 11450, 11451, 11460, 11459
  208434, 11118, 11119, 11128, 11127, 11451, 11452, 11461, 11460
  208435, 11119, 11120, 11129, 11128, 11452, 11453, 11462, 11461
  208436, 11120, 11121, 11130, 11129, 11453, 11454, 11463, 11462
  208437, 11121, 11122, 11131, 11130, 11454, 11455, 11464, 11463
  208438, 11122, 11123, 11132, 11131, 11455, 11456, 11465, 11464
  208439, 11123, 11124, 11133, 11132, 11456, 11457, 11466, 11465
  208440, 11125, 11126, 11135, 11134, 11458, 11459, 11468, 11467
  208441, 11126, 11127, 11136, 11135, 11459, 11460, 11469, 11468
  208442, 11127, 11128, 11137, 11136, 11460, 11461, 11470, 11469
  208443, 11128, 11129, 11138, 11137, 11461, 11462, 11471, 11470
  208444, 11129, 11130, 11139, 11138, 11462, 11463, 11472, 11471
  208445, 11130, 11131, 11140, 11139, 11463, 11464, 11473, 11472
  208446, 11131, 11132, 11141, 11140, 11464, 11465, 11474, 11473
  208447, 11132, 11133, 11142, 11141, 11465, 11466, 11475, 11474
  208448, 11134, 11135, 11144, 11143, 11467, 11468, 11477, 11476
  208449, 11135, 11136, 11145, 11144, 11468, 11469, 11478, 11477
  208450, 11136, 11137, 11146, 11145, 11469, 11470, 11479, 11478
  208451, 11137, 11138, 11147, 11146, 11470, 11471, 11480, 11479
  208452, 11138, 11139, 11148, 11147, 11471, 11472, 11481, 11480
  208453, 11139, 11140, 11149, 11148, 11472, 11473, 11482, 11481
  208454, 11140, 11141, 11150, 11149, 11473, 11474, 11483, 11482
  208455, 11141, 11142, 11151, 11150, 11474, 11475, 11484, 11483
  208456, 11143, 11144, 11153, 11152, 11476, 11477, 11486, 11485
  208457, 11144, 11145, 11154, 11153, 11477, 11478, 11487, 11486
  208458, 11145, 11146, 11155, 11154, 11478, 11479, 11488, 11487
  208459, 11146, 11147, 11156, 11155, 11479, 11480, 11489, 11488
  208460, 11147, 11148, 11157, 11156, 11480, 11481, 11490, 11489
  208461, 11148, 11149, 11158, 11157, 11481, 11482, 11491, 11490
  208462, 11149, 11150, 11159, 11158, 11482, 11483, 11492, 11491
  208463, 11150, 11151, 11160, 11159, 11483, 11484, 11493, 11492
  208464, 11152, 11153, 11162, 11161, 11485, 11486, 11495, 11494
  208465, 11153, 11154, 11163, 11162, 11486, 11487, 11496, 11495
  208466, 11154, 11155, 11164, 11163, 11487, 11488, 11497, 11496
  208467, 11155, 11156, 11165, 11164, 11488, 11489, 11498, 11497
  208468, 11156, 11157, 11166, 11165, 11489, 11490, 11499, 11498
  208469, 11157, 11158, 11167, 11166, 11490, 11491, 11500, 11499
  208470, 11158, 11159, 11168, 11167, 11491, 11492, 11501, 11500
  208471, 11159, 11160, 11169, 11168, 11492, 11493, 11502, 11501
  208472, 11161, 11162, 11171, 11170, 11494, 11495, 11504, 11503
  208473, 11162, 11163, 11172, 11171, 11495, 11496, 11505, 11504
  208474, 11163, 11164, 11173, 11172, 11496, 11497, 11506, 11505
  208475, 11164, 11165, 11174, 11173, 11497, 11498, 11507, 11506
  208476, 11165, 11166, 11175, 11174, 11498, 11499, 11508, 11507
  208477, 11166, 11167, 11176, 11175, 11499, 11500, 11509, 11508
  208478, 11167, 11168, 11177, 11176, 11500, 11501, 11510, 11509
  208479, 11168, 11169, 11178, 11177, 11501, 11502, 11511, 11510
  208480, 11170, 11171, 11180, 11179, 11503, 11504, 11513, 11512
  208481, 11171, 11172, 11181, 11180, 11504, 11505, 11514, 11513
  208482, 11172, 11173, 11182, 11181, 11505, 11506, 11515, 11514
  208483, 11173, 11174, 11183, 11182, 11506, 11507, 11516, 11515
  208484, 11174, 11175, 11184, 11183, 11507, 11508, 11517, 11516
  208485, 11175, 11176, 11185, 11184, 11508, 11509, 11518, 11517
  208486, 11176, 11177, 11186, 11185, 11509, 11510, 11519, 11518
  208487, 11177, 11178, 11187, 11186, 11510, 11511, 11520, 11519
  208488, 11179, 11180, 11189, 11188, 11512, 11513, 11522, 11521
  208489, 11180, 11181, 11190, 11189, 11513, 11514, 11523, 11522
  208490, 11181, 11182, 11191, 11190, 11514, 11515, 11524, 11523
  208491, 11182, 11183, 11192, 11191, 11515, 11516, 11525, 11524
  208492, 11183, 11184, 11193, 11192, 11516, 11517, 11526, 11525
  208493, 11184, 11185, 11194, 11193, 11517, 11518, 11527, 11526
  208494, 11185, 11186, 11195, 11194, 11518, 11519, 11528, 11527
  208495, 11186, 11187, 11196, 11195, 11519, 11520, 11529, 11528
  208496, 11188, 11189, 11198, 11197, 11521, 11522, 11531, 11530
  208497, 11189, 11190, 11199, 11198, 11522, 11523, 11532, 11531
  208498, 11190, 11191, 11200, 11199, 11523, 11524, 11533, 11532
  208499, 11191, 11192, 11201, 11200, 11524, 11525, 11534, 11533
  208500, 11192, 11193, 11202, 11201, 11525, 11526, 11535, 11534
  208501, 11193, 11194, 11203, 11202, 11526, 11527, 11536, 11535
  208502, 11194, 11195, 11204, 11203, 11527, 11528, 11537, 11536
  208503, 11195, 11196, 11205, 11204, 11528, 11529, 11538, 11537
  208504, 11197, 11198, 11207, 11206, 11530, 11531, 11540, 11539
  208505, 11198, 11199, 11208, 11207, 11531, 11532, 11541, 11540
  208506, 11199, 11200, 11209, 11208, 11532, 11533, 11542, 11541
  208507, 11200, 11201, 11210, 11209, 11533, 11534, 11543, 11542
  208508, 11201, 11202, 11211, 11210, 11534, 11535, 11544, 11543
  208509, 11202, 11203, 11212, 11211, 11535, 11536, 11545, 11544
  208510, 11203, 11204, 11213, 11212, 11536, 11537, 11546, 11545
  208511, 11204, 11205, 11214, 11213, 11537, 11538, 11547, 11546
  208512, 11206, 11207, 11216, 11215, 11539, 11540, 11549, 11548
  208513, 11207, 11208, 11217, 11216, 11540, 11541, 11550, 11549
  208514, 11208, 11209, 11218, 11217, 11541, 11542, 11551, 11550
  208515, 11209, 11210, 11219, 11218, 11542, 11543, 11552, 11551
  208516, 11210, 11211, 11220, 11219, 11543, 11544, 11553, 11552
  208517, 11211, 11212, 11221, 11220, 11544, 11545, 11554, 11553
  208518, 11212, 11213, 11222, 11221, 11545, 11546, 11555, 11554
  208519, 11213, 11214, 11223, 11222, 11546, 11547, 11556, 11555
  208520, 11215, 11216, 11225, 11224, 11548, 11549, 11558, 11557
  208521, 11216, 11217, 11226, 11225, 11549, 11550, 11559, 11558
  208522, 11217, 11218, 11227, 11226, 11550, 11551, 11560, 11559
  208523, 11218, 11219, 11228, 11227, 11551, 11552, 11561, 11560
  208524, 11219, 11220, 11229, 11228, 11552, 11553, 11562, 11561
  208525, 11220, 11221, 11230, 11229, 11553, 11554, 11563, 11562
  208526, 11221, 11222, 11231, 11230, 11554, 11555, 11564, 11563
  208527, 11222, 11223, 11232, 11231, 11555, 11556, 11565, 11564
  208528, 11224, 11225, 11234, 11233, 11557, 11558, 11567, 11566
  208529, 11225, 11226, 11235, 11234, 11558, 11559, 11568, 11567
  208530, 11226, 11227, 11236, 11235, 11559, 11560, 11569, 11568
  208531, 11227, 11228, 11237, 11236, 11560, 11561, 11570, 11569
  208532, 11228, 11229, 11238, 11237, 11561, 11562, 11571, 11570
  208533, 11229, 11230, 11239, 11238, 11562, 11563, 11572, 11571
  208534, 11230, 11231, 11240, 11239, 11563, 11564, 11573, 11572
  208535, 11231, 11232, 11241, 11240, 11564, 11565, 11574, 11573
  208536, 11233, 11234, 11243, 11242, 11566, 11567, 11576, 11575
  208537, 11234, 11235, 11244, 11243, 11567, 11568, 11577, 11576
  208538, 11235, 11236, 11245, 11244, 11568, 11569, 11578, 11577
  208539, 11236, 11237, 11246, 11245, 11569, 11570, 11579, 11578
  208540, 11237, 11238, 11247, 11246, 11570, 11571, 11580, 11579
  208541, 11238, 11239, 11248, 11247, 11571, 11572, 11581, 11580
  208542, 11239, 11240, 11249, 11248, 11572, 11573, 11582, 11581
  208543, 11240, 11241, 11250, 11249, 11573, 11574, 11583, 11582
  208544, 11242, 11243, 11252, 11251, 11575, 11576, 11585, 11584
  208545, 11243, 11244, 11253, 11252, 11576, 11577, 11586, 11585
  208546, 11244, 11245, 11254, 11253, 11577, 11578, 11587, 11586
  208547, 11245, 11246, 11255, 11254, 11578, 11579, 11588, 11587
  208548, 11246, 11247, 11256, 11255, 11579, 11580, 11589, 11588
  208549, 11247, 11248, 11257, 11256, 11580, 11581, 11590, 11589
  208550, 11248, 11249, 11258, 11257, 11581, 11582, 11591, 11590
  208551, 11249, 11250, 11259, 11258, 11582, 11583, 11592, 11591
  208552, 11251, 11252, 11261, 11260, 11584, 11585, 11594, 11593
  208553, 11252, 11253, 11262, 11261, 11585, 11586, 11595, 11594
  208554, 11253, 11254, 11263, 11262, 11586, 11587, 11596, 11595
  208555, 11254, 11255, 11264, 11263, 11587, 11588, 11597, 11596
  208556, 11255, 11256, 11265, 11264, 11588, 11589, 11598, 11597
  208557, 11256, 11257, 11266, 11265, 11589, 11590, 11599, 11598
  208558, 11257, 11258, 11267, 11266, 11590, 11591, 11600, 11599
  208559, 11258, 11259, 11268, 11267, 11591, 11592, 11601, 11600
  208560, 11260, 11261, 11270, 11269, 11593, 11594, 11603, 11602
  208561, 11261, 11262, 11271, 11270, 11594, 11595, 11604, 11603
  208562, 11262, 11263, 11272, 11271, 11595, 11596, 11605, 11604
  208563, 11263, 11264, 11273, 11272, 11596, 11597, 11606, 11605
  208564, 11264, 11265, 11274, 11273, 11597, 11598, 11607, 11606
  208565, 11265, 11266, 11275, 11274, 11598, 11599, 11608, 11607
  208566, 11266, 11267, 11276, 11275, 11599, 11600, 11609, 11608
  208567, 11267, 11268, 11277, 11276, 11600, 11601, 11610, 11609
  208568, 11269, 11270, 11279, 11278, 11602, 11603, 11612, 11611
  208569, 11270, 11271, 11280, 11279, 11603, 11604, 11613, 11612
  208570, 11271, 11272, 11281, 11280, 11604, 11605, 11614, 11613
  208571, 11272, 11273, 11282, 11281, 11605, 11606, 11615, 11614
  208572, 11273, 11274, 11283, 11282, 11606, 11607, 11616, 11615
  208573, 11274, 11275, 11284, 11283, 11607, 11608, 11617, 11616
  208574, 11275, 11276, 11285, 11284, 11608, 11609, 11618, 11617
  208575, 11276, 11277, 11286, 11285, 11609, 11610, 11619, 11618
  208576, 11278, 11279, 11288, 11287, 11611, 11612, 11621, 11620
  208577, 11279, 11280, 11289, 11288, 11612, 11613, 11622, 11621
  208578, 11280, 11281, 11290, 11289, 11613, 11614, 11623, 11622
  208579, 11281, 11282, 11291, 11290, 11614, 11615, 11624, 11623
  208580, 11282, 11283, 11292, 11291, 11615, 11616, 11625, 11624
  208581, 11283, 11284, 11293, 11292, 11616, 11617, 11626, 11625
  208582, 11284, 11285, 11294, 11293, 11617, 11618, 11627, 11626
  208583, 11285, 11286, 11295, 11294, 11618, 11619, 11628, 11627
  208584, 11287, 11288, 11297, 11296, 11620, 11621, 11630, 11629
  208585, 11288, 11289, 11298, 11297, 11621, 11622, 11631, 11630
  208586, 11289, 11290, 11299, 11298, 11622, 11623, 11632, 11631
  208587, 11290, 11291, 11300, 11299, 11623, 11624, 11633, 11632
  208588, 11291, 11292, 11301, 11300, 11624, 11625, 11634, 11633
  208589, 11292, 11293, 11302, 11301, 11625, 11626, 11635, 11634
  208590, 11293, 11294, 11303, 11302, 11626, 11627, 11636, 11635
  208591, 11294, 11295, 11304, 11303, 11627, 11628, 11637, 11636
  208592, 11296, 11297, 11306, 11305, 11629, 11630, 11639, 11638
  208593, 11297, 11298, 11307, 11306, 11630, 11631, 11640, 11639
  208594, 11298, 11299, 11308, 11307, 11631, 11632, 11641, 11640
  208595, 11299, 11300, 11309, 11308, 11632, 11633, 11642, 11641
  208596, 11300, 11301, 11310, 11309, 11633, 11634, 11643, 11642
  208597, 11301, 11302, 11311, 11310, 11634, 11635, 11644, 11643
  208598, 11302, 11303, 11312, 11311, 11635, 11636, 11645, 11644
  208599, 11303, 11304, 11313, 11312, 11636, 11637, 11646, 11645
  208600, 11305, 11306, 11315, 11314, 11638, 11639, 11648, 11647
  208601, 11306, 11307, 11316, 11315, 11639, 11640, 11649, 11648
  208602, 11307, 11308, 11317, 11316, 11640, 11641, 11650, 11649
  208603, 11308, 11309, 11318, 11317, 11641, 11642, 11651, 11650
  208604, 11309, 11310, 11319, 11318, 11642, 11643, 11652, 11651
  208605, 11310, 11311, 11320, 11319, 11643, 11644, 11653, 11652
  208606, 11311, 11312, 11321, 11320, 11644, 11645, 11654, 11653
  208607, 11312, 11313, 11322, 11321, 11645, 11646, 11655, 11654
  208608, 11314, 11315, 11324, 11323, 11647, 11648, 11657, 11656
  208609, 11315, 11316, 11325, 11324, 11648, 11649, 11658, 11657
  208610, 11316, 11317, 11326, 11325, 11649, 11650, 11659, 11658
  208611, 11317, 11318, 11327, 11326, 11650, 11651, 11660, 11659
  208612, 11318, 11319, 11328, 11327, 11651, 11652, 11661, 11660
  208613, 11319, 11320, 11329, 11328, 11652, 11653, 11662, 11661
  208614, 11320, 11321, 11330, 11329, 11653, 11654, 11663, 11662
  208615, 11321, 11322, 11331, 11330, 11654, 11655, 11664, 11663
  208616, 11323, 11324, 11333, 11332, 11656, 11657, 11666, 11665
  208617, 11324, 11325, 11334, 11333, 11657, 11658, 11667, 11666
  208618, 11325, 11326, 11335, 11334, 11658, 11659, 11668, 11667
  208619, 11326, 11327, 11336, 11335, 11659, 11660, 11669, 11668
  208620, 11327, 11328, 11337, 11336, 11660, 11661, 11670, 11669
  208621, 11328, 11329, 11338, 11337, 11661, 11662, 11671, 11670
  208622, 11329, 11330, 11339, 11338, 11662, 11663, 11672, 11671
  208623, 11330, 11331, 11340, 11339, 11663, 11664, 11673, 11672
  208624, 11332, 11333, 11342, 11341, 11665, 11666, 11675, 11674
  208625, 11333, 11334, 11343, 11342, 11666, 11667, 11676, 11675
  208626, 11334, 11335, 11344, 11343, 11667, 11668, 11677, 11676
  208627, 11335, 11336, 11345, 11344, 11668, 11669, 11678, 11677
  208628, 11336, 11337, 11346, 11345, 11669, 11670, 11679, 11678
  208629, 11337, 11338, 11347, 11346, 11670, 11671, 11680, 11679
  208630, 11338, 11339, 11348, 11347, 11671, 11672, 11681, 11680
  208631, 11339, 11340, 11349, 11348, 11672, 11673, 11682, 11681
  208632, 11341, 11342, 11351, 11350, 11674, 11675, 11684, 11683
  208633, 11342, 11343, 11352, 11351, 11675, 11676, 11685, 11684
  208634, 11343, 11344, 11353, 11352, 11676, 11677, 11686, 11685
  208635, 11344, 11345, 11354, 11353, 11677, 11678, 11687, 11686
  208636, 11345, 11346, 11355, 11354, 11678, 11679, 11688, 11687
  208637, 11346, 11347, 11356, 11355, 11679, 11680, 11689, 11688
  208638, 11347, 11348, 11357, 11356, 11680, 11681, 11690, 11689
  208639, 11348, 11349, 11358, 11357, 11681, 11682, 11691, 11690
  208640, 11359, 11360, 11369, 11368, 11692, 11693, 11702, 11701
  208641, 11360, 11361, 11370, 11369, 11693, 11694, 11703, 11702
  208642, 11361, 11362, 11371, 11370, 11694, 11695, 11704, 11703
  208643, 11362, 11363, 11372, 11371, 11695, 11696, 11705, 11704
  208644, 11363, 11364, 11373, 11372, 11696, 11697, 11706, 11705
  208645, 11364, 11365, 11374, 11373, 11697, 11698, 11707, 11706
  208646, 11365, 11366, 11375, 11374, 11698, 11699, 11708, 11707
  208647, 11366, 11367, 11376, 11375, 11699, 11700, 11709, 11708
  208648, 11368, 11369, 11378, 11377, 11701, 11702, 11711, 11710
  208649, 11369, 11370, 11379, 11378, 11702, 11703, 11712, 11711
  208650, 11370, 11371, 11380, 11379, 11703, 11704, 11713, 11712
  208651, 11371, 11372, 11381, 11380, 11704, 11705, 11714, 11713
  208652, 11372, 11373, 11382, 11381, 11705, 11706, 11715, 11714
  208653, 11373, 11374, 11383, 11382, 11706, 11707, 11716, 11715
  208654, 11374, 11375, 11384, 11383, 11707, 11708, 11717, 11716
  208655, 11375, 11376, 11385, 11384, 11708, 11709, 11718, 11717
  208656, 11377, 11378, 11387, 11386, 11710, 11711, 11720, 11719
  208657, 11378, 11379, 11388, 11387, 11711, 11712, 11721, 11720
  208658, 11379, 11380, 11389, 11388, 11712, 11713, 11722, 11721
  208659, 11380, 11381, 11390, 11389, 11713, 11714, 11723, 11722
  208660, 11381, 11382, 11391, 11390, 11714, 11715, 11724, 11723
  208661, 11382, 11383, 11392, 11391, 11715, 11716, 11725, 11724
  208662, 11383, 11384, 11393, 11392, 11716, 11717, 11726, 11725
  208663, 11384, 11385, 11394, 11393, 11717, 11718, 11727, 11726
  208664, 11386, 11387, 11396, 11395, 11719, 11720, 11729, 11728
  208665, 11387, 11388, 11397, 11396, 11720, 11721, 11730, 11729
  208666, 11388, 11389, 11398, 11397, 11721, 11722, 11731, 11730
  208667, 11389, 11390, 11399, 11398, 11722, 11723, 11732, 11731
  208668, 11390, 11391, 11400, 11399, 11723, 11724, 11733, 11732
  208669, 11391, 11392, 11401, 11400, 11724, 11725, 11734, 11733
  208670, 11392, 11393, 11402, 11401, 11725, 11726, 11735, 11734
  208671, 11393, 11394, 11403, 11402, 11726, 11727, 11736, 11735
  208672, 11395, 11396, 11405, 11404, 11728, 11729, 11738, 11737
  208673, 11396, 11397, 11406, 11405, 11729, 11730, 11739, 11738
  208674, 11397, 11398, 11407, 11406, 11730, 11731, 11740, 11739
  208675, 11398, 11399, 11408, 11407, 11731, 11732, 11741, 11740
  208676, 11399, 11400, 11409, 11408, 11732, 11733, 11742, 11741
  208677, 11400, 11401, 11410, 11409, 11733, 11734, 11743, 11742
  208678, 11401, 11402, 11411, 11410, 11734, 11735, 11744, 11743
  208679, 11402, 11403, 11412, 11411, 11735, 11736, 11745, 11744
  208680, 11404, 11405, 11414, 11413, 11737, 11738, 11747, 11746
  208681, 11405, 11406, 11415, 11414, 11738, 11739, 11748, 11747
  208682, 11406, 11407, 11416, 11415, 11739, 11740, 11749, 11748
  208683, 11407, 11408, 11417, 11416, 11740, 11741, 11750, 11749
  208684, 11408, 11409, 11418, 11417, 11741, 11742, 11751, 11750
  208685, 11409, 11410, 11419, 11418, 11742, 11743, 11752, 11751
  208686, 11410, 11411, 11420, 11419, 11743, 11744, 11753, 11752
  208687, 11411, 11412, 11421, 11420, 11744, 11745, 11754, 11753
  208688, 11413, 11414, 11423, 11422, 11746, 11747, 11756, 11755
  208689, 11414, 11415, 11424, 11423, 11747, 11748, 11757, 11756
  208690, 11415, 11416, 11425, 11424, 11748, 11749, 11758, 11757
  208691, 11416, 11417, 11426, 11425, 11749, 11750, 11759, 11758
  208692, 11417, 11418, 11427, 11426, 11750, 11751, 11760, 11759
  208693, 11418, 11419, 11428, 11427, 11751, 11752, 11761, 11760
  208694, 11419, 11420, 11429, 11428, 11752, 11753, 11762, 11761
  208695, 11420, 11421, 11430, 11429, 11753, 11754, 11763, 11762
  208696, 11422, 11423, 11432, 11431, 11755, 11756, 11765, 11764
  208697, 11423, 11424, 11433, 11432, 11756, 11757, 11766, 11765
  208698, 11424, 11425, 11434, 11433, 11757, 11758, 11767, 11766
  208699, 11425, 11426, 11435, 11434, 11758, 11759, 11768, 11767
  208700, 11426, 11427, 11436, 11435, 11759, 11760, 11769, 11768
  208701, 11427, 11428, 11437, 11436, 11760, 11761, 11770, 11769
  208702, 11428, 11429, 11438, 11437, 11761, 11762, 11771, 11770
  208703, 11429, 11430, 11439, 11438, 11762, 11763, 11772, 11771
  208704, 11431, 11432, 11441, 11440, 11764, 11765, 11774, 11773
  208705, 11432, 11433, 11442, 11441, 11765, 11766, 11775, 11774
  208706, 11433, 11434, 11443, 11442, 11766, 11767, 11776, 11775
  208707, 11434, 11435, 11444, 11443, 11767, 11768, 11777, 11776
  208708, 11435, 11436, 11445, 11444, 11768, 11769, 11778, 11777
  208709, 11436, 11437, 11446, 11445, 11769, 11770, 11779, 11778
  208710, 11437, 11438, 11447, 11446, 11770, 11771, 11780, 11779
  208711, 11438, 11439, 11448, 11447, 11771, 11772, 11781, 11780
  208712, 11440, 11441, 11450, 11449, 11773, 11774, 11783, 11782
  208713, 11441, 11442, 11451, 11450, 11774, 11775, 11784, 11783
  208714, 11442, 11443, 11452, 11451, 11775, 11776, 11785, 11784
  208715, 11443, 11444, 11453, 11452, 11776, 11777, 11786, 11785
  208716, 11444, 11445, 11454, 11453, 11777, 11778, 11787, 11786
  208717, 11445, 11446, 11455, 11454, 11778, 11779, 11788, 11787
  208718, 11446, 11447, 11456, 11455, 11779, 11780, 11789, 11788
  208719, 11447, 11448, 11457, 11456, 11780, 11781, 11790, 11789
  208720, 11449, 11450, 11459, 11458, 11782, 11783, 11792, 11791
  208721, 11450, 11451, 11460, 11459, 11783, 11784, 11793, 11792
  208722, 11451, 11452, 11461, 11460, 11784, 11785, 11794, 11793
  208723, 11452, 11453, 11462, 11461, 11785, 11786, 11795, 11794
  208724, 11453, 11454, 11463, 11462, 11786, 11787, 11796, 11795
  208725, 11454, 11455, 11464, 11463, 11787, 11788, 11797, 11796
  208726, 11455, 11456, 11465, 11464, 11788, 11789, 11798, 11797
  208727, 11456, 11457, 11466, 11465, 11789, 11790, 11799, 11798
  208728, 11458, 11459, 11468, 11467, 11791, 11792, 11801, 11800
  208729, 11459, 11460, 11469, 11468, 11792, 11793, 11802, 11801
  208730, 11460, 11461, 11470, 11469, 11793, 11794, 11803, 11802
  208731, 11461, 11462, 11471, 11470, 11794, 11795, 11804, 11803
  208732, 11462, 11463, 11472, 11471, 11795, 11796, 11805, 11804
  208733, 11463, 11464, 11473, 11472, 11796, 11797, 11806, 11805
  208734, 11464, 11465, 11474, 11473, 11797, 11798, 11807, 11806
  208735, 11465, 11466, 11475, 11474, 11798, 11799, 11808, 11807
  208736, 11467, 11468, 11477, 11476, 11800, 11801, 11810, 11809
  208737, 11468, 11469, 11478, 11477, 11801, 11802, 11811, 11810
  208738, 11469, 11470, 11479, 11478, 11802, 11803, 11812, 11811
  208739, 11470, 11471, 11480, 11479, 11803, 11804, 11813, 11812
  208740, 11471, 11472, 11481, 11480, 11804, 11805, 11814, 11813
  208741, 11472, 11473, 11482, 11481, 11805, 11806, 11815, 11814
  208742, 11473, 11474, 11483, 11482, 11806, 11807, 11816, 11815
  208743, 11474, 11475, 11484, 11483, 11807, 11808, 11817, 11816
  208744, 11476, 11477, 11486, 11485, 11809, 11810, 11819, 11818
  208745, 11477, 11478, 11487, 11486, 11810, 11811, 11820, 11819
  208746, 11478, 11479, 11488, 11487, 11811, 11812, 11821, 11820
  208747, 11479, 11480, 11489, 11488, 11812, 11813, 11822, 11821
  208748, 11480, 11481, 11490, 11489, 11813, 11814, 11823, 11822
  208749, 11481, 11482, 11491, 11490, 11814, 11815, 11824, 11823
  208750, 11482, 11483, 11492, 11491, 11815, 11816, 11825, 11824
  208751, 11483, 11484, 11493, 11492, 11816, 11817, 11826, 11825
  208752, 11485, 11486, 11495, 11494, 11818, 11819, 11828, 11827
  208753, 11486, 11487, 11496, 11495, 11819, 11820, 11829, 11828
  208754, 11487, 11488, 11497, 11496, 11820, 11821, 11830, 11829
  208755, 11488, 11489, 11498, 11497, 11821, 11822, 11831, 11830
  208756, 11489, 11490, 11499, 11498, 11822, 11823, 11832, 11831
  208757, 11490, 11491, 11500, 11499, 11823, 11824, 11833, 11832
  208758, 11491, 11492, 11501, 11500, 11824, 11825, 11834, 11833
  208759, 11492, 11493, 11502, 11501, 11825, 11826, 11835, 11834
  208760, 11494, 11495, 11504, 11503, 11827, 11828, 11837, 11836
  208761, 11495, 11496, 11505, 11504, 11828, 11829, 11838, 11837
  208762, 11496, 11497, 11506, 11505, 11829, 11830, 11839, 11838
  208763, 11497, 11498, 11507, 11506, 11830, 11831, 11840, 11839
  208764, 11498, 11499, 11508, 11507, 11831, 11832, 11841, 11840
  208765, 11499, 11500, 11509, 11508, 11832, 11833, 11842, 11841
  208766, 11500, 11501, 11510, 11509, 11833, 11834, 11843, 11842
  208767, 11501, 11502, 11511, 11510, 11834, 11835, 11844, 11843
  208768, 11503, 11504, 11513, 11512, 11836, 11837, 11846, 11845
  208769, 11504, 11505, 11514, 11513, 11837, 11838, 11847, 11846
  208770, 11505, 11506, 11515, 11514, 11838, 11839, 11848, 11847
  208771, 11506, 11507, 11516, 11515, 11839, 11840, 11849, 11848
  208772, 11507, 11508, 11517, 11516, 11840, 11841, 11850, 11849
  208773, 11508, 11509, 11518, 11517, 11841, 11842, 11851, 11850
  208774, 11509, 11510, 11519, 11518, 11842, 11843, 11852, 11851
  208775, 11510, 11511, 11520, 11519, 11843, 11844, 11853, 11852
  208776, 11512, 11513, 11522, 11521, 11845, 11846, 11855, 11854
  208777, 11513, 11514, 11523, 11522, 11846, 11847, 11856, 11855
  208778, 11514, 11515, 11524, 11523, 11847, 11848, 11857, 11856
  208779, 11515, 11516, 11525, 11524, 11848, 11849, 11858, 11857
  208780, 11516, 11517, 11526, 11525, 11849, 11850, 11859, 11858
  208781, 11517, 11518, 11527, 11526, 11850, 11851, 11860, 11859
  208782, 11518, 11519, 11528, 11527, 11851, 11852, 11861, 11860
  208783, 11519, 11520, 11529, 11528, 11852, 11853, 11862, 11861
  208784, 11521, 11522, 11531, 11530, 11854, 11855, 11864, 11863
  208785, 11522, 11523, 11532, 11531, 11855, 11856, 11865, 11864
  208786, 11523, 11524, 11533, 11532, 11856, 11857, 11866, 11865
  208787, 11524, 11525, 11534, 11533, 11857, 11858, 11867, 11866
  208788, 11525, 11526, 11535, 11534, 11858, 11859, 11868, 11867
  208789, 11526, 11527, 11536, 11535, 11859, 11860, 11869, 11868
  208790, 11527, 11528, 11537, 11536, 11860, 11861, 11870, 11869
  208791, 11528, 11529, 11538, 11537, 11861, 11862, 11871, 11870
  208792, 11530, 11531, 11540, 11539, 11863, 11864, 11873, 11872
  208793, 11531, 11532, 11541, 11540, 11864, 11865, 11874, 11873
  208794, 11532, 11533, 11542, 11541, 11865, 11866, 11875, 11874
  208795, 11533, 11534, 11543, 11542, 11866, 11867, 11876, 11875
  208796, 11534, 11535, 11544, 11543, 11867, 11868, 11877, 11876
  208797, 11535, 11536, 11545, 11544, 11868, 11869, 11878, 11877
  208798, 11536, 11537, 11546, 11545, 11869, 11870, 11879, 11878
  208799, 11537, 11538, 11547, 11546, 11870, 11871, 11880, 11879
  208800, 11539, 11540, 11549, 11548, 11872, 11873, 11882, 11881
  208801, 11540, 11541, 11550, 11549, 11873, 11874, 11883, 11882
  208802, 11541, 11542, 11551, 11550, 11874, 11875, 11884, 11883
  208803, 11542, 11543, 11552, 11551, 11875, 11876, 11885, 11884
  208804, 11543, 11544, 11553, 11552, 11876, 11877, 11886, 11885
  208805, 11544, 11545, 11554, 11553, 11877, 11878, 11887, 11886
  208806, 11545, 11546, 11555, 11554, 11878, 11879, 11888, 11887
  208807, 11546, 11547, 11556, 11555, 11879, 11880, 11889, 11888
  208808, 11548, 11549, 11558, 11557, 11881, 11882, 11891, 11890
  208809, 11549, 11550, 11559, 11558, 11882, 11883, 11892, 11891
  208810, 11550, 11551, 11560, 11559, 11883, 11884, 11893, 11892
  208811, 11551, 11552, 11561, 11560, 11884, 11885, 11894, 11893
  208812, 11552, 11553, 11562, 11561, 11885, 11886, 11895, 11894
  208813, 11553, 11554, 11563, 11562, 11886, 11887, 11896, 11895
  208814, 11554, 11555, 11564, 11563, 11887, 11888, 11897, 11896
  208815, 11555, 11556, 11565, 11564, 11888, 11889, 11898, 11897
  208816, 11557, 11558, 11567, 11566, 11890, 11891, 11900, 11899
  208817, 11558, 11559, 11568, 11567, 11891, 11892, 11901, 11900
  208818, 11559, 11560, 11569, 11568, 11892, 11893, 11902, 11901
  208819, 11560, 11561, 11570, 11569, 11893, 11894, 11903, 11902
  208820, 11561, 11562, 11571, 11570, 11894, 11895, 11904, 11903
  208821, 11562, 11563, 11572, 11571, 11895, 11896, 11905, 11904
  208822, 11563, 11564, 11573, 11572, 11896, 11897, 11906, 11905
  208823, 11564, 11565, 11574, 11573, 11897, 11898, 11907, 11906
  208824, 11566, 11567, 11576, 11575, 11899, 11900, 11909, 11908
  208825, 11567, 11568, 11577, 11576, 11900, 11901, 11910, 11909
  208826, 11568, 11569, 11578, 11577, 11901, 11902, 11911, 11910
  208827, 11569, 11570, 11579, 11578, 11902, 11903, 11912, 11911
  208828, 11570, 11571, 11580, 11579, 11903, 11904, 11913, 11912
  208829, 11571, 11572, 11581, 11580, 11904, 11905, 11914, 11913
  208830, 11572, 11573, 11582, 11581, 11905, 11906, 11915, 11914
  208831, 11573, 11574, 11583, 11582, 11906, 11907, 11916, 11915
  208832, 11575, 11576, 11585, 11584, 11908, 11909, 11918, 11917
  208833, 11576, 11577, 11586, 11585, 11909, 11910, 11919, 11918
  208834, 11577, 11578, 11587, 11586, 11910, 11911, 11920, 11919
  208835, 11578, 11579, 11588, 11587, 11911, 11912, 11921, 11920
  208836, 11579, 11580, 11589, 11588, 11912, 11913, 11922, 11921
  208837, 11580, 11581, 11590, 11589, 11913, 11914, 11923, 11922
  208838, 11581, 11582, 11591, 11590, 11914, 11915, 11924, 11923
  208839, 11582, 11583, 11592, 11591, 11915, 11916, 11925, 11924
  208840, 11584, 11585, 11594, 11593, 11917, 11918, 11927, 11926
  208841, 11585, 11586, 11595, 11594, 11918, 11919, 11928, 11927
  208842, 11586, 11587, 11596, 11595, 11919, 11920, 11929, 11928
  208843, 11587, 11588, 11597, 11596, 11920, 11921, 11930, 11929
  208844, 11588, 11589, 11598, 11597, 11921, 11922, 11931, 11930
  208845, 11589, 11590, 11599, 11598, 11922, 11923, 11932, 11931
  208846, 11590, 11591, 11600, 11599, 11923, 11924, 11933, 11932
  208847, 11591, 11592, 11601, 11600, 11924, 11925, 11934, 11933
  208848, 11593, 11594, 11603, 11602, 11926, 11927, 11936, 11935
  208849, 11594, 11595, 11604, 11603, 11927, 11928, 11937, 11936
  208850, 11595, 11596, 11605, 11604, 11928, 11929, 11938, 11937
  208851, 11596, 11597, 11606, 11605, 11929, 11930, 11939, 11938
  208852, 11597, 11598, 11607, 11606, 11930, 11931, 11940, 11939
  208853, 11598, 11599, 11608, 11607, 11931, 11932, 11941, 11940
  208854, 11599, 11600, 11609, 11608, 11932, 11933, 11942, 11941
  208855, 11600, 11601, 11610, 11609, 11933, 11934, 11943, 11942
  208856, 11602, 11603, 11612, 11611, 11935, 11936, 11945, 11944
  208857, 11603, 11604, 11613, 11612, 11936, 11937, 11946, 11945
  208858, 11604, 11605, 11614, 11613, 11937, 11938, 11947, 11946
  208859, 11605, 11606, 11615, 11614, 11938, 11939, 11948, 11947
  208860, 11606, 11607, 11616, 11615, 11939, 11940, 11949, 11948
  208861, 11607, 11608, 11617, 11616, 11940, 11941, 11950, 11949
  208862, 11608, 11609, 11618, 11617, 11941, 11942, 11951, 11950
  208863, 11609, 11610, 11619, 11618, 11942, 11943, 11952, 11951
  208864, 11611, 11612, 11621, 11620, 11944, 11945, 11954, 11953
  208865, 11612, 11613, 11622, 11621, 11945, 11946, 11955, 11954
  208866, 11613, 11614, 11623, 11622, 11946, 11947, 11956, 11955
  208867, 11614, 11615, 11624, 11623, 11947, 11948, 11957, 11956
  208868, 11615, 11616, 11625, 11624, 11948, 11949, 11958, 11957
  208869, 11616, 11617, 11626, 11625, 11949, 11950, 11959, 11958
  208870, 11617, 11618, 11627, 11626, 11950, 11951, 11960, 11959
  208871, 11618, 11619, 11628, 11627, 11951, 11952, 11961, 11960
  208872, 11620, 11621, 11630, 11629, 11953, 11954, 11963, 11962
  208873, 11621, 11622, 11631, 11630, 11954, 11955, 11964, 11963
  208874, 11622, 11623, 11632, 11631, 11955, 11956, 11965, 11964
  208875, 11623, 11624, 11633, 11632, 11956, 11957, 11966, 11965
  208876, 11624, 11625, 11634, 11633, 11957, 11958, 11967, 11966
  208877, 11625, 11626, 11635, 11634, 11958, 11959, 11968, 11967
  208878, 11626, 11627, 11636, 11635, 11959, 11960, 11969, 11968
  208879, 11627, 11628, 11637, 11636, 11960, 11961, 11970, 11969
  208880, 11629, 11630, 11639, 11638, 11962, 11963, 11972, 11971
  208881, 11630, 11631, 11640, 11639, 11963, 11964, 11973, 11972
  208882, 11631, 11632, 11641, 11640, 11964, 11965, 11974, 11973
  208883, 11632, 11633, 11642, 11641, 11965, 11966, 11975, 11974
  208884, 11633, 11634, 11643, 11642, 11966, 11967, 11976, 11975
  208885, 11634, 11635, 11644, 11643, 11967, 11968, 11977, 11976
  208886, 11635, 11636, 11645, 11644, 11968, 11969, 11978, 11977
  208887, 11636, 11637, 11646, 11645, 11969, 11970, 11979, 11978
  208888, 11638, 11639, 11648, 11647, 11971, 11972, 11981, 11980
  208889, 11639, 11640, 11649, 11648, 11972, 11973, 11982, 11981
  208890, 11640, 11641, 11650, 11649, 11973, 11974, 11983, 11982
  208891, 11641, 11642, 11651, 11650, 11974, 11975, 11984, 11983
  208892, 11642, 11643, 11652, 11651, 11975, 11976, 11985, 11984
  208893, 11643, 11644, 11653, 11652, 11976, 11977, 11986, 11985
  208894, 11644, 11645, 11654, 11653, 11977, 11978, 11987, 11986
  208895, 11645, 11646, 11655, 11654, 11978, 11979, 11988, 11987
  208896, 11647, 11648, 11657, 11656, 11980, 11981, 11990, 11989
  208897, 11648, 11649, 11658, 11657, 11981, 11982, 11991, 11990
  208898, 11649, 11650, 11659, 11658, 11982, 11983, 11992, 11991
  208899, 11650, 11651, 11660, 11659, 11983, 11984, 11993, 11992
  208900, 11651, 11652, 11661, 11660, 11984, 11985, 11994, 11993
  208901, 11652, 11653, 11662, 11661, 11985, 11986, 11995, 11994
  208902, 11653, 11654, 11663, 11662, 11986, 11987, 11996, 11995
  208903, 11654, 11655, 11664, 11663, 11987, 11988, 11997, 11996
  208904, 11656, 11657, 11666, 11665, 11989, 11990, 11999, 11998
  208905, 11657, 11658, 11667, 11666, 11990, 11991, 12000, 11999
  208906, 11658, 11659, 11668, 11667, 11991, 11992, 12001, 12000
  208907, 11659, 11660, 11669, 11668, 11992, 11993, 12002, 12001
  208908, 11660, 11661, 11670, 11669, 11993, 11994, 12003, 12002
  208909, 11661, 11662, 11671, 11670, 11994, 11995, 12004, 12003
  208910, 11662, 11663, 11672, 11671, 11995, 11996, 12005, 12004
  208911, 11663, 11664, 11673, 11672, 11996, 11997, 12006, 12005
  208912, 11665, 11666, 11675, 11674, 11998, 11999, 12008, 12007
  208913, 11666, 11667, 11676, 11675, 11999, 12000, 12009, 12008
  208914, 11667, 11668, 11677, 11676, 12000, 12001, 12010, 12009
  208915, 11668, 11669, 11678, 11677, 12001, 12002, 12011, 12010
  208916, 11669, 11670, 11679, 11678, 12002, 12003, 12012, 12011
  208917, 11670, 11671, 11680, 11679, 12003, 12004, 12013, 12012
  208918, 11671, 11672, 11681, 11680, 12004, 12005, 12014, 12013
  208919, 11672, 11673, 11682, 11681, 12005, 12006, 12015, 12014
  208920, 11674, 11675, 11684, 11683, 12007, 12008, 12017, 12016
  208921, 11675, 11676, 11685, 11684, 12008, 12009, 12018, 12017
  208922, 11676, 11677, 11686, 11685, 12009, 12010, 12019, 12018
  208923, 11677, 11678, 11687, 11686, 12010, 12011, 12020, 12019
  208924, 11678, 11679, 11688, 11687, 12011, 12012, 12021, 12020
  208925, 11679, 11680, 11689, 11688, 12012, 12013, 12022, 12021
  208926, 11680, 11681, 11690, 11689, 12013, 12014, 12023, 12022
  208927, 11681, 11682, 11691, 11690, 12014, 12015, 12024, 12023
  208928, 11692, 11693, 11702, 11701, 12025, 12026, 12035, 12034
  208929, 11693, 11694, 11703, 11702, 12026, 12027, 12036, 12035
  208930, 11694, 11695, 11704, 11703, 12027, 12028, 12037, 12036
  208931, 11695, 11696, 11705, 11704, 12028, 12029, 12038, 12037
  208932, 11696, 11697, 11706, 11705, 12029, 12030, 12039, 12038
  208933, 11697, 11698, 11707, 11706, 12030, 12031, 12040, 12039
  208934, 11698, 11699, 11708, 11707, 12031, 12032, 12041, 12040
  208935, 11699, 11700, 11709, 11708, 12032, 12033, 12042, 12041
  208936, 11701, 11702, 11711, 11710, 12034, 12035, 12044, 12043
  208937, 11702, 11703, 11712, 11711, 12035, 12036, 12045, 12044
  208938, 11703, 11704, 11713, 11712, 12036, 12037, 12046, 12045
  208939, 11704, 11705, 11714, 11713, 12037, 12038, 12047, 12046
  208940, 11705, 11706, 11715, 11714, 12038, 12039, 12048, 12047
  208941, 11706, 11707, 11716, 11715, 12039, 12040, 12049, 12048
  208942, 11707, 11708, 11717, 11716, 12040, 12041, 12050, 12049
  208943, 11708, 11709, 11718, 11717, 12041, 12042, 12051, 12050
  208944, 11710, 11711, 11720, 11719, 12043, 12044, 12053, 12052
  208945, 11711, 11712, 11721, 11720, 12044, 12045, 12054, 12053
  208946, 11712, 11713, 11722, 11721, 12045, 12046, 12055, 12054
  208947, 11713, 11714, 11723, 11722, 12046, 12047, 12056, 12055
  208948, 11714, 11715, 11724, 11723, 12047, 12048, 12057, 12056
  208949, 11715, 11716, 11725, 11724, 12048, 12049, 12058, 12057
  208950, 11716, 11717, 11726, 11725, 12049, 12050, 12059, 12058
  208951, 11717, 11718, 11727, 11726, 12050, 12051, 12060, 12059
  208952, 11719, 11720, 11729, 11728, 12052, 12053, 12062, 12061
  208953, 11720, 11721, 11730, 11729, 12053, 12054, 12063, 12062
  208954, 11721, 11722, 11731, 11730, 12054, 12055, 12064, 12063
  208955, 11722, 11723, 11732, 11731, 12055, 12056, 12065, 12064
  208956, 11723, 11724, 11733, 11732, 12056, 12057, 12066, 12065
  208957, 11724, 11725, 11734, 11733, 12057, 12058, 12067, 12066
  208958, 11725, 11726, 11735, 11734, 12058, 12059, 12068, 12067
  208959, 11726, 11727, 11736, 11735, 12059, 12060, 12069, 12068
  208960, 11728, 11729, 11738, 11737, 12061, 12062, 12071, 12070
  208961, 11729, 11730, 11739, 11738, 12062, 12063, 12072, 12071
  208962, 11730, 11731, 11740, 11739, 12063, 12064, 12073, 12072
  208963, 11731, 11732, 11741, 11740, 12064, 12065, 12074, 12073
  208964, 11732, 11733, 11742, 11741, 12065, 12066, 12075, 12074
  208965, 11733, 11734, 11743, 11742, 12066, 12067, 12076, 12075
  208966, 11734, 11735, 11744, 11743, 12067, 12068, 12077, 12076
  208967, 11735, 11736, 11745, 11744, 12068, 12069, 12078, 12077
  208968, 11737, 11738, 11747, 11746, 12070, 12071, 12080, 12079
  208969, 11738, 11739, 11748, 11747, 12071, 12072, 12081, 12080
  208970, 11739, 11740, 11749, 11748, 12072, 12073, 12082, 12081
  208971, 11740, 11741, 11750, 11749, 12073, 12074, 12083, 12082
  208972, 11741, 11742, 11751, 11750, 12074, 12075, 12084, 12083
  208973, 11742, 11743, 11752, 11751, 12075, 12076, 12085, 12084
  208974, 11743, 11744, 11753, 11752, 12076, 12077, 12086, 12085
  208975, 11744, 11745, 11754, 11753, 12077, 12078, 12087, 12086
  208976, 11746, 11747, 11756, 11755, 12079, 12080, 12089, 12088
  208977, 11747, 11748, 11757, 11756, 12080, 12081, 12090, 12089
  208978, 11748, 11749, 11758, 11757, 12081, 12082, 12091, 12090
  208979, 11749, 11750, 11759, 11758, 12082, 12083, 12092, 12091
  208980, 11750, 11751, 11760, 11759, 12083, 12084, 12093, 12092
  208981, 11751, 11752, 11761, 11760, 12084, 12085, 12094, 12093
  208982, 11752, 11753, 11762, 11761, 12085, 12086, 12095, 12094
  208983, 11753, 11754, 11763, 11762, 12086, 12087, 12096, 12095
  208984, 11755, 11756, 11765, 11764, 12088, 12089, 12098, 12097
  208985, 11756, 11757, 11766, 11765, 12089, 12090, 12099, 12098
  208986, 11757, 11758, 11767, 11766, 12090, 12091, 12100, 12099
  208987, 11758, 11759, 11768, 11767, 12091, 12092, 12101, 12100
  208988, 11759, 11760, 11769, 11768, 12092, 12093, 12102, 12101
  208989, 11760, 11761, 11770, 11769, 12093, 12094, 12103, 12102
  208990, 11761, 11762, 11771, 11770, 12094, 12095, 12104, 12103
  208991, 11762, 11763, 11772, 11771, 12095, 12096, 12105, 12104
  208992, 11764, 11765, 11774, 11773, 12097, 12098, 12107, 12106
  208993, 11765, 11766, 11775, 11774, 12098, 12099, 12108, 12107
  208994, 11766, 11767, 11776, 11775, 12099, 12100, 12109, 12108
  208995, 11767, 11768, 11777, 11776, 12100, 12101, 12110, 12109
  208996, 11768, 11769, 11778, 11777, 12101, 12102, 12111, 12110
  208997, 11769, 11770, 11779, 11778, 12102, 12103, 12112, 12111
  208998, 11770, 11771, 11780, 11779, 12103, 12104, 12113, 12112
  208999, 11771, 11772, 11781, 11780, 12104, 12105, 12114, 12113
  209000, 11773, 11774, 11783, 11782, 12106, 12107, 12116, 12115
  209001, 11774, 11775, 11784, 11783, 12107, 12108, 12117, 12116
  209002, 11775, 11776, 11785, 11784, 12108, 12109, 12118, 12117
  209003, 11776, 11777, 11786, 11785, 12109, 12110, 12119, 12118
  209004, 11777, 11778, 11787, 11786, 12110, 12111, 12120, 12119
  209005, 11778, 11779, 11788, 11787, 12111, 12112, 12121, 12120
  209006, 11779, 11780, 11789, 11788, 12112, 12113, 12122, 12121
  209007, 11780, 11781, 11790, 11789, 12113, 12114, 12123, 12122
  209008, 11782, 11783, 11792, 11791, 12115, 12116, 12125, 12124
  209009, 11783, 11784, 11793, 11792, 12116, 12117, 12126, 12125
  209010, 11784, 11785, 11794, 11793, 12117, 12118, 12127, 12126
  209011, 11785, 11786, 11795, 11794, 12118, 12119, 12128, 12127
  209012, 11786, 11787, 11796, 11795, 12119, 12120, 12129, 12128
  209013, 11787, 11788, 11797, 11796, 12120, 12121, 12130, 12129
  209014, 11788, 11789, 11798, 11797, 12121, 12122, 12131, 12130
  209015, 11789, 11790, 11799, 11798, 12122, 12123, 12132, 12131
  209016, 11791, 11792, 11801, 11800, 12124, 12125, 12134, 12133
  209017, 11792, 11793, 11802, 11801, 12125, 12126, 12135, 12134
  209018, 11793, 11794, 11803, 11802, 12126, 12127, 12136, 12135
  209019, 11794, 11795, 11804, 11803, 12127, 12128, 12137, 12136
  209020, 11795, 11796, 11805, 11804, 12128, 12129, 12138, 12137
  209021, 11796, 11797, 11806, 11805, 12129, 12130, 12139, 12138
  209022, 11797, 11798, 11807, 11806, 12130, 12131, 12140, 12139
  209023, 11798, 11799, 11808, 11807, 12131, 12132, 12141, 12140
  209024, 11800, 11801, 11810, 11809, 12133, 12134, 12143, 12142
  209025, 11801, 11802, 11811, 11810, 12134, 12135, 12144, 12143
  209026, 11802, 11803, 11812, 11811, 12135, 12136, 12145, 12144
  209027, 11803, 11804, 11813, 11812, 12136, 12137, 12146, 12145
  209028, 11804, 11805, 11814, 11813, 12137, 12138, 12147, 12146
  209029, 11805, 11806, 11815, 11814, 12138, 12139, 12148, 12147
  209030, 11806, 11807, 11816, 11815, 12139, 12140, 12149, 12148
  209031, 11807, 11808, 11817, 11816, 12140, 12141, 12150, 12149
  209032, 11809, 11810, 11819, 11818, 12142, 12143, 12152, 12151
  209033, 11810, 11811, 11820, 11819, 12143, 12144, 12153, 12152
  209034, 11811, 11812, 11821, 11820, 12144, 12145, 12154, 12153
  209035, 11812, 11813, 11822, 11821, 12145, 12146, 12155, 12154
  209036, 11813, 11814, 11823, 11822, 12146, 12147, 12156, 12155
  209037, 11814, 11815, 11824, 11823, 12147, 12148, 12157, 12156
  209038, 11815, 11816, 11825, 11824, 12148, 12149, 12158, 12157
  209039, 11816, 11817, 11826, 11825, 12149, 12150, 12159, 12158
  209040, 11818, 11819, 11828, 11827, 12151, 12152, 12161, 12160
  209041, 11819, 11820, 11829, 11828, 12152, 12153, 12162, 12161
  209042, 11820, 11821, 11830, 11829, 12153, 12154, 12163, 12162
  209043, 11821, 11822, 11831, 11830, 12154, 12155, 12164, 12163
  209044, 11822, 11823, 11832, 11831, 12155, 12156, 12165, 12164
  209045, 11823, 11824, 11833, 11832, 12156, 12157, 12166, 12165
  209046, 11824, 11825, 11834, 11833, 12157, 12158, 12167, 12166
  209047, 11825, 11826, 11835, 11834, 12158, 12159, 12168, 12167
  209048, 11827, 11828, 11837, 11836, 12160, 12161, 12170, 12169
  209049, 11828, 11829, 11838, 11837, 12161, 12162, 12171, 12170
  209050, 11829, 11830, 11839, 11838, 12162, 12163, 12172, 12171
  209051, 11830, 11831, 11840, 11839, 12163, 12164, 12173, 12172
  209052, 11831, 11832, 11841, 11840, 12164, 12165, 12174, 12173
  209053, 11832, 11833, 11842, 11841, 12165, 12166, 12175, 12174
  209054, 11833, 11834, 11843, 11842, 12166, 12167, 12176, 12175
  209055, 11834, 11835, 11844, 11843, 12167, 12168, 12177, 12176
  209056, 11836, 11837, 11846, 11845, 12169, 12170, 12179, 12178
  209057, 11837, 11838, 11847, 11846, 12170, 12171, 12180, 12179
  209058, 11838, 11839, 11848, 11847, 12171, 12172, 12181, 12180
  209059, 11839, 11840, 11849, 11848, 12172, 12173, 12182, 12181
  209060, 11840, 11841, 11850, 11849, 12173, 12174, 12183, 12182
  209061, 11841, 11842, 11851, 11850, 12174, 12175, 12184, 12183
  209062, 11842, 11843, 11852, 11851, 12175, 12176, 12185, 12184
  209063, 11843, 11844, 11853, 11852, 12176, 12177, 12186, 12185
  209064, 11845, 11846, 11855, 11854, 12178, 12179, 12188, 12187
  209065, 11846, 11847, 11856, 11855, 12179, 12180, 12189, 12188
  209066, 11847, 11848, 11857, 11856, 12180, 12181, 12190, 12189
  209067, 11848, 11849, 11858, 11857, 12181, 12182, 12191, 12190
  209068, 11849, 11850, 11859, 11858, 12182, 12183, 12192, 12191
  209069, 11850, 11851, 11860, 11859, 12183, 12184, 12193, 12192
  209070, 11851, 11852, 11861, 11860, 12184, 12185, 12194, 12193
  209071, 11852, 11853, 11862, 11861, 12185, 12186, 12195, 12194
  209072, 11854, 11855, 11864, 11863, 12187, 12188, 12197, 12196
  209073, 11855, 11856, 11865, 11864, 12188, 12189, 12198, 12197
  209074, 11856, 11857, 11866, 11865, 12189, 12190, 12199, 12198
  209075, 11857, 11858, 11867, 11866, 12190, 12191, 12200, 12199
  209076, 11858, 11859, 11868, 11867, 12191, 12192, 12201, 12200
  209077, 11859, 11860, 11869, 11868, 12192, 12193, 12202, 12201
  209078, 11860, 11861, 11870, 11869, 12193, 12194, 12203, 12202
  209079, 11861, 11862, 11871, 11870, 12194, 12195, 12204, 12203
  209080, 11863, 11864, 11873, 11872, 12196, 12197, 12206, 12205
  209081, 11864, 11865, 11874, 11873, 12197, 12198, 12207, 12206
  209082, 11865, 11866, 11875, 11874, 12198, 12199, 12208, 12207
  209083, 11866, 11867, 11876, 11875, 12199, 12200, 12209, 12208
  209084, 11867, 11868, 11877, 11876, 12200, 12201, 12210, 12209
  209085, 11868, 11869, 11878, 11877, 12201, 12202, 12211, 12210
  209086, 11869, 11870, 11879, 11878, 12202, 12203, 12212, 12211
  209087, 11870, 11871, 11880, 11879, 12203, 12204, 12213, 12212
  209088, 11872, 11873, 11882, 11881, 12205, 12206, 12215, 12214
  209089, 11873, 11874, 11883, 11882, 12206, 12207, 12216, 12215
  209090, 11874, 11875, 11884, 11883, 12207, 12208, 12217, 12216
  209091, 11875, 11876, 11885, 11884, 12208, 12209, 12218, 12217
  209092, 11876, 11877, 11886, 11885, 12209, 12210, 12219, 12218
  209093, 11877, 11878, 11887, 11886, 12210, 12211, 12220, 12219
  209094, 11878, 11879, 11888, 11887, 12211, 12212, 12221, 12220
  209095, 11879, 11880, 11889, 11888, 12212, 12213, 12222, 12221
  209096, 11881, 11882, 11891, 11890, 12214, 12215, 12224, 12223
  209097, 11882, 11883, 11892, 11891, 12215, 12216, 12225, 12224
  209098, 11883, 11884, 11893, 11892, 12216, 12217, 12226, 12225
  209099, 11884, 11885, 11894, 11893, 12217, 12218, 12227, 12226
  209100, 11885, 11886, 11895, 11894, 12218, 12219, 12228, 12227
  209101, 11886, 11887, 11896, 11895, 12219, 12220, 12229, 12228
  209102, 11887, 11888, 11897, 11896, 12220, 12221, 12230, 12229
  209103, 11888, 11889, 11898, 11897, 12221, 12222, 12231, 12230
  209104, 11890, 11891, 11900, 11899, 12223, 12224, 12233, 12232
  209105, 11891, 11892, 11901, 11900, 12224, 12225, 12234, 12233
  209106, 11892, 11893, 11902, 11901, 12225, 12226, 12235, 12234
  209107, 11893, 11894, 11903, 11902, 12226, 12227, 12236, 12235
  209108, 11894, 11895, 11904, 11903, 12227, 12228, 12237, 12236
  209109, 11895, 11896, 11905, 11904, 12228, 12229, 12238, 12237
  209110, 11896, 11897, 11906, 11905, 12229, 12230, 12239, 12238
  209111, 11897, 11898, 11907, 11906, 12230, 12231, 12240, 12239
  209112, 11899, 11900, 11909, 11908, 12232, 12233, 12242, 12241
  209113, 11900, 11901, 11910, 11909, 12233, 12234, 12243, 12242
  209114, 11901, 11902, 11911, 11910, 12234, 12235, 12244, 12243
  209115, 11902, 11903, 11912, 11911, 12235, 12236, 12245, 12244
  209116, 11903, 11904, 11913, 11912, 12236, 12237, 12246, 12245
  209117, 11904, 11905, 11914, 11913, 12237, 12238, 12247, 12246
  209118, 11905, 11906, 11915, 11914, 12238, 12239, 12248, 12247
  209119, 11906, 11907, 11916, 11915, 12239, 12240, 12249, 12248
  209120, 11908, 11909, 11918, 11917, 12241, 12242, 12251, 12250
  209121, 11909, 11910, 11919, 11918, 12242, 12243, 12252, 12251
  209122, 11910, 11911, 11920, 11919, 12243, 12244, 12253, 12252
  209123, 11911, 11912, 11921, 11920, 12244, 12245, 12254, 12253
  209124, 11912, 11913, 11922, 11921, 12245, 12246, 12255, 12254
  209125, 11913, 11914, 11923, 11922, 12246, 12247, 12256, 12255
  209126, 11914, 11915, 11924, 11923, 12247, 12248, 12257, 12256
  209127, 11915, 11916, 11925, 11924, 12248, 12249, 12258, 12257
  209128, 11917, 11918, 11927, 11926, 12250, 12251, 12260, 12259
  209129, 11918, 11919, 11928, 11927, 12251, 12252, 12261, 12260
  209130, 11919, 11920, 11929, 11928, 12252, 12253, 12262, 12261
  209131, 11920, 11921, 11930, 11929, 12253, 12254, 12263, 12262
  209132, 11921, 11922, 11931, 11930, 12254, 12255, 12264, 12263
  209133, 11922, 11923, 11932, 11931, 12255, 12256, 12265, 12264
  209134, 11923, 11924, 11933, 11932, 12256, 12257, 12266, 12265
  209135, 11924, 11925, 11934, 11933, 12257, 12258, 12267, 12266
  209136, 11926, 11927, 11936, 11935, 12259, 12260, 12269, 12268
  209137, 11927, 11928, 11937, 11936, 12260, 12261, 12270, 12269
  209138, 11928, 11929, 11938, 11937, 12261, 12262, 12271, 12270
  209139, 11929, 11930, 11939, 11938, 12262, 12263, 12272, 12271
  209140, 11930, 11931, 11940, 11939, 12263, 12264, 12273, 12272
  209141, 11931, 11932, 11941, 11940, 12264, 12265, 12274, 12273
  209142, 11932, 11933, 11942, 11941, 12265, 12266, 12275, 12274
  209143, 11933, 11934, 11943, 11942, 12266, 12267, 12276, 12275
  209144, 11935, 11936, 11945, 11944, 12268, 12269, 12278, 12277
  209145, 11936, 11937, 11946, 11945, 12269, 12270, 12279, 12278
  209146, 11937, 11938, 11947, 11946, 12270, 12271, 12280, 12279
  209147, 11938, 11939, 11948, 11947, 12271, 12272, 12281, 12280
  209148, 11939, 11940, 11949, 11948, 12272, 12273, 12282, 12281
  209149, 11940, 11941, 11950, 11949, 12273, 12274, 12283, 12282
  209150, 11941, 11942, 11951, 11950, 12274, 12275, 12284, 12283
  209151, 11942, 11943, 11952, 11951, 12275, 12276, 12285, 12284
  209152, 11944, 11945, 11954, 11953, 12277, 12278, 12287, 12286
  209153, 11945, 11946, 11955, 11954, 12278, 12279, 12288, 12287
  209154, 11946, 11947, 11956, 11955, 12279, 12280, 12289, 12288
  209155, 11947, 11948, 11957, 11956, 12280, 12281, 12290, 12289
  209156, 11948, 11949, 11958, 11957, 12281, 12282, 12291, 12290
  209157, 11949, 11950, 11959, 11958, 12282, 12283, 12292, 12291
  209158, 11950, 11951, 11960, 11959, 12283, 12284, 12293, 12292
  209159, 11951, 11952, 11961, 11960, 12284, 12285, 12294, 12293
  209160, 11953, 11954, 11963, 11962, 12286, 12287, 12296, 12295
  209161, 11954, 11955, 11964, 11963, 12287, 12288, 12297, 12296
  209162, 11955, 11956, 11965, 11964, 12288, 12289, 12298, 12297
  209163, 11956, 11957, 11966, 11965, 12289, 12290, 12299, 12298
  209164, 11957, 11958, 11967, 11966, 12290, 12291, 12300, 12299
  209165, 11958, 11959, 11968, 11967, 12291, 12292, 12301, 12300
  209166, 11959, 11960, 11969, 11968, 12292, 12293, 12302, 12301
  209167, 11960, 11961, 11970, 11969, 12293, 12294, 12303, 12302
  209168, 11962, 11963, 11972, 11971, 12295, 12296, 12305, 12304
  209169, 11963, 11964, 11973, 11972, 12296, 12297, 12306, 12305
  209170, 11964, 11965, 11974, 11973, 12297, 12298, 12307, 12306
  209171, 11965, 11966, 11975, 11974, 12298, 12299, 12308, 12307
  209172, 11966, 11967, 11976, 11975, 12299, 12300, 12309, 12308
  209173, 11967, 11968, 11977, 11976, 12300, 12301, 12310, 12309
  209174, 11968, 11969, 11978, 11977, 12301, 12302, 12311, 12310
  209175, 11969, 11970, 11979, 11978, 12302, 12303, 12312, 12311
  209176, 11971, 11972, 11981, 11980, 12304, 12305, 12314, 12313
  209177, 11972, 11973, 11982, 11981, 12305, 12306, 12315, 12314
  209178, 11973, 11974, 11983, 11982, 12306, 12307, 12316, 12315
  209179, 11974, 11975, 11984, 11983, 12307, 12308, 12317, 12316
  209180, 11975, 11976, 11985, 11984, 12308, 12309, 12318, 12317
  209181, 11976, 11977, 11986, 11985, 12309, 12310, 12319, 12318
  209182, 11977, 11978, 11987, 11986, 12310, 12311, 12320, 12319
  209183, 11978, 11979, 11988, 11987, 12311, 12312, 12321, 12320
  209184, 11980, 11981, 11990, 11989, 12313, 12314, 12323, 12322
  209185, 11981, 11982, 11991, 11990, 12314, 12315, 12324, 12323
  209186, 11982, 11983, 11992, 11991, 12315, 12316, 12325, 12324
  209187, 11983, 11984, 11993, 11992, 12316, 12317, 12326, 12325
  209188, 11984, 11985, 11994, 11993, 12317, 12318, 12327, 12326
  209189, 11985, 11986, 11995, 11994, 12318, 12319, 12328, 12327
  209190, 11986, 11987, 11996, 11995, 12319, 12320, 12329, 12328
  209191, 11987, 11988, 11997, 11996, 12320, 12321, 12330, 12329
  209192, 11989, 11990, 11999, 11998, 12322, 12323, 12332, 12331
  209193, 11990, 11991, 12000, 11999, 12323, 12324, 12333, 12332
  209194, 11991, 11992, 12001, 12000, 12324, 12325, 12334, 12333
  209195, 11992, 11993, 12002, 12001, 12325, 12326, 12335, 12334
  209196, 11993, 11994, 12003, 12002, 12326, 12327, 12336, 12335
  209197, 11994, 11995, 12004, 12003, 12327, 12328, 12337, 12336
  209198, 11995, 11996, 12005, 12004, 12328, 12329, 12338, 12337
  209199, 11996, 11997, 12006, 12005, 12329, 12330, 12339, 12338
  209200, 11998, 11999, 12008, 12007, 12331, 12332, 12341, 12340
  209201, 11999, 12000, 12009, 12008, 12332, 12333, 12342, 12341
  209202, 12000, 12001, 12010, 12009, 12333, 12334, 12343, 12342
  209203, 12001, 12002, 12011, 12010, 12334, 12335, 12344, 12343
  209204, 12002, 12003, 12012, 12011, 12335, 12336, 12345, 12344
  209205, 12003, 12004, 12013, 12012, 12336, 12337, 12346, 12345
  209206, 12004, 12005, 12014, 12013, 12337, 12338, 12347, 12346
  209207, 12005, 12006, 12015, 12014, 12338, 12339, 12348, 12347
  209208, 12007, 12008, 12017, 12016, 12340, 12341, 12350, 12349
  209209, 12008, 12009, 12018, 12017, 12341, 12342, 12351, 12350
  209210, 12009, 12010, 12019, 12018, 12342, 12343, 12352, 12351
  209211, 12010, 12011, 12020, 12019, 12343, 12344, 12353, 12352
  209212, 12011, 12012, 12021, 12020, 12344, 12345, 12354, 12353
  209213, 12012, 12013, 12022, 12021, 12345, 12346, 12355, 12354
  209214, 12013, 12014, 12023, 12022, 12346, 12347, 12356, 12355
  209215, 12014, 12015, 12024, 12023, 12347, 12348, 12357, 12356
*Nset, nset=WX0
  1369,
  1370,
  1371,
  1372,
  1373,
  1374,
  1375,
  1376,
  1377,
  1378,
  1379,
  1380,
  1381,
  1382,
  1383,
  1384,
  1385,
  1386,
  1387,
  1388,
  1389,
  1390,
  1391,
  1392,
  1393,
  1394,
  1395,
  1396,
  1397,
  1398,
  1399,
  1400,
  1401,
  1402,
  1403,
  1404,
  1405,
  1406,
  1407,
  1408,
  1409,
  1410,
  1411,
  1412,
  1413,
  1414,
  1415,
  1416,
  1417,
  1418,
  1419,
  1420,
  1421,
  1422,
  1423,
  1424,
  1425,
  1426,
  1427,
  1428,
  1429,
  1430,
  1431,
  1432,
  1433,
  1434,
  1435,
  1436,
  1437,
  1438,
  1439,
  1440,
  1441,
  1442,
  1443,
  1444,
  1445,
  1446,
  1447,
  1448,
  1449,
  1450,
  1451,
  1452,
  1453,
  1454,
  1455,
  1456,
  1457,
  1458,
  1459,
  1460,
  1461,
  1462,
  1463,
  1464,
  1465,
  1466,
  1467,
  1468,
  1469,
  1470,
  1471,
  1472,
  1473,
  1474,
  1475,
  1476,
  1477,
  1478,
  1479,
  1480,
  1481,
  1482,
  1483,
  1484,
  1485,
  1486,
  1487,
  1488,
  1489,
  1490,
  1491,
  1492,
  1493,
  1494,
  1495,
  1496,
  1497,
  1498,
  1499,
  1500,
  1501,
  1502,
  1503,
  1504,
  1505,
  1506,
  1507,
  1508,
  1509,
  1510,
  1511,
  1512,
  1513,
  1514,
  1515,
  1516,
  1517,
  1518,
  1519,
  1520,
  1521,
  1522,
  1523,
  1524,
  1525,
  1526,
  1527,
  1528,
  1529,
  1530,
  1531,
  1532,
  1533,
  1534,
  1535,
  1536,
  1537,
  1538,
  1539,
  1540,
  1541,
  1542,
  1543,
  1544,
  1545,
  1546,
  1547,
  1548,
  1549,
  1550,
  1551,
  1552,
  1553,
  1554,
  1555,
  1556,
  1557,
  1558,
  1559,
  1560,
  1561,
  1562,
  1563,
  1564,
  1565,
  1566,
  1567,
  1568,
  1569,
  1570,
  1571,
  1572,
  1573,
  1574,
  1575,
  1576,
  1577,
  1578,
  1579,
  1580,
  1581,
  1582,
  1583,
  1584,
  1585,
  1586,
  1587,
  1588,
  1589,
  1590,
  1591,
  1592,
  1593,
  1594,
  1595,
  1596,
  1597,
  1598,
  1599,
  1600,
  1601,
  1602,
  1603,
  1604,
  1605,
  1606,
  1607,
  1608,
  1609,
  1610,
  1611,
  1612,
  1613,
  1614,
  1615,
  1616,
  1617,
  1618,
  1619,
  1620,
  1621,
  1622,
  1623,
  1624,
  1625,
  1626,
  1627,
  1628,
  1629,
  1630,
  1631,
  1632,
  1633,
  1634,
  1635,
  1636,
  1637,
  1638,
  1639,
  1640,
  1641,
  1642,
  1643,
  1644,
  1645,
  1646,
  1647,
  1648,
  1649,
  1650,
  1651,
  1652,
  1653,
  1654,
  1655,
  1656,
  1657,
  1658,
  1659,
  1660,
  1661,
  1662,
  1663,
  1664,
  1665,
  1666,
  1667,
  1668,
  1669,
  1670,
  1671,
  1672,
  1673,
  1674,
  1675,
  1676,
  1677,
  1678,
  1679,
  1680,
  1681,
  1682,
  1683,
  1684,
  1685,
  1686,
  1687,
  1688,
  1689,
  1690,
  1691,
  1692,
  1693,
  1694,
  1695,
  1696,
  1697,
  1698,
  1699,
  1700,
  1701,
*Nset, nset=WXL
  12025,
  12026,
  12027,
  12028,
  12029,
  12030,
  12031,
  12032,
  12033,
  12034,
  12035,
  12036,
  12037,
  12038,
  12039,
  12040,
  12041,
  12042,
  12043,
  12044,
  12045,
  12046,
  12047,
  12048,
  12049,
  12050,
  12051,
  12052,
  12053,
  12054,
  12055,
  12056,
  12057,
  12058,
  12059,
  12060,
  12061,
  12062,
  12063,
  12064,
  12065,
  12066,
  12067,
  12068,
  12069,
  12070,
  12071,
  12072,
  12073,
  12074,
  12075,
  12076,
  12077,
  12078,
  12079,
  12080,
  12081,
  12082,
  12083,
  12084,
  12085,
  12086,
  12087,
  12088,
  12089,
  12090,
  12091,
  12092,
  12093,
  12094,
  12095,
  12096,
  12097,
  12098,
  12099,
  12100,
  12101,
  12102,
  12103,
  12104,
  12105,
  12106,
  12107,
  12108,
  12109,
  12110,
  12111,
  12112,
  12113,
  12114,
  12115,
  12116,
  12117,
  12118,
  12119,
  12120,
  12121,
  12122,
  12123,
  12124,
  12125,
  12126,
  12127,
  12128,
  12129,
  12130,
  12131,
  12132,
  12133,
  12134,
  12135,
  12136,
  12137,
  12138,
  12139,
  12140,
  12141,
  12142,
  12143,
  12144,
  12145,
  12146,
  12147,
  12148,
  12149,
  12150,
  12151,
  12152,
  12153,
  12154,
  12155,
  12156,
  12157,
  12158,
  12159,
  12160,
  12161,
  12162,
  12163,
  12164,
  12165,
  12166,
  12167,
  12168,
  12169,
  12170,
  12171,
  12172,
  12173,
  12174,
  12175,
  12176,
  12177,
  12178,
  12179,
  12180,
  12181,
  12182,
  12183,
  12184,
  12185,
  12186,
  12187,
  12188,
  12189,
  12190,
  12191,
  12192,
  12193,
  12194,
  12195,
  12196,
  12197,
  12198,
  12199,
  12200,
  12201,
  12202,
  12203,
  12204,
  12205,
  12206,
  12207,
  12208,
  12209,
  12210,
  12211,
  12212,
  12213,
  12214,
  12215,
  12216,
  12217,
  12218,
  12219,
  12220,
  12221,
  12222,
  12223,
  12224,
  12225,
  12226,
  12227,
  12228,
  12229,
  12230,
  12231,
  12232,
  12233,
  12234,
  12235,
  12236,
  12237,
  12238,
  12239,
  12240,
  12241,
  12242,
  12243,
  12244,
  12245,
  12246,
  12247,
  12248,
  12249,
  12250,
  12251,
  12252,
  12253,
  12254,
  12255,
  12256,
  12257,
  12258,
  12259,
  12260,
  12261,
  12262,
  12263,
  12264,
  12265,
  12266,
  12267,
  12268,
  12269,
  12270,
  12271,
  12272,
  12273,
  12274,
  12275,
  12276,
  12277,
  12278,
  12279,
  12280,
  12281,
  12282,
  12283,
  12284,
  12285,
  12286,
  12287,
  12288,
  12289,
  12290,
  12291,
  12292,
  12293,
  12294,
  12295,
  12296,
  12297,
  12298,
  12299,
  12300,
  12301,
  12302,
  12303,
  12304,
  12305,
  12306,
  12307,
  12308,
  12309,
  12310,
  12311,
  12312,
  12313,
  12314,
  12315,
  12316,
  12317,
  12318,
  12319,
  12320,
  12321,
  12322,
  12323,
  12324,
  12325,
  12326,
  12327,
  12328,
  12329,
  12330,
  12331,
  12332,
  12333,
  12334,
  12335,
  12336,
  12337,
  12338,
  12339,
  12340,
  12341,
  12342,
  12343,
  12344,
  12345,
  12346,
  12347,
  12348,
  12349,
  12350,
  12351,
  12352,
  12353,
  12354,
  12355,
  12356,
  12357,
*Solid Section, elset=WPALL, material=AISI_304
,
*End Part
*Assembly, name=Assembly
*Instance, name=BI, part=Belt
*End Instance
*Instance, name=WI, part=WP
*End Instance
*End Assembly
*Surface Interaction, name=GenProp
*Friction
  0.45,
*Surface Behavior, pressure-overclosure=HARD
,
*Contact
*Contact Inclusions, ALL EXTERIOR
*Contact Property Assignment
  ,  , GenProp
*Step, name=Pretension, nlgeom=YES, inc=2000, unsymm=YES
*Static, stabilize=0.0001
  0.01, 1.0, 1e-06, 0.1
*Boundary
  BI.BLEFT, 1, 3, 0.0
  BI.BLEFT, 4, 6, 0.0
  BI.BRIGHT, 2, 2, 0.41
  BI.BRIGHT, 1, 1, 0.0
  BI.BRIGHT, 3, 3, 0.0
  BI.BRIGHT, 4, 6, 0.0
  WI.WX0, 1, 3, 0.0
  WI.WXL, 1, 3, 0.0
*Output, field, frequency=1
*Node Output
U,RF
*Element Output
S,SF
*Contact Output
CSTRESS,CSTATUS
*End Step
*Step, name=FrameEngage, nlgeom=YES, inc=3000, unsymm=YES
*Static, stabilize=0.0001
  0.01, 1.0, 1e-06, 0.1
*Boundary, op=NEW
  BI.BLEFT, 1, 3, 0.0
  BI.BLEFT, 4, 6, 0.0
  BI.BRIGHT, 2, 2, 0.41
  BI.BRIGHT, 1, 1, 0.0
  BI.BRIGHT, 3, 3, -42.500000
  BI.BRIGHT, 4, 6, 0.0
  WI.WX0, 1, 3, 0.0
  WI.WXL, 1, 2, 0.0
*Output, field, frequency=1
*Node Output
U,RF
*Element Output
S,SF,PEEQ
*Contact Output
CSTRESS,CSTATUS
*End Step