*Heading
** V9 Cylindrical Workpiece O-grid Mesh
** D=26.0mm, L=160.0mm, C3D8R
** N_circumf=48, N_radial=6, N_axial=24
** Nodes=8575, Elements=6912
** Vol_error=3.2989%, Zero_vol=0
*Preprint, echo=NO, model=NO, history=NO, contact=NO
*Part, name=Workpiece
*Node
1, 0.000000, 2.000000, 0.000000
2, 0.000000, 4.398635, 0.000000
3, 0.000000, 6.323541, 0.000000
4, 0.000000, 8.102632, 0.000000
5, 0.000000, 9.793187, 0.000000
6, 0.000000, 11.420818, 0.000000
7, 0.000000, 13.000000, 0.000000
8, 0.000000, 2.000000, 0.263305
9, 0.000000, 4.374383, 0.575898
10, 0.000000, 6.279828, 0.826755
11, 0.000000, 8.040931, 1.058609
12, 0.000000, 9.714393, 1.278924
13, 0.000000, 11.325568, 1.491039
14, 0.000000, 12.888783, 1.696840
15, 0.000000, 2.000000, 0.535898
16, 0.000000, 4.302043, 1.152729
17, 0.000000, 6.149435, 1.647736
18, 0.000000, 7.856882, 2.105245
19, 0.000000, 9.479360, 2.539987
20, 0.000000, 11.041447, 2.958547
21, 0.000000, 12.557036, 3.364648
22, 0.000000, 2.000000, 0.828427
23, 0.000000, 4.182852, 1.732594
24, 0.000000, 5.934593, 2.458189
25, 0.000000, 7.553636, 3.128818
26, 0.000000, 9.092108, 3.766074
27, 0.000000, 10.573316, 4.379611
28, 0.000000, 12.010434, 4.974885
29, 0.000000, 2.000000, 1.154701
30, 0.000000, 4.018850, 2.320284
31, 0.000000, 5.638979, 3.255666
32, 0.000000, 7.136380, 4.120191
33, 0.000000, 8.559264, 4.941693
34, 0.000000, 9.929186, 5.732618
35, 0.000000, 11.258330, 6.500000
36, 0.000000, 2.000000, 1.534654
37, 0.000000, 3.812843, 2.925697
38, 0.000000, 5.267651, 4.042011
39, 0.000000, 6.612255, 5.073762
40, 0.000000, 7.889945, 6.054167
41, 0.000000, 9.120078, 6.998082
42, 0.000000, 10.313593, 7.913899
43, 0.000000, 2.000000, 2.000000
44, 0.000000, 3.568356, 3.568356
45, 0.000000, 4.826963, 4.826963
46, 0.000000, 5.990227, 5.990227
47, 0.000000, 7.095603, 7.095603
48, 0.000000, 8.159835, 8.159835
49, 0.000000, 9.192388, 9.192388
50, 0.000000, 1.534654, 2.000000
51, 0.000000, 2.925697, 3.812843
52, 0.000000, 4.042011, 5.267651
53, 0.000000, 5.073762, 6.612255
54, 0.000000, 6.054167, 7.889945
55, 0.000000, 6.998082, 9.120078
56, 0.000000, 7.913899, 10.313593
57, 0.000000, 1.154701, 2.000000
58, 0.000000, 2.320284, 4.018850
59, 0.000000, 3.255666, 5.638979
60, 0.000000, 4.120191, 7.136380
61, 0.000000, 4.941693, 8.559264
62, 0.000000, 5.732618, 9.929186
63, 0.000000, 6.500000, 11.258330
64, 0.000000, 0.828427, 2.000000
65, 0.000000, 1.732594, 4.182852
66, 0.000000, 2.458189, 5.934593
67, 0.000000, 3.128818, 7.553636
68, 0.000000, 3.766074, 9.092108
69, 0.000000, 4.379611, 10.573316
70, 0.000000, 4.974885, 12.010434
71, 0.000000, 0.535898, 2.000000
72, 0.000000, 1.152729, 4.302043
73, 0.000000, 1.647736, 6.149435
74, 0.000000, 2.105245, 7.856882
75, 0.000000, 2.539987, 9.479360
76, 0.000000, 2.958547, 11.041447
77, 0.000000, 3.364648, 12.557036
78, 0.000000, 0.263305, 2.000000
79, 0.000000, 0.575898, 4.374383
80, 0.000000, 0.826755, 6.279828
81, 0.000000, 1.058609, 8.040931
82, 0.000000, 1.278924, 9.714393
83, 0.000000, 1.491039, 11.325568
84, 0.000000, 1.696840, 12.888783
85, 0.000000, 0.000000, 2.000000
86, 0.000000, 0.000000, 4.398635
87, 0.000000, 0.000000, 6.323541
88, 0.000000, 0.000000, 8.102632
89, 0.000000, 0.000000, 9.793187
90, 0.000000, 0.000000, 11.420818
91, 0.000000, 0.000000, 13.000000
92, 0.000000, -0.263305, 2.000000
93, 0.000000, -0.575898, 4.374383
94, 0.000000, -0.826755, 6.279828
95, 0.000000, -1.058609, 8.040931
96, 0.000000, -1.278924, 9.714393
97, 0.000000, -1.491039, 11.325568
98, 0.000000, -1.696840, 12.888783
99, 0.000000, -0.535898, 2.000000
100, 0.000000, -1.152729, 4.302043
101, 0.000000, -1.647736, 6.149435
102, 0.000000, -2.105245, 7.856882
103, 0.000000, -2.539987, 9.479360
104, 0.000000, -2.958547, 11.041447
105, 0.000000, -3.364648, 12.557036
106, 0.000000, -0.828427, 2.000000
107, 0.000000, -1.732594, 4.182852
108, 0.000000, -2.458189, 5.934593
109, 0.000000, -3.128818, 7.553636
110, 0.000000, -3.766074, 9.092108
111, 0.000000, -4.379611, 10.573316
112, 0.000000, -4.974885, 12.010434
113, 0.000000, -1.154701, 2.000000
114, 0.000000, -2.320284, 4.018850
115, 0.000000, -3.255666, 5.638979
116, 0.000000, -4.120191, 7.136380
117, 0.000000, -4.941693, 8.559264
118, 0.000000, -5.732618, 9.929186
119, 0.000000, -6.500000, 11.258330
120, 0.000000, -1.534654, 2.000000
121, 0.000000, -2.925697, 3.812843
122, 0.000000, -4.042011, 5.267651
123, 0.000000, -5.073762, 6.612255
124, 0.000000, -6.054167, 7.889945
125, 0.000000, -6.998082, 9.120078
126, 0.000000, -7.913899, 10.313593
127, 0.000000, -2.000000, 2.000000
128, 0.000000, -3.568356, 3.568356
129, 0.000000, -4.826963, 4.826963
130, 0.000000, -5.990227, 5.990227
131, 0.000000, -7.095603, 7.095603
132, 0.000000, -8.159835, 8.159835
133, 0.000000, -9.192388, 9.192388
134, 0.000000, -2.000000, 1.534654
135, 0.000000, -3.812843, 2.925697
136, 0.000000, -5.267651, 4.042011
137, 0.000000, -6.612255, 5.073762
138, 0.000000, -7.889945, 6.054167
139, 0.000000, -9.120078, 6.998082
140, 0.000000, -10.313593, 7.913899
141, 0.000000, -2.000000, 1.154701
142, 0.000000, -4.018850, 2.320284
143, 0.000000, -5.638979, 3.255666
144, 0.000000, -7.136380, 4.120191
145, 0.000000, -8.559264, 4.941693
146, 0.000000, -9.929186, 5.732618
147, 0.000000, -11.258330, 6.500000
148, 0.000000, -2.000000, 0.828427
149, 0.000000, -4.182852, 1.732594
150, 0.000000, -5.934593, 2.458189
151, 0.000000, -7.553636, 3.128818
152, 0.000000, -9.092108, 3.766074
153, 0.000000, -10.573316, 4.379611
154, 0.000000, -12.010434, 4.974885
155, 0.000000, -2.000000, 0.535898
156, 0.000000, -4.302043, 1.152729
157, 0.000000, -6.149435, 1.647736
158, 0.000000, -7.856882, 2.105245
159, 0.000000, -9.479360, 2.539987
160, 0.000000, -11.041447, 2.958547
161, 0.000000, -12.557036, 3.364648
162, 0.000000, -2.000000, 0.263305
163, 0.000000, -4.374383, 0.575898
164, 0.000000, -6.279828, 0.826755
165, 0.000000, -8.040931, 1.058609
166, 0.000000, -9.714393, 1.278924
167, 0.000000, -11.325568, 1.491039
168, 0.000000, -12.888783, 1.696840
169, 0.000000, -2.000000, 0.000000
170, 0.000000, -4.398635, 0.000000
171, 0.000000, -6.323541, 0.000000
172, 0.000000, -8.102632, 0.000000
173, 0.000000, -9.793187, 0.000000
174, 0.000000, -11.420818, 0.000000
175, 0.000000, -13.000000, 0.000000
176, 0.000000, -2.000000, -0.263305
177, 0.000000, -4.374383, -0.575898
178, 0.000000, -6.279828, -0.826755
179, 0.000000, -8.040931, -1.058609
180, 0.000000, -9.714393, -1.278924
181, 0.000000, -11.325568, -1.491039
182, 0.000000, -12.888783, -1.696840
183, 0.000000, -2.000000, -0.535898
184, 0.000000, -4.302043, -1.152729
185, 0.000000, -6.149435, -1.647736
186, 0.000000, -7.856882, -2.105245
187, 0.000000, -9.479360, -2.539987
188, 0.000000, -11.041447, -2.958547
189, 0.000000, -12.557036, -3.364648
190, 0.000000, -2.000000, -0.828427
191, 0.000000, -4.182852, -1.732594
192, 0.000000, -5.934593, -2.458189
193, 0.000000, -7.553636, -3.128818
194, 0.000000, -9.092108, -3.766074
195, 0.000000, -10.573316, -4.379611
196, 0.000000, -12.010434, -4.974885
197, 0.000000, -2.000000, -1.154701
198, 0.000000, -4.018850, -2.320284
199, 0.000000, -5.638979, -3.255666
200, 0.000000, -7.136380, -4.120191
201, 0.000000, -8.559264, -4.941693
202, 0.000000, -9.929186, -5.732618
203, 0.000000, -11.258330, -6.500000
204, 0.000000, -2.000000, -1.534654
205, 0.000000, -3.812843, -2.925697
206, 0.000000, -5.267651, -4.042011
207, 0.000000, -6.612255, -5.073762
208, 0.000000, -7.889945, -6.054167
209, 0.000000, -9.120078, -6.998082
210, 0.000000, -10.313593, -7.913899
211, 0.000000, -2.000000, -2.000000
212, 0.000000, -3.568356, -3.568356
213, 0.000000, -4.826963, -4.826963
214, 0.000000, -5.990227, -5.990227
215, 0.000000, -7.095603, -7.095603
216, 0.000000, -8.159835, -8.159835
217, 0.000000, -9.192388, -9.192388
218, 0.000000, -1.534654, -2.000000
219, 0.000000, -2.925697, -3.812843
220, 0.000000, -4.042011, -5.267651
221, 0.000000, -5.073762, -6.612255
222, 0.000000, -6.054167, -7.889945
223, 0.000000, -6.998082, -9.120078
224, 0.000000, -7.913899, -10.313593
225, 0.000000, -1.154701, -2.000000
226, 0.000000, -2.320284, -4.018850
227, 0.000000, -3.255666, -5.638979
228, 0.000000, -4.120191, -7.136380
229, 0.000000, -4.941693, -8.559264
230, 0.000000, -5.732618, -9.929186
231, 0.000000, -6.500000, -11.258330
232, 0.000000, -0.828427, -2.000000
233, 0.000000, -1.732594, -4.182852
234, 0.000000, -2.458189, -5.934593
235, 0.000000, -3.128818, -7.553636
236, 0.000000, -3.766074, -9.092108
237, 0.000000, -4.379611, -10.573316
238, 0.000000, -4.974885, -12.010434
239, 0.000000, -0.535898, -2.000000
240, 0.000000, -1.152729, -4.302043
241, 0.000000, -1.647736, -6.149435
242, 0.000000, -2.105245, -7.856882
243, 0.000000, -2.539987, -9.479360
244, 0.000000, -2.958547, -11.041447
245, 0.000000, -3.364648, -12.557036
246, 0.000000, -0.263305, -2.000000
247, 0.000000, -0.575898, -4.374383
248, 0.000000, -0.826755, -6.279828
249, 0.000000, -1.058609, -8.040931
250, 0.000000, -1.278924, -9.714393
251, 0.000000, -1.491039, -11.325568
252, 0.000000, -1.696840, -12.888783
253, 0.000000, -0.000000, -2.000000
254, 0.000000, -0.000000, -4.398635
255, 0.000000, -0.000000, -6.323541
256, 0.000000, -0.000000, -8.102632
257, 0.000000, -0.000000, -9.793187
258, 0.000000, -0.000000, -11.420818
259, 0.000000, -0.000000, -13.000000
260, 0.000000, 0.263305, -2.000000
261, 0.000000, 0.575898, -4.374383
262, 0.000000, 0.826755, -6.279828
263, 0.000000, 1.058609, -8.040931
264, 0.000000, 1.278924, -9.714393
265, 0.000000, 1.491039, -11.325568
266, 0.000000, 1.696840, -12.888783
267, 0.000000, 0.535898, -2.000000
268, 0.000000, 1.152729, -4.302043
269, 0.000000, 1.647736, -6.149435
270, 0.000000, 2.105245, -7.856882
271, 0.000000, 2.539987, -9.479360
272, 0.000000, 2.958547, -11.041447
273, 0.000000, 3.364648, -12.557036
274, 0.000000, 0.828427, -2.000000
275, 0.000000, 1.732594, -4.182852
276, 0.000000, 2.458189, -5.934593
277, 0.000000, 3.128818, -7.553636
278, 0.000000, 3.766074, -9.092108
279, 0.000000, 4.379611, -10.573316
280, 0.000000, 4.974885, -12.010434
281, 0.000000, 1.154701, -2.000000
282, 0.000000, 2.320284, -4.018850
283, 0.000000, 3.255666, -5.638979
284, 0.000000, 4.120191, -7.136380
285, 0.000000, 4.941693, -8.559264
286, 0.000000, 5.732618, -9.929186
287, 0.000000, 6.500000, -11.258330
288, 0.000000, 1.534654, -2.000000
289, 0.000000, 2.925697, -3.812843
290, 0.000000, 4.042011, -5.267651
291, 0.000000, 5.073762, -6.612255
292, 0.000000, 6.054167, -7.889945
293, 0.000000, 6.998082, -9.120078
294, 0.000000, 7.913899, -10.313593
295, 0.000000, 2.000000, -2.000000
296, 0.000000, 3.568356, -3.568356
297, 0.000000, 4.826963, -4.826963
298, 0.000000, 5.990227, -5.990227
299, 0.000000, 7.095603, -7.095603
300, 0.000000, 8.159835, -8.159835
301, 0.000000, 9.192388, -9.192388
302, 0.000000, 2.000000, -1.534654
303, 0.000000, 3.812843, -2.925697
304, 0.000000, 5.267651, -4.042011
305, 0.000000, 6.612255, -5.073762
306, 0.000000, 7.889945, -6.054167
307, 0.000000, 9.120078, -6.998082
308, 0.000000, 10.313593, -7.913899
309, 0.000000, 2.000000, -1.154701
310, 0.000000, 4.018850, -2.320284
311, 0.000000, 5.638979, -3.255666
312, 0.000000, 7.136380, -4.120191
313, 0.000000, 8.559264, -4.941693
314, 0.000000, 9.929186, -5.732618
315, 0.000000, 11.258330, -6.500000
316, 0.000000, 2.000000, -0.828427
317, 0.000000, 4.182852, -1.732594
318, 0.000000, 5.934593, -2.458189
319, 0.000000, 7.553636, -3.128818
320, 0.000000, 9.092108, -3.766074
321, 0.000000, 10.573316, -4.379611
322, 0.000000, 12.010434, -4.974885
323, 0.000000, 2.000000, -0.535898
324, 0.000000, 4.302043, -1.152729
325, 0.000000, 6.149435, -1.647736
326, 0.000000, 7.856882, -2.105245
327, 0.000000, 9.479360, -2.539987
328, 0.000000, 11.041447, -2.958547
329, 0.000000, 12.557036, -3.364648
330, 0.000000, 2.000000, -0.263305
331, 0.000000, 4.374383, -0.575898
332, 0.000000, 6.279828, -0.826755
333, 0.000000, 8.040931, -1.058609
334, 0.000000, 9.714393, -1.278924
335, 0.000000, 11.325568, -1.491039
336, 0.000000, 12.888783, -1.696840
337, 0.000000, 2.000000, -0.000000
338, 0.000000, 4.398635, -0.000000
339, 0.000000, 6.323541, -0.000000
340, 0.000000, 8.102632, -0.000000
341, 0.000000, 9.793187, -0.000000
342, 0.000000, 11.420818, -0.000000
343, 0.000000, 13.000000, -0.000000
344, 6.666667, 2.000000, 0.000000
345, 6.666667, 4.398635, 0.000000
346, 6.666667, 6.323541, 0.000000
347, 6.666667, 8.102632, 0.000000
348, 6.666667, 9.793187, 0.000000
349, 6.666667, 11.420818, 0.000000
350, 6.666667, 13.000000, 0.000000
351, 6.666667, 2.000000, 0.263305
352, 6.666667, 4.374383, 0.575898
353, 6.666667, 6.279828, 0.826755
354, 6.666667, 8.040931, 1.058609
355, 6.666667, 9.714393, 1.278924
356, 6.666667, 11.325568, 1.491039
357, 6.666667, 12.888783, 1.696840
358, 6.666667, 2.000000, 0.535898
359, 6.666667, 4.302043, 1.152729
360, 6.666667, 6.149435, 1.647736
361, 6.666667, 7.856882, 2.105245
362, 6.666667, 9.479360, 2.539987
363, 6.666667, 11.041447, 2.958547
364, 6.666667, 12.557036, 3.364648
365, 6.666667, 2.000000, 0.828427
366, 6.666667, 4.182852, 1.732594
367, 6.666667, 5.934593, 2.458189
368, 6.666667, 7.553636, 3.128818
369, 6.666667, 9.092108, 3.766074
370, 6.666667, 10.573316, 4.379611
371, 6.666667, 12.010434, 4.974885
372, 6.666667, 2.000000, 1.154701
373, 6.666667, 4.018850, 2.320284
374, 6.666667, 5.638979, 3.255666
375, 6.666667, 7.136380, 4.120191
376, 6.666667, 8.559264, 4.941693
377, 6.666667, 9.929186, 5.732618
378, 6.666667, 11.258330, 6.500000
379, 6.666667, 2.000000, 1.534654
380, 6.666667, 3.812843, 2.925697
381, 6.666667, 5.267651, 4.042011
382, 6.666667, 6.612255, 5.073762
383, 6.666667, 7.889945, 6.054167
384, 6.666667, 9.120078, 6.998082
385, 6.666667, 10.313593, 7.913899
386, 6.666667, 2.000000, 2.000000
387, 6.666667, 3.568356, 3.568356
388, 6.666667, 4.826963, 4.826963
389, 6.666667, 5.990227, 5.990227
390, 6.666667, 7.095603, 7.095603
391, 6.666667, 8.159835, 8.159835
392, 6.666667, 9.192388, 9.192388
393, 6.666667, 1.534654, 2.000000
394, 6.666667, 2.925697, 3.812843
395, 6.666667, 4.042011, 5.267651
396, 6.666667, 5.073762, 6.612255
397, 6.666667, 6.054167, 7.889945
398, 6.666667, 6.998082, 9.120078
399, 6.666667, 7.913899, 10.313593
400, 6.666667, 1.154701, 2.000000
401, 6.666667, 2.320284, 4.018850
402, 6.666667, 3.255666, 5.638979
403, 6.666667, 4.120191, 7.136380
404, 6.666667, 4.941693, 8.559264
405, 6.666667, 5.732618, 9.929186
406, 6.666667, 6.500000, 11.258330
407, 6.666667, 0.828427, 2.000000
408, 6.666667, 1.732594, 4.182852
409, 6.666667, 2.458189, 5.934593
410, 6.666667, 3.128818, 7.553636
411, 6.666667, 3.766074, 9.092108
412, 6.666667, 4.379611, 10.573316
413, 6.666667, 4.974885, 12.010434
414, 6.666667, 0.535898, 2.000000
415, 6.666667, 1.152729, 4.302043
416, 6.666667, 1.647736, 6.149435
417, 6.666667, 2.105245, 7.856882
418, 6.666667, 2.539987, 9.479360
419, 6.666667, 2.958547, 11.041447
420, 6.666667, 3.364648, 12.557036
421, 6.666667, 0.263305, 2.000000
422, 6.666667, 0.575898, 4.374383
423, 6.666667, 0.826755, 6.279828
424, 6.666667, 1.058609, 8.040931
425, 6.666667, 1.278924, 9.714393
426, 6.666667, 1.491039, 11.325568
427, 6.666667, 1.696840, 12.888783
428, 6.666667, 0.000000, 2.000000
429, 6.666667, 0.000000, 4.398635
430, 6.666667, 0.000000, 6.323541
431, 6.666667, 0.000000, 8.102632
432, 6.666667, 0.000000, 9.793187
433, 6.666667, 0.000000, 11.420818
434, 6.666667, 0.000000, 13.000000
435, 6.666667, -0.263305, 2.000000
436, 6.666667, -0.575898, 4.374383
437, 6.666667, -0.826755, 6.279828
438, 6.666667, -1.058609, 8.040931
439, 6.666667, -1.278924, 9.714393
440, 6.666667, -1.491039, 11.325568
441, 6.666667, -1.696840, 12.888783
442, 6.666667, -0.535898, 2.000000
443, 6.666667, -1.152729, 4.302043
444, 6.666667, -1.647736, 6.149435
445, 6.666667, -2.105245, 7.856882
446, 6.666667, -2.539987, 9.479360
447, 6.666667, -2.958547, 11.041447
448, 6.666667, -3.364648, 12.557036
449, 6.666667, -0.828427, 2.000000
450, 6.666667, -1.732594, 4.182852
451, 6.666667, -2.458189, 5.934593
452, 6.666667, -3.128818, 7.553636
453, 6.666667, -3.766074, 9.092108
454, 6.666667, -4.379611, 10.573316
455, 6.666667, -4.974885, 12.010434
456, 6.666667, -1.154701, 2.000000
457, 6.666667, -2.320284, 4.018850
458, 6.666667, -3.255666, 5.638979
459, 6.666667, -4.120191, 7.136380
460, 6.666667, -4.941693, 8.559264
461, 6.666667, -5.732618, 9.929186
462, 6.666667, -6.500000, 11.258330
463, 6.666667, -1.534654, 2.000000
464, 6.666667, -2.925697, 3.812843
465, 6.666667, -4.042011, 5.267651
466, 6.666667, -5.073762, 6.612255
467, 6.666667, -6.054167, 7.889945
468, 6.666667, -6.998082, 9.120078
469, 6.666667, -7.913899, 10.313593
470, 6.666667, -2.000000, 2.000000
471, 6.666667, -3.568356, 3.568356
472, 6.666667, -4.826963, 4.826963
473, 6.666667, -5.990227, 5.990227
474, 6.666667, -7.095603, 7.095603
475, 6.666667, -8.159835, 8.159835
476, 6.666667, -9.192388, 9.192388
477, 6.666667, -2.000000, 1.534654
478, 6.666667, -3.812843, 2.925697
479, 6.666667, -5.267651, 4.042011
480, 6.666667, -6.612255, 5.073762
481, 6.666667, -7.889945, 6.054167
482, 6.666667, -9.120078, 6.998082
483, 6.666667, -10.313593, 7.913899
484, 6.666667, -2.000000, 1.154701
485, 6.666667, -4.018850, 2.320284
486, 6.666667, -5.638979, 3.255666
487, 6.666667, -7.136380, 4.120191
488, 6.666667, -8.559264, 4.941693
489, 6.666667, -9.929186, 5.732618
490, 6.666667, -11.258330, 6.500000
491, 6.666667, -2.000000, 0.828427
492, 6.666667, -4.182852, 1.732594
493, 6.666667, -5.934593, 2.458189
494, 6.666667, -7.553636, 3.128818
495, 6.666667, -9.092108, 3.766074
496, 6.666667, -10.573316, 4.379611
497, 6.666667, -12.010434, 4.974885
498, 6.666667, -2.000000, 0.535898
499, 6.666667, -4.302043, 1.152729
500, 6.666667, -6.149435, 1.647736
501, 6.666667, -7.856882, 2.105245
502, 6.666667, -9.479360, 2.539987
503, 6.666667, -11.041447, 2.958547
504, 6.666667, -12.557036, 3.364648
505, 6.666667, -2.000000, 0.263305
506, 6.666667, -4.374383, 0.575898
507, 6.666667, -6.279828, 0.826755
508, 6.666667, -8.040931, 1.058609
509, 6.666667, -9.714393, 1.278924
510, 6.666667, -11.325568, 1.491039
511, 6.666667, -12.888783, 1.696840
512, 6.666667, -2.000000, 0.000000
513, 6.666667, -4.398635, 0.000000
514, 6.666667, -6.323541, 0.000000
515, 6.666667, -8.102632, 0.000000
516, 6.666667, -9.793187, 0.000000
517, 6.666667, -11.420818, 0.000000
518, 6.666667, -13.000000, 0.000000
519, 6.666667, -2.000000, -0.263305
520, 6.666667, -4.374383, -0.575898
521, 6.666667, -6.279828, -0.826755
522, 6.666667, -8.040931, -1.058609
523, 6.666667, -9.714393, -1.278924
524, 6.666667, -11.325568, -1.491039
525, 6.666667, -12.888783, -1.696840
526, 6.666667, -2.000000, -0.535898
527, 6.666667, -4.302043, -1.152729
528, 6.666667, -6.149435, -1.647736
529, 6.666667, -7.856882, -2.105245
530, 6.666667, -9.479360, -2.539987
531, 6.666667, -11.041447, -2.958547
532, 6.666667, -12.557036, -3.364648
533, 6.666667, -2.000000, -0.828427
534, 6.666667, -4.182852, -1.732594
535, 6.666667, -5.934593, -2.458189
536, 6.666667, -7.553636, -3.128818
537, 6.666667, -9.092108, -3.766074
538, 6.666667, -10.573316, -4.379611
539, 6.666667, -12.010434, -4.974885
540, 6.666667, -2.000000, -1.154701
541, 6.666667, -4.018850, -2.320284
542, 6.666667, -5.638979, -3.255666
543, 6.666667, -7.136380, -4.120191
544, 6.666667, -8.559264, -4.941693
545, 6.666667, -9.929186, -5.732618
546, 6.666667, -11.258330, -6.500000
547, 6.666667, -2.000000, -1.534654
548, 6.666667, -3.812843, -2.925697
549, 6.666667, -5.267651, -4.042011
550, 6.666667, -6.612255, -5.073762
551, 6.666667, -7.889945, -6.054167
552, 6.666667, -9.120078, -6.998082
553, 6.666667, -10.313593, -7.913899
554, 6.666667, -2.000000, -2.000000
555, 6.666667, -3.568356, -3.568356
556, 6.666667, -4.826963, -4.826963
557, 6.666667, -5.990227, -5.990227
558, 6.666667, -7.095603, -7.095603
559, 6.666667, -8.159835, -8.159835
560, 6.666667, -9.192388, -9.192388
561, 6.666667, -1.534654, -2.000000
562, 6.666667, -2.925697, -3.812843
563, 6.666667, -4.042011, -5.267651
564, 6.666667, -5.073762, -6.612255
565, 6.666667, -6.054167, -7.889945
566, 6.666667, -6.998082, -9.120078
567, 6.666667, -7.913899, -10.313593
568, 6.666667, -1.154701, -2.000000
569, 6.666667, -2.320284, -4.018850
570, 6.666667, -3.255666, -5.638979
571, 6.666667, -4.120191, -7.136380
572, 6.666667, -4.941693, -8.559264
573, 6.666667, -5.732618, -9.929186
574, 6.666667, -6.500000, -11.258330
575, 6.666667, -0.828427, -2.000000
576, 6.666667, -1.732594, -4.182852
577, 6.666667, -2.458189, -5.934593
578, 6.666667, -3.128818, -7.553636
579, 6.666667, -3.766074, -9.092108
580, 6.666667, -4.379611, -10.573316
581, 6.666667, -4.974885, -12.010434
582, 6.666667, -0.535898, -2.000000
583, 6.666667, -1.152729, -4.302043
584, 6.666667, -1.647736, -6.149435
585, 6.666667, -2.105245, -7.856882
586, 6.666667, -2.539987, -9.479360
587, 6.666667, -2.958547, -11.041447
588, 6.666667, -3.364648, -12.557036
589, 6.666667, -0.263305, -2.000000
590, 6.666667, -0.575898, -4.374383
591, 6.666667, -0.826755, -6.279828
592, 6.666667, -1.058609, -8.040931
593, 6.666667, -1.278924, -9.714393
594, 6.666667, -1.491039, -11.325568
595, 6.666667, -1.696840, -12.888783
596, 6.666667, -0.000000, -2.000000
597, 6.666667, -0.000000, -4.398635
598, 6.666667, -0.000000, -6.323541
599, 6.666667, -0.000000, -8.102632
600, 6.666667, -0.000000, -9.793187
601, 6.666667, -0.000000, -11.420818
602, 6.666667, -0.000000, -13.000000
603, 6.666667, 0.263305, -2.000000
604, 6.666667, 0.575898, -4.374383
605, 6.666667, 0.826755, -6.279828
606, 6.666667, 1.058609, -8.040931
607, 6.666667, 1.278924, -9.714393
608, 6.666667, 1.491039, -11.325568
609, 6.666667, 1.696840, -12.888783
610, 6.666667, 0.535898, -2.000000
611, 6.666667, 1.152729, -4.302043
612, 6.666667, 1.647736, -6.149435
613, 6.666667, 2.105245, -7.856882
614, 6.666667, 2.539987, -9.479360
615, 6.666667, 2.958547, -11.041447
616, 6.666667, 3.364648, -12.557036
617, 6.666667, 0.828427, -2.000000
618, 6.666667, 1.732594, -4.182852
619, 6.666667, 2.458189, -5.934593
620, 6.666667, 3.128818, -7.553636
621, 6.666667, 3.766074, -9.092108
622, 6.666667, 4.379611, -10.573316
623, 6.666667, 4.974885, -12.010434
624, 6.666667, 1.154701, -2.000000
625, 6.666667, 2.320284, -4.018850
626, 6.666667, 3.255666, -5.638979
627, 6.666667, 4.120191, -7.136380
628, 6.666667, 4.941693, -8.559264
629, 6.666667, 5.732618, -9.929186
630, 6.666667, 6.500000, -11.258330
631, 6.666667, 1.534654, -2.000000
632, 6.666667, 2.925697, -3.812843
633, 6.666667, 4.042011, -5.267651
634, 6.666667, 5.073762, -6.612255
635, 6.666667, 6.054167, -7.889945
636, 6.666667, 6.998082, -9.120078
637, 6.666667, 7.913899, -10.313593
638, 6.666667, 2.000000, -2.000000
639, 6.666667, 3.568356, -3.568356
640, 6.666667, 4.826963, -4.826963
641, 6.666667, 5.990227, -5.990227
642, 6.666667, 7.095603, -7.095603
643, 6.666667, 8.159835, -8.159835
644, 6.666667, 9.192388, -9.192388
645, 6.666667, 2.000000, -1.534654
646, 6.666667, 3.812843, -2.925697
647, 6.666667, 5.267651, -4.042011
648, 6.666667, 6.612255, -5.073762
649, 6.666667, 7.889945, -6.054167
650, 6.666667, 9.120078, -6.998082
651, 6.666667, 10.313593, -7.913899
652, 6.666667, 2.000000, -1.154701
653, 6.666667, 4.018850, -2.320284
654, 6.666667, 5.638979, -3.255666
655, 6.666667, 7.136380, -4.120191
656, 6.666667, 8.559264, -4.941693
657, 6.666667, 9.929186, -5.732618
658, 6.666667, 11.258330, -6.500000
659, 6.666667, 2.000000, -0.828427
660, 6.666667, 4.182852, -1.732594
661, 6.666667, 5.934593, -2.458189
662, 6.666667, 7.553636, -3.128818
663, 6.666667, 9.092108, -3.766074
664, 6.666667, 10.573316, -4.379611
665, 6.666667, 12.010434, -4.974885
666, 6.666667, 2.000000, -0.535898
667, 6.666667, 4.302043, -1.152729
668, 6.666667, 6.149435, -1.647736
669, 6.666667, 7.856882, -2.105245
670, 6.666667, 9.479360, -2.539987
671, 6.666667, 11.041447, -2.958547
672, 6.666667, 12.557036, -3.364648
673, 6.666667, 2.000000, -0.263305
674, 6.666667, 4.374383, -0.575898
675, 6.666667, 6.279828, -0.826755
676, 6.666667, 8.040931, -1.058609
677, 6.666667, 9.714393, -1.278924
678, 6.666667, 11.325568, -1.491039
679, 6.666667, 12.888783, -1.696840
680, 6.666667, 2.000000, -0.000000
681, 6.666667, 4.398635, -0.000000
682, 6.666667, 6.323541, -0.000000
683, 6.666667, 8.102632, -0.000000
684, 6.666667, 9.793187, -0.000000
685, 6.666667, 11.420818, -0.000000
686, 6.666667, 13.000000, -0.000000
687, 13.333333, 2.000000, 0.000000
688, 13.333333, 4.398635, 0.000000
689, 13.333333, 6.323541, 0.000000
690, 13.333333, 8.102632, 0.000000
691, 13.333333, 9.793187, 0.000000
692, 13.333333, 11.420818, 0.000000
693, 13.333333, 13.000000, 0.000000
694, 13.333333, 2.000000, 0.263305
695, 13.333333, 4.374383, 0.575898
696, 13.333333, 6.279828, 0.826755
697, 13.333333, 8.040931, 1.058609
698, 13.333333, 9.714393, 1.278924
699, 13.333333, 11.325568, 1.491039
700, 13.333333, 12.888783, 1.696840
701, 13.333333, 2.000000, 0.535898
702, 13.333333, 4.302043, 1.152729
703, 13.333333, 6.149435, 1.647736
704, 13.333333, 7.856882, 2.105245
705, 13.333333, 9.479360, 2.539987
706, 13.333333, 11.041447, 2.958547
707, 13.333333, 12.557036, 3.364648
708, 13.333333, 2.000000, 0.828427
709, 13.333333, 4.182852, 1.732594
710, 13.333333, 5.934593, 2.458189
711, 13.333333, 7.553636, 3.128818
712, 13.333333, 9.092108, 3.766074
713, 13.333333, 10.573316, 4.379611
714, 13.333333, 12.010434, 4.974885
715, 13.333333, 2.000000, 1.154701
716, 13.333333, 4.018850, 2.320284
717, 13.333333, 5.638979, 3.255666
718, 13.333333, 7.136380, 4.120191
719, 13.333333, 8.559264, 4.941693
720, 13.333333, 9.929186, 5.732618
721, 13.333333, 11.258330, 6.500000
722, 13.333333, 2.000000, 1.534654
723, 13.333333, 3.812843, 2.925697
724, 13.333333, 5.267651, 4.042011
725, 13.333333, 6.612255, 5.073762
726, 13.333333, 7.889945, 6.054167
727, 13.333333, 9.120078, 6.998082
728, 13.333333, 10.313593, 7.913899
729, 13.333333, 2.000000, 2.000000
730, 13.333333, 3.568356, 3.568356
731, 13.333333, 4.826963, 4.826963
732, 13.333333, 5.990227, 5.990227
733, 13.333333, 7.095603, 7.095603
734, 13.333333, 8.159835, 8.159835
735, 13.333333, 9.192388, 9.192388
736, 13.333333, 1.534654, 2.000000
737, 13.333333, 2.925697, 3.812843
738, 13.333333, 4.042011, 5.267651
739, 13.333333, 5.073762, 6.612255
740, 13.333333, 6.054167, 7.889945
741, 13.333333, 6.998082, 9.120078
742, 13.333333, 7.913899, 10.313593
743, 13.333333, 1.154701, 2.000000
744, 13.333333, 2.320284, 4.018850
745, 13.333333, 3.255666, 5.638979
746, 13.333333, 4.120191, 7.136380
747, 13.333333, 4.941693, 8.559264
748, 13.333333, 5.732618, 9.929186
749, 13.333333, 6.500000, 11.258330
750, 13.333333, 0.828427, 2.000000
751, 13.333333, 1.732594, 4.182852
752, 13.333333, 2.458189, 5.934593
753, 13.333333, 3.128818, 7.553636
754, 13.333333, 3.766074, 9.092108
755, 13.333333, 4.379611, 10.573316
756, 13.333333, 4.974885, 12.010434
757, 13.333333, 0.535898, 2.000000
758, 13.333333, 1.152729, 4.302043
759, 13.333333, 1.647736, 6.149435
760, 13.333333, 2.105245, 7.856882
761, 13.333333, 2.539987, 9.479360
762, 13.333333, 2.958547, 11.041447
763, 13.333333, 3.364648, 12.557036
764, 13.333333, 0.263305, 2.000000
765, 13.333333, 0.575898, 4.374383
766, 13.333333, 0.826755, 6.279828
767, 13.333333, 1.058609, 8.040931
768, 13.333333, 1.278924, 9.714393
769, 13.333333, 1.491039, 11.325568
770, 13.333333, 1.696840, 12.888783
771, 13.333333, 0.000000, 2.000000
772, 13.333333, 0.000000, 4.398635
773, 13.333333, 0.000000, 6.323541
774, 13.333333, 0.000000, 8.102632
775, 13.333333, 0.000000, 9.793187
776, 13.333333, 0.000000, 11.420818
777, 13.333333, 0.000000, 13.000000
778, 13.333333, -0.263305, 2.000000
779, 13.333333, -0.575898, 4.374383
780, 13.333333, -0.826755, 6.279828
781, 13.333333, -1.058609, 8.040931
782, 13.333333, -1.278924, 9.714393
783, 13.333333, -1.491039, 11.325568
784, 13.333333, -1.696840, 12.888783
785, 13.333333, -0.535898, 2.000000
786, 13.333333, -1.152729, 4.302043
787, 13.333333, -1.647736, 6.149435
788, 13.333333, -2.105245, 7.856882
789, 13.333333, -2.539987, 9.479360
790, 13.333333, -2.958547, 11.041447
791, 13.333333, -3.364648, 12.557036
792, 13.333333, -0.828427, 2.000000
793, 13.333333, -1.732594, 4.182852
794, 13.333333, -2.458189, 5.934593
795, 13.333333, -3.128818, 7.553636
796, 13.333333, -3.766074, 9.092108
797, 13.333333, -4.379611, 10.573316
798, 13.333333, -4.974885, 12.010434
799, 13.333333, -1.154701, 2.000000
800, 13.333333, -2.320284, 4.018850
801, 13.333333, -3.255666, 5.638979
802, 13.333333, -4.120191, 7.136380
803, 13.333333, -4.941693, 8.559264
804, 13.333333, -5.732618, 9.929186
805, 13.333333, -6.500000, 11.258330
806, 13.333333, -1.534654, 2.000000
807, 13.333333, -2.925697, 3.812843
808, 13.333333, -4.042011, 5.267651
809, 13.333333, -5.073762, 6.612255
810, 13.333333, -6.054167, 7.889945
811, 13.333333, -6.998082, 9.120078
812, 13.333333, -7.913899, 10.313593
813, 13.333333, -2.000000, 2.000000
814, 13.333333, -3.568356, 3.568356
815, 13.333333, -4.826963, 4.826963
816, 13.333333, -5.990227, 5.990227
817, 13.333333, -7.095603, 7.095603
818, 13.333333, -8.159835, 8.159835
819, 13.333333, -9.192388, 9.192388
820, 13.333333, -2.000000, 1.534654
821, 13.333333, -3.812843, 2.925697
822, 13.333333, -5.267651, 4.042011
823, 13.333333, -6.612255, 5.073762
824, 13.333333, -7.889945, 6.054167
825, 13.333333, -9.120078, 6.998082
826, 13.333333, -10.313593, 7.913899
827, 13.333333, -2.000000, 1.154701
828, 13.333333, -4.018850, 2.320284
829, 13.333333, -5.638979, 3.255666
830, 13.333333, -7.136380, 4.120191
831, 13.333333, -8.559264, 4.941693
832, 13.333333, -9.929186, 5.732618
833, 13.333333, -11.258330, 6.500000
834, 13.333333, -2.000000, 0.828427
835, 13.333333, -4.182852, 1.732594
836, 13.333333, -5.934593, 2.458189
837, 13.333333, -7.553636, 3.128818
838, 13.333333, -9.092108, 3.766074
839, 13.333333, -10.573316, 4.379611
840, 13.333333, -12.010434, 4.974885
841, 13.333333, -2.000000, 0.535898
842, 13.333333, -4.302043, 1.152729
843, 13.333333, -6.149435, 1.647736
844, 13.333333, -7.856882, 2.105245
845, 13.333333, -9.479360, 2.539987
846, 13.333333, -11.041447, 2.958547
847, 13.333333, -12.557036, 3.364648
848, 13.333333, -2.000000, 0.263305
849, 13.333333, -4.374383, 0.575898
850, 13.333333, -6.279828, 0.826755
851, 13.333333, -8.040931, 1.058609
852, 13.333333, -9.714393, 1.278924
853, 13.333333, -11.325568, 1.491039
854, 13.333333, -12.888783, 1.696840
855, 13.333333, -2.000000, 0.000000
856, 13.333333, -4.398635, 0.000000
857, 13.333333, -6.323541, 0.000000
858, 13.333333, -8.102632, 0.000000
859, 13.333333, -9.793187, 0.000000
860, 13.333333, -11.420818, 0.000000
861, 13.333333, -13.000000, 0.000000
862, 13.333333, -2.000000, -0.263305
863, 13.333333, -4.374383, -0.575898
864, 13.333333, -6.279828, -0.826755
865, 13.333333, -8.040931, -1.058609
866, 13.333333, -9.714393, -1.278924
867, 13.333333, -11.325568, -1.491039
868, 13.333333, -12.888783, -1.696840
869, 13.333333, -2.000000, -0.535898
870, 13.333333, -4.302043, -1.152729
871, 13.333333, -6.149435, -1.647736
872, 13.333333, -7.856882, -2.105245
873, 13.333333, -9.479360, -2.539987
874, 13.333333, -11.041447, -2.958547
875, 13.333333, -12.557036, -3.364648
876, 13.333333, -2.000000, -0.828427
877, 13.333333, -4.182852, -1.732594
878, 13.333333, -5.934593, -2.458189
879, 13.333333, -7.553636, -3.128818
880, 13.333333, -9.092108, -3.766074
881, 13.333333, -10.573316, -4.379611
882, 13.333333, -12.010434, -4.974885
883, 13.333333, -2.000000, -1.154701
884, 13.333333, -4.018850, -2.320284
885, 13.333333, -5.638979, -3.255666
886, 13.333333, -7.136380, -4.120191
887, 13.333333, -8.559264, -4.941693
888, 13.333333, -9.929186, -5.732618
889, 13.333333, -11.258330, -6.500000
890, 13.333333, -2.000000, -1.534654
891, 13.333333, -3.812843, -2.925697
892, 13.333333, -5.267651, -4.042011
893, 13.333333, -6.612255, -5.073762
894, 13.333333, -7.889945, -6.054167
895, 13.333333, -9.120078, -6.998082
896, 13.333333, -10.313593, -7.913899
897, 13.333333, -2.000000, -2.000000
898, 13.333333, -3.568356, -3.568356
899, 13.333333, -4.826963, -4.826963
900, 13.333333, -5.990227, -5.990227
901, 13.333333, -7.095603, -7.095603
902, 13.333333, -8.159835, -8.159835
903, 13.333333, -9.192388, -9.192388
904, 13.333333, -1.534654, -2.000000
905, 13.333333, -2.925697, -3.812843
906, 13.333333, -4.042011, -5.267651
907, 13.333333, -5.073762, -6.612255
908, 13.333333, -6.054167, -7.889945
909, 13.333333, -6.998082, -9.120078
910, 13.333333, -7.913899, -10.313593
911, 13.333333, -1.154701, -2.000000
912, 13.333333, -2.320284, -4.018850
913, 13.333333, -3.255666, -5.638979
914, 13.333333, -4.120191, -7.136380
915, 13.333333, -4.941693, -8.559264
916, 13.333333, -5.732618, -9.929186
917, 13.333333, -6.500000, -11.258330
918, 13.333333, -0.828427, -2.000000
919, 13.333333, -1.732594, -4.182852
920, 13.333333, -2.458189, -5.934593
921, 13.333333, -3.128818, -7.553636
922, 13.333333, -3.766074, -9.092108
923, 13.333333, -4.379611, -10.573316
924, 13.333333, -4.974885, -12.010434
925, 13.333333, -0.535898, -2.000000
926, 13.333333, -1.152729, -4.302043
927, 13.333333, -1.647736, -6.149435
928, 13.333333, -2.105245, -7.856882
929, 13.333333, -2.539987, -9.479360
930, 13.333333, -2.958547, -11.041447
931, 13.333333, -3.364648, -12.557036
932, 13.333333, -0.263305, -2.000000
933, 13.333333, -0.575898, -4.374383
934, 13.333333, -0.826755, -6.279828
935, 13.333333, -1.058609, -8.040931
936, 13.333333, -1.278924, -9.714393
937, 13.333333, -1.491039, -11.325568
938, 13.333333, -1.696840, -12.888783
939, 13.333333, -0.000000, -2.000000
940, 13.333333, -0.000000, -4.398635
941, 13.333333, -0.000000, -6.323541
942, 13.333333, -0.000000, -8.102632
943, 13.333333, -0.000000, -9.793187
944, 13.333333, -0.000000, -11.420818
945, 13.333333, -0.000000, -13.000000
946, 13.333333, 0.263305, -2.000000
947, 13.333333, 0.575898, -4.374383
948, 13.333333, 0.826755, -6.279828
949, 13.333333, 1.058609, -8.040931
950, 13.333333, 1.278924, -9.714393
951, 13.333333, 1.491039, -11.325568
952, 13.333333, 1.696840, -12.888783
953, 13.333333, 0.535898, -2.000000
954, 13.333333, 1.152729, -4.302043
955, 13.333333, 1.647736, -6.149435
956, 13.333333, 2.105245, -7.856882
957, 13.333333, 2.539987, -9.479360
958, 13.333333, 2.958547, -11.041447
959, 13.333333, 3.364648, -12.557036
960, 13.333333, 0.828427, -2.000000
961, 13.333333, 1.732594, -4.182852
962, 13.333333, 2.458189, -5.934593
963, 13.333333, 3.128818, -7.553636
964, 13.333333, 3.766074, -9.092108
965, 13.333333, 4.379611, -10.573316
966, 13.333333, 4.974885, -12.010434
967, 13.333333, 1.154701, -2.000000
968, 13.333333, 2.320284, -4.018850
969, 13.333333, 3.255666, -5.638979
970, 13.333333, 4.120191, -7.136380
971, 13.333333, 4.941693, -8.559264
972, 13.333333, 5.732618, -9.929186
973, 13.333333, 6.500000, -11.258330
974, 13.333333, 1.534654, -2.000000
975, 13.333333, 2.925697, -3.812843
976, 13.333333, 4.042011, -5.267651
977, 13.333333, 5.073762, -6.612255
978, 13.333333, 6.054167, -7.889945
979, 13.333333, 6.998082, -9.120078
980, 13.333333, 7.913899, -10.313593
981, 13.333333, 2.000000, -2.000000
982, 13.333333, 3.568356, -3.568356
983, 13.333333, 4.826963, -4.826963
984, 13.333333, 5.990227, -5.990227
985, 13.333333, 7.095603, -7.095603
986, 13.333333, 8.159835, -8.159835
987, 13.333333, 9.192388, -9.192388
988, 13.333333, 2.000000, -1.534654
989, 13.333333, 3.812843, -2.925697
990, 13.333333, 5.267651, -4.042011
991, 13.333333, 6.612255, -5.073762
992, 13.333333, 7.889945, -6.054167
993, 13.333333, 9.120078, -6.998082
994, 13.333333, 10.313593, -7.913899
995, 13.333333, 2.000000, -1.154701
996, 13.333333, 4.018850, -2.320284
997, 13.333333, 5.638979, -3.255666
998, 13.333333, 7.136380, -4.120191
999, 13.333333, 8.559264, -4.941693
1000, 13.333333, 9.929186, -5.732618
1001, 13.333333, 11.258330, -6.500000
1002, 13.333333, 2.000000, -0.828427
1003, 13.333333, 4.182852, -1.732594
1004, 13.333333, 5.934593, -2.458189
1005, 13.333333, 7.553636, -3.128818
1006, 13.333333, 9.092108, -3.766074
1007, 13.333333, 10.573316, -4.379611
1008, 13.333333, 12.010434, -4.974885
1009, 13.333333, 2.000000, -0.535898
1010, 13.333333, 4.302043, -1.152729
1011, 13.333333, 6.149435, -1.647736
1012, 13.333333, 7.856882, -2.105245
1013, 13.333333, 9.479360, -2.539987
1014, 13.333333, 11.041447, -2.958547
1015, 13.333333, 12.557036, -3.364648
1016, 13.333333, 2.000000, -0.263305
1017, 13.333333, 4.374383, -0.575898
1018, 13.333333, 6.279828, -0.826755
1019, 13.333333, 8.040931, -1.058609
1020, 13.333333, 9.714393, -1.278924
1021, 13.333333, 11.325568, -1.491039
1022, 13.333333, 12.888783, -1.696840
1023, 13.333333, 2.000000, -0.000000
1024, 13.333333, 4.398635, -0.000000
1025, 13.333333, 6.323541, -0.000000
1026, 13.333333, 8.102632, -0.000000
1027, 13.333333, 9.793187, -0.000000
1028, 13.333333, 11.420818, -0.000000
1029, 13.333333, 13.000000, -0.000000
1030, 20.000000, 2.000000, 0.000000
1031, 20.000000, 4.398635, 0.000000
1032, 20.000000, 6.323541, 0.000000
1033, 20.000000, 8.102632, 0.000000
1034, 20.000000, 9.793187, 0.000000
1035, 20.000000, 11.420818, 0.000000
1036, 20.000000, 13.000000, 0.000000
1037, 20.000000, 2.000000, 0.263305
1038, 20.000000, 4.374383, 0.575898
1039, 20.000000, 6.279828, 0.826755
1040, 20.000000, 8.040931, 1.058609
1041, 20.000000, 9.714393, 1.278924
1042, 20.000000, 11.325568, 1.491039
1043, 20.000000, 12.888783, 1.696840
1044, 20.000000, 2.000000, 0.535898
1045, 20.000000, 4.302043, 1.152729
1046, 20.000000, 6.149435, 1.647736
1047, 20.000000, 7.856882, 2.105245
1048, 20.000000, 9.479360, 2.539987
1049, 20.000000, 11.041447, 2.958547
1050, 20.000000, 12.557036, 3.364648
1051, 20.000000, 2.000000, 0.828427
1052, 20.000000, 4.182852, 1.732594
1053, 20.000000, 5.934593, 2.458189
1054, 20.000000, 7.553636, 3.128818
1055, 20.000000, 9.092108, 3.766074
1056, 20.000000, 10.573316, 4.379611
1057, 20.000000, 12.010434, 4.974885
1058, 20.000000, 2.000000, 1.154701
1059, 20.000000, 4.018850, 2.320284
1060, 20.000000, 5.638979, 3.255666
1061, 20.000000, 7.136380, 4.120191
1062, 20.000000, 8.559264, 4.941693
1063, 20.000000, 9.929186, 5.732618
1064, 20.000000, 11.258330, 6.500000
1065, 20.000000, 2.000000, 1.534654
1066, 20.000000, 3.812843, 2.925697
1067, 20.000000, 5.267651, 4.042011
1068, 20.000000, 6.612255, 5.073762
1069, 20.000000, 7.889945, 6.054167
1070, 20.000000, 9.120078, 6.998082
1071, 20.000000, 10.313593, 7.913899
1072, 20.000000, 2.000000, 2.000000
1073, 20.000000, 3.568356, 3.568356
1074, 20.000000, 4.826963, 4.826963
1075, 20.000000, 5.990227, 5.990227
1076, 20.000000, 7.095603, 7.095603
1077, 20.000000, 8.159835, 8.159835
1078, 20.000000, 9.192388, 9.192388
1079, 20.000000, 1.534654, 2.000000
1080, 20.000000, 2.925697, 3.812843
1081, 20.000000, 4.042011, 5.267651
1082, 20.000000, 5.073762, 6.612255
1083, 20.000000, 6.054167, 7.889945
1084, 20.000000, 6.998082, 9.120078
1085, 20.000000, 7.913899, 10.313593
1086, 20.000000, 1.154701, 2.000000
1087, 20.000000, 2.320284, 4.018850
1088, 20.000000, 3.255666, 5.638979
1089, 20.000000, 4.120191, 7.136380
1090, 20.000000, 4.941693, 8.559264
1091, 20.000000, 5.732618, 9.929186
1092, 20.000000, 6.500000, 11.258330
1093, 20.000000, 0.828427, 2.000000
1094, 20.000000, 1.732594, 4.182852
1095, 20.000000, 2.458189, 5.934593
1096, 20.000000, 3.128818, 7.553636
1097, 20.000000, 3.766074, 9.092108
1098, 20.000000, 4.379611, 10.573316
1099, 20.000000, 4.974885, 12.010434
1100, 20.000000, 0.535898, 2.000000
1101, 20.000000, 1.152729, 4.302043
1102, 20.000000, 1.647736, 6.149435
1103, 20.000000, 2.105245, 7.856882
1104, 20.000000, 2.539987, 9.479360
1105, 20.000000, 2.958547, 11.041447
1106, 20.000000, 3.364648, 12.557036
1107, 20.000000, 0.263305, 2.000000
1108, 20.000000, 0.575898, 4.374383
1109, 20.000000, 0.826755, 6.279828
1110, 20.000000, 1.058609, 8.040931
1111, 20.000000, 1.278924, 9.714393
1112, 20.000000, 1.491039, 11.325568
1113, 20.000000, 1.696840, 12.888783
1114, 20.000000, 0.000000, 2.000000
1115, 20.000000, 0.000000, 4.398635
1116, 20.000000, 0.000000, 6.323541
1117, 20.000000, 0.000000, 8.102632
1118, 20.000000, 0.000000, 9.793187
1119, 20.000000, 0.000000, 11.420818
1120, 20.000000, 0.000000, 13.000000
1121, 20.000000, -0.263305, 2.000000
1122, 20.000000, -0.575898, 4.374383
1123, 20.000000, -0.826755, 6.279828
1124, 20.000000, -1.058609, 8.040931
1125, 20.000000, -1.278924, 9.714393
1126, 20.000000, -1.491039, 11.325568
1127, 20.000000, -1.696840, 12.888783
1128, 20.000000, -0.535898, 2.000000
1129, 20.000000, -1.152729, 4.302043
1130, 20.000000, -1.647736, 6.149435
1131, 20.000000, -2.105245, 7.856882
1132, 20.000000, -2.539987, 9.479360
1133, 20.000000, -2.958547, 11.041447
1134, 20.000000, -3.364648, 12.557036
1135, 20.000000, -0.828427, 2.000000
1136, 20.000000, -1.732594, 4.182852
1137, 20.000000, -2.458189, 5.934593
1138, 20.000000, -3.128818, 7.553636
1139, 20.000000, -3.766074, 9.092108
1140, 20.000000, -4.379611, 10.573316
1141, 20.000000, -4.974885, 12.010434
1142, 20.000000, -1.154701, 2.000000
1143, 20.000000, -2.320284, 4.018850
1144, 20.000000, -3.255666, 5.638979
1145, 20.000000, -4.120191, 7.136380
1146, 20.000000, -4.941693, 8.559264
1147, 20.000000, -5.732618, 9.929186
1148, 20.000000, -6.500000, 11.258330
1149, 20.000000, -1.534654, 2.000000
1150, 20.000000, -2.925697, 3.812843
1151, 20.000000, -4.042011, 5.267651
1152, 20.000000, -5.073762, 6.612255
1153, 20.000000, -6.054167, 7.889945
1154, 20.000000, -6.998082, 9.120078
1155, 20.000000, -7.913899, 10.313593
1156, 20.000000, -2.000000, 2.000000
1157, 20.000000, -3.568356, 3.568356
1158, 20.000000, -4.826963, 4.826963
1159, 20.000000, -5.990227, 5.990227
1160, 20.000000, -7.095603, 7.095603
1161, 20.000000, -8.159835, 8.159835
1162, 20.000000, -9.192388, 9.192388
1163, 20.000000, -2.000000, 1.534654
1164, 20.000000, -3.812843, 2.925697
1165, 20.000000, -5.267651, 4.042011
1166, 20.000000, -6.612255, 5.073762
1167, 20.000000, -7.889945, 6.054167
1168, 20.000000, -9.120078, 6.998082
1169, 20.000000, -10.313593, 7.913899
1170, 20.000000, -2.000000, 1.154701
1171, 20.000000, -4.018850, 2.320284
1172, 20.000000, -5.638979, 3.255666
1173, 20.000000, -7.136380, 4.120191
1174, 20.000000, -8.559264, 4.941693
1175, 20.000000, -9.929186, 5.732618
1176, 20.000000, -11.258330, 6.500000
1177, 20.000000, -2.000000, 0.828427
1178, 20.000000, -4.182852, 1.732594
1179, 20.000000, -5.934593, 2.458189
1180, 20.000000, -7.553636, 3.128818
1181, 20.000000, -9.092108, 3.766074
1182, 20.000000, -10.573316, 4.379611
1183, 20.000000, -12.010434, 4.974885
1184, 20.000000, -2.000000, 0.535898
1185, 20.000000, -4.302043, 1.152729
1186, 20.000000, -6.149435, 1.647736
1187, 20.000000, -7.856882, 2.105245
1188, 20.000000, -9.479360, 2.539987
1189, 20.000000, -11.041447, 2.958547
1190, 20.000000, -12.557036, 3.364648
1191, 20.000000, -2.000000, 0.263305
1192, 20.000000, -4.374383, 0.575898
1193, 20.000000, -6.279828, 0.826755
1194, 20.000000, -8.040931, 1.058609
1195, 20.000000, -9.714393, 1.278924
1196, 20.000000, -11.325568, 1.491039
1197, 20.000000, -12.888783, 1.696840
1198, 20.000000, -2.000000, 0.000000
1199, 20.000000, -4.398635, 0.000000
1200, 20.000000, -6.323541, 0.000000
1201, 20.000000, -8.102632, 0.000000
1202, 20.000000, -9.793187, 0.000000
1203, 20.000000, -11.420818, 0.000000
1204, 20.000000, -13.000000, 0.000000
1205, 20.000000, -2.000000, -0.263305
1206, 20.000000, -4.374383, -0.575898
1207, 20.000000, -6.279828, -0.826755
1208, 20.000000, -8.040931, -1.058609
1209, 20.000000, -9.714393, -1.278924
1210, 20.000000, -11.325568, -1.491039
1211, 20.000000, -12.888783, -1.696840
1212, 20.000000, -2.000000, -0.535898
1213, 20.000000, -4.302043, -1.152729
1214, 20.000000, -6.149435, -1.647736
1215, 20.000000, -7.856882, -2.105245
1216, 20.000000, -9.479360, -2.539987
1217, 20.000000, -11.041447, -2.958547
1218, 20.000000, -12.557036, -3.364648
1219, 20.000000, -2.000000, -0.828427
1220, 20.000000, -4.182852, -1.732594
1221, 20.000000, -5.934593, -2.458189
1222, 20.000000, -7.553636, -3.128818
1223, 20.000000, -9.092108, -3.766074
1224, 20.000000, -10.573316, -4.379611
1225, 20.000000, -12.010434, -4.974885
1226, 20.000000, -2.000000, -1.154701
1227, 20.000000, -4.018850, -2.320284
1228, 20.000000, -5.638979, -3.255666
1229, 20.000000, -7.136380, -4.120191
1230, 20.000000, -8.559264, -4.941693
1231, 20.000000, -9.929186, -5.732618
1232, 20.000000, -11.258330, -6.500000
1233, 20.000000, -2.000000, -1.534654
1234, 20.000000, -3.812843, -2.925697
1235, 20.000000, -5.267651, -4.042011
1236, 20.000000, -6.612255, -5.073762
1237, 20.000000, -7.889945, -6.054167
1238, 20.000000, -9.120078, -6.998082
1239, 20.000000, -10.313593, -7.913899
1240, 20.000000, -2.000000, -2.000000
1241, 20.000000, -3.568356, -3.568356
1242, 20.000000, -4.826963, -4.826963
1243, 20.000000, -5.990227, -5.990227
1244, 20.000000, -7.095603, -7.095603
1245, 20.000000, -8.159835, -8.159835
1246, 20.000000, -9.192388, -9.192388
1247, 20.000000, -1.534654, -2.000000
1248, 20.000000, -2.925697, -3.812843
1249, 20.000000, -4.042011, -5.267651
1250, 20.000000, -5.073762, -6.612255
1251, 20.000000, -6.054167, -7.889945
1252, 20.000000, -6.998082, -9.120078
1253, 20.000000, -7.913899, -10.313593
1254, 20.000000, -1.154701, -2.000000
1255, 20.000000, -2.320284, -4.018850
1256, 20.000000, -3.255666, -5.638979
1257, 20.000000, -4.120191, -7.136380
1258, 20.000000, -4.941693, -8.559264
1259, 20.000000, -5.732618, -9.929186
1260, 20.000000, -6.500000, -11.258330
1261, 20.000000, -0.828427, -2.000000
1262, 20.000000, -1.732594, -4.182852
1263, 20.000000, -2.458189, -5.934593
1264, 20.000000, -3.128818, -7.553636
1265, 20.000000, -3.766074, -9.092108
1266, 20.000000, -4.379611, -10.573316
1267, 20.000000, -4.974885, -12.010434
1268, 20.000000, -0.535898, -2.000000
1269, 20.000000, -1.152729, -4.302043
1270, 20.000000, -1.647736, -6.149435
1271, 20.000000, -2.105245, -7.856882
1272, 20.000000, -2.539987, -9.479360
1273, 20.000000, -2.958547, -11.041447
1274, 20.000000, -3.364648, -12.557036
1275, 20.000000, -0.263305, -2.000000
1276, 20.000000, -0.575898, -4.374383
1277, 20.000000, -0.826755, -6.279828
1278, 20.000000, -1.058609, -8.040931
1279, 20.000000, -1.278924, -9.714393
1280, 20.000000, -1.491039, -11.325568
1281, 20.000000, -1.696840, -12.888783
1282, 20.000000, -0.000000, -2.000000
1283, 20.000000, -0.000000, -4.398635
1284, 20.000000, -0.000000, -6.323541
1285, 20.000000, -0.000000, -8.102632
1286, 20.000000, -0.000000, -9.793187
1287, 20.000000, -0.000000, -11.420818
1288, 20.000000, -0.000000, -13.000000
1289, 20.000000, 0.263305, -2.000000
1290, 20.000000, 0.575898, -4.374383
1291, 20.000000, 0.826755, -6.279828
1292, 20.000000, 1.058609, -8.040931
1293, 20.000000, 1.278924, -9.714393
1294, 20.000000, 1.491039, -11.325568
1295, 20.000000, 1.696840, -12.888783
1296, 20.000000, 0.535898, -2.000000
1297, 20.000000, 1.152729, -4.302043
1298, 20.000000, 1.647736, -6.149435
1299, 20.000000, 2.105245, -7.856882
1300, 20.000000, 2.539987, -9.479360
1301, 20.000000, 2.958547, -11.041447
1302, 20.000000, 3.364648, -12.557036
1303, 20.000000, 0.828427, -2.000000
1304, 20.000000, 1.732594, -4.182852
1305, 20.000000, 2.458189, -5.934593
1306, 20.000000, 3.128818, -7.553636
1307, 20.000000, 3.766074, -9.092108
1308, 20.000000, 4.379611, -10.573316
1309, 20.000000, 4.974885, -12.010434
1310, 20.000000, 1.154701, -2.000000
1311, 20.000000, 2.320284, -4.018850
1312, 20.000000, 3.255666, -5.638979
1313, 20.000000, 4.120191, -7.136380
1314, 20.000000, 4.941693, -8.559264
1315, 20.000000, 5.732618, -9.929186
1316, 20.000000, 6.500000, -11.258330
1317, 20.000000, 1.534654, -2.000000
1318, 20.000000, 2.925697, -3.812843
1319, 20.000000, 4.042011, -5.267651
1320, 20.000000, 5.073762, -6.612255
1321, 20.000000, 6.054167, -7.889945
1322, 20.000000, 6.998082, -9.120078
1323, 20.000000, 7.913899, -10.313593
1324, 20.000000, 2.000000, -2.000000
1325, 20.000000, 3.568356, -3.568356
1326, 20.000000, 4.826963, -4.826963
1327, 20.000000, 5.990227, -5.990227
1328, 20.000000, 7.095603, -7.095603
1329, 20.000000, 8.159835, -8.159835
1330, 20.000000, 9.192388, -9.192388
1331, 20.000000, 2.000000, -1.534654
1332, 20.000000, 3.812843, -2.925697
1333, 20.000000, 5.267651, -4.042011
1334, 20.000000, 6.612255, -5.073762
1335, 20.000000, 7.889945, -6.054167
1336, 20.000000, 9.120078, -6.998082
1337, 20.000000, 10.313593, -7.913899
1338, 20.000000, 2.000000, -1.154701
1339, 20.000000, 4.018850, -2.320284
1340, 20.000000, 5.638979, -3.255666
1341, 20.000000, 7.136380, -4.120191
1342, 20.000000, 8.559264, -4.941693
1343, 20.000000, 9.929186, -5.732618
1344, 20.000000, 11.258330, -6.500000
1345, 20.000000, 2.000000, -0.828427
1346, 20.000000, 4.182852, -1.732594
1347, 20.000000, 5.934593, -2.458189
1348, 20.000000, 7.553636, -3.128818
1349, 20.000000, 9.092108, -3.766074
1350, 20.000000, 10.573316, -4.379611
1351, 20.000000, 12.010434, -4.974885
1352, 20.000000, 2.000000, -0.535898
1353, 20.000000, 4.302043, -1.152729
1354, 20.000000, 6.149435, -1.647736
1355, 20.000000, 7.856882, -2.105245
1356, 20.000000, 9.479360, -2.539987
1357, 20.000000, 11.041447, -2.958547
1358, 20.000000, 12.557036, -3.364648
1359, 20.000000, 2.000000, -0.263305
1360, 20.000000, 4.374383, -0.575898
1361, 20.000000, 6.279828, -0.826755
1362, 20.000000, 8.040931, -1.058609
1363, 20.000000, 9.714393, -1.278924
1364, 20.000000, 11.325568, -1.491039
1365, 20.000000, 12.888783, -1.696840
1366, 20.000000, 2.000000, -0.000000
1367, 20.000000, 4.398635, -0.000000
1368, 20.000000, 6.323541, -0.000000
1369, 20.000000, 8.102632, -0.000000
1370, 20.000000, 9.793187, -0.000000
1371, 20.000000, 11.420818, -0.000000
1372, 20.000000, 13.000000, -0.000000
1373, 26.666667, 2.000000, 0.000000
1374, 26.666667, 4.398635, 0.000000
1375, 26.666667, 6.323541, 0.000000
1376, 26.666667, 8.102632, 0.000000
1377, 26.666667, 9.793187, 0.000000
1378, 26.666667, 11.420818, 0.000000
1379, 26.666667, 13.000000, 0.000000
1380, 26.666667, 2.000000, 0.263305
1381, 26.666667, 4.374383, 0.575898
1382, 26.666667, 6.279828, 0.826755
1383, 26.666667, 8.040931, 1.058609
1384, 26.666667, 9.714393, 1.278924
1385, 26.666667, 11.325568, 1.491039
1386, 26.666667, 12.888783, 1.696840
1387, 26.666667, 2.000000, 0.535898
1388, 26.666667, 4.302043, 1.152729
1389, 26.666667, 6.149435, 1.647736
1390, 26.666667, 7.856882, 2.105245
1391, 26.666667, 9.479360, 2.539987
1392, 26.666667, 11.041447, 2.958547
1393, 26.666667, 12.557036, 3.364648
1394, 26.666667, 2.000000, 0.828427
1395, 26.666667, 4.182852, 1.732594
1396, 26.666667, 5.934593, 2.458189
1397, 26.666667, 7.553636, 3.128818
1398, 26.666667, 9.092108, 3.766074
1399, 26.666667, 10.573316, 4.379611
1400, 26.666667, 12.010434, 4.974885
1401, 26.666667, 2.000000, 1.154701
1402, 26.666667, 4.018850, 2.320284
1403, 26.666667, 5.638979, 3.255666
1404, 26.666667, 7.136380, 4.120191
1405, 26.666667, 8.559264, 4.941693
1406, 26.666667, 9.929186, 5.732618
1407, 26.666667, 11.258330, 6.500000
1408, 26.666667, 2.000000, 1.534654
1409, 26.666667, 3.812843, 2.925697
1410, 26.666667, 5.267651, 4.042011
1411, 26.666667, 6.612255, 5.073762
1412, 26.666667, 7.889945, 6.054167
1413, 26.666667, 9.120078, 6.998082
1414, 26.666667, 10.313593, 7.913899
1415, 26.666667, 2.000000, 2.000000
1416, 26.666667, 3.568356, 3.568356
1417, 26.666667, 4.826963, 4.826963
1418, 26.666667, 5.990227, 5.990227
1419, 26.666667, 7.095603, 7.095603
1420, 26.666667, 8.159835, 8.159835
1421, 26.666667, 9.192388, 9.192388
1422, 26.666667, 1.534654, 2.000000
1423, 26.666667, 2.925697, 3.812843
1424, 26.666667, 4.042011, 5.267651
1425, 26.666667, 5.073762, 6.612255
1426, 26.666667, 6.054167, 7.889945
1427, 26.666667, 6.998082, 9.120078
1428, 26.666667, 7.913899, 10.313593
1429, 26.666667, 1.154701, 2.000000
1430, 26.666667, 2.320284, 4.018850
1431, 26.666667, 3.255666, 5.638979
1432, 26.666667, 4.120191, 7.136380
1433, 26.666667, 4.941693, 8.559264
1434, 26.666667, 5.732618, 9.929186
1435, 26.666667, 6.500000, 11.258330
1436, 26.666667, 0.828427, 2.000000
1437, 26.666667, 1.732594, 4.182852
1438, 26.666667, 2.458189, 5.934593
1439, 26.666667, 3.128818, 7.553636
1440, 26.666667, 3.766074, 9.092108
1441, 26.666667, 4.379611, 10.573316
1442, 26.666667, 4.974885, 12.010434
1443, 26.666667, 0.535898, 2.000000
1444, 26.666667, 1.152729, 4.302043
1445, 26.666667, 1.647736, 6.149435
1446, 26.666667, 2.105245, 7.856882
1447, 26.666667, 2.539987, 9.479360
1448, 26.666667, 2.958547, 11.041447
1449, 26.666667, 3.364648, 12.557036
1450, 26.666667, 0.263305, 2.000000
1451, 26.666667, 0.575898, 4.374383
1452, 26.666667, 0.826755, 6.279828
1453, 26.666667, 1.058609, 8.040931
1454, 26.666667, 1.278924, 9.714393
1455, 26.666667, 1.491039, 11.325568
1456, 26.666667, 1.696840, 12.888783
1457, 26.666667, 0.000000, 2.000000
1458, 26.666667, 0.000000, 4.398635
1459, 26.666667, 0.000000, 6.323541
1460, 26.666667, 0.000000, 8.102632
1461, 26.666667, 0.000000, 9.793187
1462, 26.666667, 0.000000, 11.420818
1463, 26.666667, 0.000000, 13.000000
1464, 26.666667, -0.263305, 2.000000
1465, 26.666667, -0.575898, 4.374383
1466, 26.666667, -0.826755, 6.279828
1467, 26.666667, -1.058609, 8.040931
1468, 26.666667, -1.278924, 9.714393
1469, 26.666667, -1.491039, 11.325568
1470, 26.666667, -1.696840, 12.888783
1471, 26.666667, -0.535898, 2.000000
1472, 26.666667, -1.152729, 4.302043
1473, 26.666667, -1.647736, 6.149435
1474, 26.666667, -2.105245, 7.856882
1475, 26.666667, -2.539987, 9.479360
1476, 26.666667, -2.958547, 11.041447
1477, 26.666667, -3.364648, 12.557036
1478, 26.666667, -0.828427, 2.000000
1479, 26.666667, -1.732594, 4.182852
1480, 26.666667, -2.458189, 5.934593
1481, 26.666667, -3.128818, 7.553636
1482, 26.666667, -3.766074, 9.092108
1483, 26.666667, -4.379611, 10.573316
1484, 26.666667, -4.974885, 12.010434
1485, 26.666667, -1.154701, 2.000000
1486, 26.666667, -2.320284, 4.018850
1487, 26.666667, -3.255666, 5.638979
1488, 26.666667, -4.120191, 7.136380
1489, 26.666667, -4.941693, 8.559264
1490, 26.666667, -5.732618, 9.929186
1491, 26.666667, -6.500000, 11.258330
1492, 26.666667, -1.534654, 2.000000
1493, 26.666667, -2.925697, 3.812843
1494, 26.666667, -4.042011, 5.267651
1495, 26.666667, -5.073762, 6.612255
1496, 26.666667, -6.054167, 7.889945
1497, 26.666667, -6.998082, 9.120078
1498, 26.666667, -7.913899, 10.313593
1499, 26.666667, -2.000000, 2.000000
1500, 26.666667, -3.568356, 3.568356
1501, 26.666667, -4.826963, 4.826963
1502, 26.666667, -5.990227, 5.990227
1503, 26.666667, -7.095603, 7.095603
1504, 26.666667, -8.159835, 8.159835
1505, 26.666667, -9.192388, 9.192388
1506, 26.666667, -2.000000, 1.534654
1507, 26.666667, -3.812843, 2.925697
1508, 26.666667, -5.267651, 4.042011
1509, 26.666667, -6.612255, 5.073762
1510, 26.666667, -7.889945, 6.054167
1511, 26.666667, -9.120078, 6.998082
1512, 26.666667, -10.313593, 7.913899
1513, 26.666667, -2.000000, 1.154701
1514, 26.666667, -4.018850, 2.320284
1515, 26.666667, -5.638979, 3.255666
1516, 26.666667, -7.136380, 4.120191
1517, 26.666667, -8.559264, 4.941693
1518, 26.666667, -9.929186, 5.732618
1519, 26.666667, -11.258330, 6.500000
1520, 26.666667, -2.000000, 0.828427
1521, 26.666667, -4.182852, 1.732594
1522, 26.666667, -5.934593, 2.458189
1523, 26.666667, -7.553636, 3.128818
1524, 26.666667, -9.092108, 3.766074
1525, 26.666667, -10.573316, 4.379611
1526, 26.666667, -12.010434, 4.974885
1527, 26.666667, -2.000000, 0.535898
1528, 26.666667, -4.302043, 1.152729
1529, 26.666667, -6.149435, 1.647736
1530, 26.666667, -7.856882, 2.105245
1531, 26.666667, -9.479360, 2.539987
1532, 26.666667, -11.041447, 2.958547
1533, 26.666667, -12.557036, 3.364648
1534, 26.666667, -2.000000, 0.263305
1535, 26.666667, -4.374383, 0.575898
1536, 26.666667, -6.279828, 0.826755
1537, 26.666667, -8.040931, 1.058609
1538, 26.666667, -9.714393, 1.278924
1539, 26.666667, -11.325568, 1.491039
1540, 26.666667, -12.888783, 1.696840
1541, 26.666667, -2.000000, 0.000000
1542, 26.666667, -4.398635, 0.000000
1543, 26.666667, -6.323541, 0.000000
1544, 26.666667, -8.102632, 0.000000
1545, 26.666667, -9.793187, 0.000000
1546, 26.666667, -11.420818, 0.000000
1547, 26.666667, -13.000000, 0.000000
1548, 26.666667, -2.000000, -0.263305
1549, 26.666667, -4.374383, -0.575898
1550, 26.666667, -6.279828, -0.826755
1551, 26.666667, -8.040931, -1.058609
1552, 26.666667, -9.714393, -1.278924
1553, 26.666667, -11.325568, -1.491039
1554, 26.666667, -12.888783, -1.696840
1555, 26.666667, -2.000000, -0.535898
1556, 26.666667, -4.302043, -1.152729
1557, 26.666667, -6.149435, -1.647736
1558, 26.666667, -7.856882, -2.105245
1559, 26.666667, -9.479360, -2.539987
1560, 26.666667, -11.041447, -2.958547
1561, 26.666667, -12.557036, -3.364648
1562, 26.666667, -2.000000, -0.828427
1563, 26.666667, -4.182852, -1.732594
1564, 26.666667, -5.934593, -2.458189
1565, 26.666667, -7.553636, -3.128818
1566, 26.666667, -9.092108, -3.766074
1567, 26.666667, -10.573316, -4.379611
1568, 26.666667, -12.010434, -4.974885
1569, 26.666667, -2.000000, -1.154701
1570, 26.666667, -4.018850, -2.320284
1571, 26.666667, -5.638979, -3.255666
1572, 26.666667, -7.136380, -4.120191
1573, 26.666667, -8.559264, -4.941693
1574, 26.666667, -9.929186, -5.732618
1575, 26.666667, -11.258330, -6.500000
1576, 26.666667, -2.000000, -1.534654
1577, 26.666667, -3.812843, -2.925697
1578, 26.666667, -5.267651, -4.042011
1579, 26.666667, -6.612255, -5.073762
1580, 26.666667, -7.889945, -6.054167
1581, 26.666667, -9.120078, -6.998082
1582, 26.666667, -10.313593, -7.913899
1583, 26.666667, -2.000000, -2.000000
1584, 26.666667, -3.568356, -3.568356
1585, 26.666667, -4.826963, -4.826963
1586, 26.666667, -5.990227, -5.990227
1587, 26.666667, -7.095603, -7.095603
1588, 26.666667, -8.159835, -8.159835
1589, 26.666667, -9.192388, -9.192388
1590, 26.666667, -1.534654, -2.000000
1591, 26.666667, -2.925697, -3.812843
1592, 26.666667, -4.042011, -5.267651
1593, 26.666667, -5.073762, -6.612255
1594, 26.666667, -6.054167, -7.889945
1595, 26.666667, -6.998082, -9.120078
1596, 26.666667, -7.913899, -10.313593
1597, 26.666667, -1.154701, -2.000000
1598, 26.666667, -2.320284, -4.018850
1599, 26.666667, -3.255666, -5.638979
1600, 26.666667, -4.120191, -7.136380
1601, 26.666667, -4.941693, -8.559264
1602, 26.666667, -5.732618, -9.929186
1603, 26.666667, -6.500000, -11.258330
1604, 26.666667, -0.828427, -2.000000
1605, 26.666667, -1.732594, -4.182852
1606, 26.666667, -2.458189, -5.934593
1607, 26.666667, -3.128818, -7.553636
1608, 26.666667, -3.766074, -9.092108
1609, 26.666667, -4.379611, -10.573316
1610, 26.666667, -4.974885, -12.010434
1611, 26.666667, -0.535898, -2.000000
1612, 26.666667, -1.152729, -4.302043
1613, 26.666667, -1.647736, -6.149435
1614, 26.666667, -2.105245, -7.856882
1615, 26.666667, -2.539987, -9.479360
1616, 26.666667, -2.958547, -11.041447
1617, 26.666667, -3.364648, -12.557036
1618, 26.666667, -0.263305, -2.000000
1619, 26.666667, -0.575898, -4.374383
1620, 26.666667, -0.826755, -6.279828
1621, 26.666667, -1.058609, -8.040931
1622, 26.666667, -1.278924, -9.714393
1623, 26.666667, -1.491039, -11.325568
1624, 26.666667, -1.696840, -12.888783
1625, 26.666667, -0.000000, -2.000000
1626, 26.666667, -0.000000, -4.398635
1627, 26.666667, -0.000000, -6.323541
1628, 26.666667, -0.000000, -8.102632
1629, 26.666667, -0.000000, -9.793187
1630, 26.666667, -0.000000, -11.420818
1631, 26.666667, -0.000000, -13.000000
1632, 26.666667, 0.263305, -2.000000
1633, 26.666667, 0.575898, -4.374383
1634, 26.666667, 0.826755, -6.279828
1635, 26.666667, 1.058609, -8.040931
1636, 26.666667, 1.278924, -9.714393
1637, 26.666667, 1.491039, -11.325568
1638, 26.666667, 1.696840, -12.888783
1639, 26.666667, 0.535898, -2.000000
1640, 26.666667, 1.152729, -4.302043
1641, 26.666667, 1.647736, -6.149435
1642, 26.666667, 2.105245, -7.856882
1643, 26.666667, 2.539987, -9.479360
1644, 26.666667, 2.958547, -11.041447
1645, 26.666667, 3.364648, -12.557036
1646, 26.666667, 0.828427, -2.000000
1647, 26.666667, 1.732594, -4.182852
1648, 26.666667, 2.458189, -5.934593
1649, 26.666667, 3.128818, -7.553636
1650, 26.666667, 3.766074, -9.092108
1651, 26.666667, 4.379611, -10.573316
1652, 26.666667, 4.974885, -12.010434
1653, 26.666667, 1.154701, -2.000000
1654, 26.666667, 2.320284, -4.018850
1655, 26.666667, 3.255666, -5.638979
1656, 26.666667, 4.120191, -7.136380
1657, 26.666667, 4.941693, -8.559264
1658, 26.666667, 5.732618, -9.929186
1659, 26.666667, 6.500000, -11.258330
1660, 26.666667, 1.534654, -2.000000
1661, 26.666667, 2.925697, -3.812843
1662, 26.666667, 4.042011, -5.267651
1663, 26.666667, 5.073762, -6.612255
1664, 26.666667, 6.054167, -7.889945
1665, 26.666667, 6.998082, -9.120078
1666, 26.666667, 7.913899, -10.313593
1667, 26.666667, 2.000000, -2.000000
1668, 26.666667, 3.568356, -3.568356
1669, 26.666667, 4.826963, -4.826963
1670, 26.666667, 5.990227, -5.990227
1671, 26.666667, 7.095603, -7.095603
1672, 26.666667, 8.159835, -8.159835
1673, 26.666667, 9.192388, -9.192388
1674, 26.666667, 2.000000, -1.534654
1675, 26.666667, 3.812843, -2.925697
1676, 26.666667, 5.267651, -4.042011
1677, 26.666667, 6.612255, -5.073762
1678, 26.666667, 7.889945, -6.054167
1679, 26.666667, 9.120078, -6.998082
1680, 26.666667, 10.313593, -7.913899
1681, 26.666667, 2.000000, -1.154701
1682, 26.666667, 4.018850, -2.320284
1683, 26.666667, 5.638979, -3.255666
1684, 26.666667, 7.136380, -4.120191
1685, 26.666667, 8.559264, -4.941693
1686, 26.666667, 9.929186, -5.732618
1687, 26.666667, 11.258330, -6.500000
1688, 26.666667, 2.000000, -0.828427
1689, 26.666667, 4.182852, -1.732594
1690, 26.666667, 5.934593, -2.458189
1691, 26.666667, 7.553636, -3.128818
1692, 26.666667, 9.092108, -3.766074
1693, 26.666667, 10.573316, -4.379611
1694, 26.666667, 12.010434, -4.974885
1695, 26.666667, 2.000000, -0.535898
1696, 26.666667, 4.302043, -1.152729
1697, 26.666667, 6.149435, -1.647736
1698, 26.666667, 7.856882, -2.105245
1699, 26.666667, 9.479360, -2.539987
1700, 26.666667, 11.041447, -2.958547
1701, 26.666667, 12.557036, -3.364648
1702, 26.666667, 2.000000, -0.263305
1703, 26.666667, 4.374383, -0.575898
1704, 26.666667, 6.279828, -0.826755
1705, 26.666667, 8.040931, -1.058609
1706, 26.666667, 9.714393, -1.278924
1707, 26.666667, 11.325568, -1.491039
1708, 26.666667, 12.888783, -1.696840
1709, 26.666667, 2.000000, -0.000000
1710, 26.666667, 4.398635, -0.000000
1711, 26.666667, 6.323541, -0.000000
1712, 26.666667, 8.102632, -0.000000
1713, 26.666667, 9.793187, -0.000000
1714, 26.666667, 11.420818, -0.000000
1715, 26.666667, 13.000000, -0.000000
1716, 33.333333, 2.000000, 0.000000
1717, 33.333333, 4.398635, 0.000000
1718, 33.333333, 6.323541, 0.000000
1719, 33.333333, 8.102632, 0.000000
1720, 33.333333, 9.793187, 0.000000
1721, 33.333333, 11.420818, 0.000000
1722, 33.333333, 13.000000, 0.000000
1723, 33.333333, 2.000000, 0.263305
1724, 33.333333, 4.374383, 0.575898
1725, 33.333333, 6.279828, 0.826755
1726, 33.333333, 8.040931, 1.058609
1727, 33.333333, 9.714393, 1.278924
1728, 33.333333, 11.325568, 1.491039
1729, 33.333333, 12.888783, 1.696840
1730, 33.333333, 2.000000, 0.535898
1731, 33.333333, 4.302043, 1.152729
1732, 33.333333, 6.149435, 1.647736
1733, 33.333333, 7.856882, 2.105245
1734, 33.333333, 9.479360, 2.539987
1735, 33.333333, 11.041447, 2.958547
1736, 33.333333, 12.557036, 3.364648
1737, 33.333333, 2.000000, 0.828427
1738, 33.333333, 4.182852, 1.732594
1739, 33.333333, 5.934593, 2.458189
1740, 33.333333, 7.553636, 3.128818
1741, 33.333333, 9.092108, 3.766074
1742, 33.333333, 10.573316, 4.379611
1743, 33.333333, 12.010434, 4.974885
1744, 33.333333, 2.000000, 1.154701
1745, 33.333333, 4.018850, 2.320284
1746, 33.333333, 5.638979, 3.255666
1747, 33.333333, 7.136380, 4.120191
1748, 33.333333, 8.559264, 4.941693
1749, 33.333333, 9.929186, 5.732618
1750, 33.333333, 11.258330, 6.500000
1751, 33.333333, 2.000000, 1.534654
1752, 33.333333, 3.812843, 2.925697
1753, 33.333333, 5.267651, 4.042011
1754, 33.333333, 6.612255, 5.073762
1755, 33.333333, 7.889945, 6.054167
1756, 33.333333, 9.120078, 6.998082
1757, 33.333333, 10.313593, 7.913899
1758, 33.333333, 2.000000, 2.000000
1759, 33.333333, 3.568356, 3.568356
1760, 33.333333, 4.826963, 4.826963
1761, 33.333333, 5.990227, 5.990227
1762, 33.333333, 7.095603, 7.095603
1763, 33.333333, 8.159835, 8.159835
1764, 33.333333, 9.192388, 9.192388
1765, 33.333333, 1.534654, 2.000000
1766, 33.333333, 2.925697, 3.812843
1767, 33.333333, 4.042011, 5.267651
1768, 33.333333, 5.073762, 6.612255
1769, 33.333333, 6.054167, 7.889945
1770, 33.333333, 6.998082, 9.120078
1771, 33.333333, 7.913899, 10.313593
1772, 33.333333, 1.154701, 2.000000
1773, 33.333333, 2.320284, 4.018850
1774, 33.333333, 3.255666, 5.638979
1775, 33.333333, 4.120191, 7.136380
1776, 33.333333, 4.941693, 8.559264
1777, 33.333333, 5.732618, 9.929186
1778, 33.333333, 6.500000, 11.258330
1779, 33.333333, 0.828427, 2.000000
1780, 33.333333, 1.732594, 4.182852
1781, 33.333333, 2.458189, 5.934593
1782, 33.333333, 3.128818, 7.553636
1783, 33.333333, 3.766074, 9.092108
1784, 33.333333, 4.379611, 10.573316
1785, 33.333333, 4.974885, 12.010434
1786, 33.333333, 0.535898, 2.000000
1787, 33.333333, 1.152729, 4.302043
1788, 33.333333, 1.647736, 6.149435
1789, 33.333333, 2.105245, 7.856882
1790, 33.333333, 2.539987, 9.479360
1791, 33.333333, 2.958547, 11.041447
1792, 33.333333, 3.364648, 12.557036
1793, 33.333333, 0.263305, 2.000000
1794, 33.333333, 0.575898, 4.374383
1795, 33.333333, 0.826755, 6.279828
1796, 33.333333, 1.058609, 8.040931
1797, 33.333333, 1.278924, 9.714393
1798, 33.333333, 1.491039, 11.325568
1799, 33.333333, 1.696840, 12.888783
1800, 33.333333, 0.000000, 2.000000
1801, 33.333333, 0.000000, 4.398635
1802, 33.333333, 0.000000, 6.323541
1803, 33.333333, 0.000000, 8.102632
1804, 33.333333, 0.000000, 9.793187
1805, 33.333333, 0.000000, 11.420818
1806, 33.333333, 0.000000, 13.000000
1807, 33.333333, -0.263305, 2.000000
1808, 33.333333, -0.575898, 4.374383
1809, 33.333333, -0.826755, 6.279828
1810, 33.333333, -1.058609, 8.040931
1811, 33.333333, -1.278924, 9.714393
1812, 33.333333, -1.491039, 11.325568
1813, 33.333333, -1.696840, 12.888783
1814, 33.333333, -0.535898, 2.000000
1815, 33.333333, -1.152729, 4.302043
1816, 33.333333, -1.647736, 6.149435
1817, 33.333333, -2.105245, 7.856882
1818, 33.333333, -2.539987, 9.479360
1819, 33.333333, -2.958547, 11.041447
1820, 33.333333, -3.364648, 12.557036
1821, 33.333333, -0.828427, 2.000000
1822, 33.333333, -1.732594, 4.182852
1823, 33.333333, -2.458189, 5.934593
1824, 33.333333, -3.128818, 7.553636
1825, 33.333333, -3.766074, 9.092108
1826, 33.333333, -4.379611, 10.573316
1827, 33.333333, -4.974885, 12.010434
1828, 33.333333, -1.154701, 2.000000
1829, 33.333333, -2.320284, 4.018850
1830, 33.333333, -3.255666, 5.638979
1831, 33.333333, -4.120191, 7.136380
1832, 33.333333, -4.941693, 8.559264
1833, 33.333333, -5.732618, 9.929186
1834, 33.333333, -6.500000, 11.258330
1835, 33.333333, -1.534654, 2.000000
1836, 33.333333, -2.925697, 3.812843
1837, 33.333333, -4.042011, 5.267651
1838, 33.333333, -5.073762, 6.612255
1839, 33.333333, -6.054167, 7.889945
1840, 33.333333, -6.998082, 9.120078
1841, 33.333333, -7.913899, 10.313593
1842, 33.333333, -2.000000, 2.000000
1843, 33.333333, -3.568356, 3.568356
1844, 33.333333, -4.826963, 4.826963
1845, 33.333333, -5.990227, 5.990227
1846, 33.333333, -7.095603, 7.095603
1847, 33.333333, -8.159835, 8.159835
1848, 33.333333, -9.192388, 9.192388
1849, 33.333333, -2.000000, 1.534654
1850, 33.333333, -3.812843, 2.925697
1851, 33.333333, -5.267651, 4.042011
1852, 33.333333, -6.612255, 5.073762
1853, 33.333333, -7.889945, 6.054167
1854, 33.333333, -9.120078, 6.998082
1855, 33.333333, -10.313593, 7.913899
1856, 33.333333, -2.000000, 1.154701
1857, 33.333333, -4.018850, 2.320284
1858, 33.333333, -5.638979, 3.255666
1859, 33.333333, -7.136380, 4.120191
1860, 33.333333, -8.559264, 4.941693
1861, 33.333333, -9.929186, 5.732618
1862, 33.333333, -11.258330, 6.500000
1863, 33.333333, -2.000000, 0.828427
1864, 33.333333, -4.182852, 1.732594
1865, 33.333333, -5.934593, 2.458189
1866, 33.333333, -7.553636, 3.128818
1867, 33.333333, -9.092108, 3.766074
1868, 33.333333, -10.573316, 4.379611
1869, 33.333333, -12.010434, 4.974885
1870, 33.333333, -2.000000, 0.535898
1871, 33.333333, -4.302043, 1.152729
1872, 33.333333, -6.149435, 1.647736
1873, 33.333333, -7.856882, 2.105245
1874, 33.333333, -9.479360, 2.539987
1875, 33.333333, -11.041447, 2.958547
1876, 33.333333, -12.557036, 3.364648
1877, 33.333333, -2.000000, 0.263305
1878, 33.333333, -4.374383, 0.575898
1879, 33.333333, -6.279828, 0.826755
1880, 33.333333, -8.040931, 1.058609
1881, 33.333333, -9.714393, 1.278924
1882, 33.333333, -11.325568, 1.491039
1883, 33.333333, -12.888783, 1.696840
1884, 33.333333, -2.000000, 0.000000
1885, 33.333333, -4.398635, 0.000000
1886, 33.333333, -6.323541, 0.000000
1887, 33.333333, -8.102632, 0.000000
1888, 33.333333, -9.793187, 0.000000
1889, 33.333333, -11.420818, 0.000000
1890, 33.333333, -13.000000, 0.000000
1891, 33.333333, -2.000000, -0.263305
1892, 33.333333, -4.374383, -0.575898
1893, 33.333333, -6.279828, -0.826755
1894, 33.333333, -8.040931, -1.058609
1895, 33.333333, -9.714393, -1.278924
1896, 33.333333, -11.325568, -1.491039
1897, 33.333333, -12.888783, -1.696840
1898, 33.333333, -2.000000, -0.535898
1899, 33.333333, -4.302043, -1.152729
1900, 33.333333, -6.149435, -1.647736
1901, 33.333333, -7.856882, -2.105245
1902, 33.333333, -9.479360, -2.539987
1903, 33.333333, -11.041447, -2.958547
1904, 33.333333, -12.557036, -3.364648
1905, 33.333333, -2.000000, -0.828427
1906, 33.333333, -4.182852, -1.732594
1907, 33.333333, -5.934593, -2.458189
1908, 33.333333, -7.553636, -3.128818
1909, 33.333333, -9.092108, -3.766074
1910, 33.333333, -10.573316, -4.379611
1911, 33.333333, -12.010434, -4.974885
1912, 33.333333, -2.000000, -1.154701
1913, 33.333333, -4.018850, -2.320284
1914, 33.333333, -5.638979, -3.255666
1915, 33.333333, -7.136380, -4.120191
1916, 33.333333, -8.559264, -4.941693
1917, 33.333333, -9.929186, -5.732618
1918, 33.333333, -11.258330, -6.500000
1919, 33.333333, -2.000000, -1.534654
1920, 33.333333, -3.812843, -2.925697
1921, 33.333333, -5.267651, -4.042011
1922, 33.333333, -6.612255, -5.073762
1923, 33.333333, -7.889945, -6.054167
1924, 33.333333, -9.120078, -6.998082
1925, 33.333333, -10.313593, -7.913899
1926, 33.333333, -2.000000, -2.000000
1927, 33.333333, -3.568356, -3.568356
1928, 33.333333, -4.826963, -4.826963
1929, 33.333333, -5.990227, -5.990227
1930, 33.333333, -7.095603, -7.095603
1931, 33.333333, -8.159835, -8.159835
1932, 33.333333, -9.192388, -9.192388
1933, 33.333333, -1.534654, -2.000000
1934, 33.333333, -2.925697, -3.812843
1935, 33.333333, -4.042011, -5.267651
1936, 33.333333, -5.073762, -6.612255
1937, 33.333333, -6.054167, -7.889945
1938, 33.333333, -6.998082, -9.120078
1939, 33.333333, -7.913899, -10.313593
1940, 33.333333, -1.154701, -2.000000
1941, 33.333333, -2.320284, -4.018850
1942, 33.333333, -3.255666, -5.638979
1943, 33.333333, -4.120191, -7.136380
1944, 33.333333, -4.941693, -8.559264
1945, 33.333333, -5.732618, -9.929186
1946, 33.333333, -6.500000, -11.258330
1947, 33.333333, -0.828427, -2.000000
1948, 33.333333, -1.732594, -4.182852
1949, 33.333333, -2.458189, -5.934593
1950, 33.333333, -3.128818, -7.553636
1951, 33.333333, -3.766074, -9.092108
1952, 33.333333, -4.379611, -10.573316
1953, 33.333333, -4.974885, -12.010434
1954, 33.333333, -0.535898, -2.000000
1955, 33.333333, -1.152729, -4.302043
1956, 33.333333, -1.647736, -6.149435
1957, 33.333333, -2.105245, -7.856882
1958, 33.333333, -2.539987, -9.479360
1959, 33.333333, -2.958547, -11.041447
1960, 33.333333, -3.364648, -12.557036
1961, 33.333333, -0.263305, -2.000000
1962, 33.333333, -0.575898, -4.374383
1963, 33.333333, -0.826755, -6.279828
1964, 33.333333, -1.058609, -8.040931
1965, 33.333333, -1.278924, -9.714393
1966, 33.333333, -1.491039, -11.325568
1967, 33.333333, -1.696840, -12.888783
1968, 33.333333, -0.000000, -2.000000
1969, 33.333333, -0.000000, -4.398635
1970, 33.333333, -0.000000, -6.323541
1971, 33.333333, -0.000000, -8.102632
1972, 33.333333, -0.000000, -9.793187
1973, 33.333333, -0.000000, -11.420818
1974, 33.333333, -0.000000, -13.000000
1975, 33.333333, 0.263305, -2.000000
1976, 33.333333, 0.575898, -4.374383
1977, 33.333333, 0.826755, -6.279828
1978, 33.333333, 1.058609, -8.040931
1979, 33.333333, 1.278924, -9.714393
1980, 33.333333, 1.491039, -11.325568
1981, 33.333333, 1.696840, -12.888783
1982, 33.333333, 0.535898, -2.000000
1983, 33.333333, 1.152729, -4.302043
1984, 33.333333, 1.647736, -6.149435
1985, 33.333333, 2.105245, -7.856882
1986, 33.333333, 2.539987, -9.479360
1987, 33.333333, 2.958547, -11.041447
1988, 33.333333, 3.364648, -12.557036
1989, 33.333333, 0.828427, -2.000000
1990, 33.333333, 1.732594, -4.182852
1991, 33.333333, 2.458189, -5.934593
1992, 33.333333, 3.128818, -7.553636
1993, 33.333333, 3.766074, -9.092108
1994, 33.333333, 4.379611, -10.573316
1995, 33.333333, 4.974885, -12.010434
1996, 33.333333, 1.154701, -2.000000
1997, 33.333333, 2.320284, -4.018850
1998, 33.333333, 3.255666, -5.638979
1999, 33.333333, 4.120191, -7.136380
2000, 33.333333, 4.941693, -8.559264
2001, 33.333333, 5.732618, -9.929186
2002, 33.333333, 6.500000, -11.258330
2003, 33.333333, 1.534654, -2.000000
2004, 33.333333, 2.925697, -3.812843
2005, 33.333333, 4.042011, -5.267651
2006, 33.333333, 5.073762, -6.612255
2007, 33.333333, 6.054167, -7.889945
2008, 33.333333, 6.998082, -9.120078
2009, 33.333333, 7.913899, -10.313593
2010, 33.333333, 2.000000, -2.000000
2011, 33.333333, 3.568356, -3.568356
2012, 33.333333, 4.826963, -4.826963
2013, 33.333333, 5.990227, -5.990227
2014, 33.333333, 7.095603, -7.095603
2015, 33.333333, 8.159835, -8.159835
2016, 33.333333, 9.192388, -9.192388
2017, 33.333333, 2.000000, -1.534654
2018, 33.333333, 3.812843, -2.925697
2019, 33.333333, 5.267651, -4.042011
2020, 33.333333, 6.612255, -5.073762
2021, 33.333333, 7.889945, -6.054167
2022, 33.333333, 9.120078, -6.998082
2023, 33.333333, 10.313593, -7.913899
2024, 33.333333, 2.000000, -1.154701
2025, 33.333333, 4.018850, -2.320284
2026, 33.333333, 5.638979, -3.255666
2027, 33.333333, 7.136380, -4.120191
2028, 33.333333, 8.559264, -4.941693
2029, 33.333333, 9.929186, -5.732618
2030, 33.333333, 11.258330, -6.500000
2031, 33.333333, 2.000000, -0.828427
2032, 33.333333, 4.182852, -1.732594
2033, 33.333333, 5.934593, -2.458189
2034, 33.333333, 7.553636, -3.128818
2035, 33.333333, 9.092108, -3.766074
2036, 33.333333, 10.573316, -4.379611
2037, 33.333333, 12.010434, -4.974885
2038, 33.333333, 2.000000, -0.535898
2039, 33.333333, 4.302043, -1.152729
2040, 33.333333, 6.149435, -1.647736
2041, 33.333333, 7.856882, -2.105245
2042, 33.333333, 9.479360, -2.539987
2043, 33.333333, 11.041447, -2.958547
2044, 33.333333, 12.557036, -3.364648
2045, 33.333333, 2.000000, -0.263305
2046, 33.333333, 4.374383, -0.575898
2047, 33.333333, 6.279828, -0.826755
2048, 33.333333, 8.040931, -1.058609
2049, 33.333333, 9.714393, -1.278924
2050, 33.333333, 11.325568, -1.491039
2051, 33.333333, 12.888783, -1.696840
2052, 33.333333, 2.000000, -0.000000
2053, 33.333333, 4.398635, -0.000000
2054, 33.333333, 6.323541, -0.000000
2055, 33.333333, 8.102632, -0.000000
2056, 33.333333, 9.793187, -0.000000
2057, 33.333333, 11.420818, -0.000000
2058, 33.333333, 13.000000, -0.000000
2059, 40.000000, 2.000000, 0.000000
2060, 40.000000, 4.398635, 0.000000
2061, 40.000000, 6.323541, 0.000000
2062, 40.000000, 8.102632, 0.000000
2063, 40.000000, 9.793187, 0.000000
2064, 40.000000, 11.420818, 0.000000
2065, 40.000000, 13.000000, 0.000000
2066, 40.000000, 2.000000, 0.263305
2067, 40.000000, 4.374383, 0.575898
2068, 40.000000, 6.279828, 0.826755
2069, 40.000000, 8.040931, 1.058609
2070, 40.000000, 9.714393, 1.278924
2071, 40.000000, 11.325568, 1.491039
2072, 40.000000, 12.888783, 1.696840
2073, 40.000000, 2.000000, 0.535898
2074, 40.000000, 4.302043, 1.152729
2075, 40.000000, 6.149435, 1.647736
2076, 40.000000, 7.856882, 2.105245
2077, 40.000000, 9.479360, 2.539987
2078, 40.000000, 11.041447, 2.958547
2079, 40.000000, 12.557036, 3.364648
2080, 40.000000, 2.000000, 0.828427
2081, 40.000000, 4.182852, 1.732594
2082, 40.000000, 5.934593, 2.458189
2083, 40.000000, 7.553636, 3.128818
2084, 40.000000, 9.092108, 3.766074
2085, 40.000000, 10.573316, 4.379611
2086, 40.000000, 12.010434, 4.974885
2087, 40.000000, 2.000000, 1.154701
2088, 40.000000, 4.018850, 2.320284
2089, 40.000000, 5.638979, 3.255666
2090, 40.000000, 7.136380, 4.120191
2091, 40.000000, 8.559264, 4.941693
2092, 40.000000, 9.929186, 5.732618
2093, 40.000000, 11.258330, 6.500000
2094, 40.000000, 2.000000, 1.534654
2095, 40.000000, 3.812843, 2.925697
2096, 40.000000, 5.267651, 4.042011
2097, 40.000000, 6.612255, 5.073762
2098, 40.000000, 7.889945, 6.054167
2099, 40.000000, 9.120078, 6.998082
2100, 40.000000, 10.313593, 7.913899
2101, 40.000000, 2.000000, 2.000000
2102, 40.000000, 3.568356, 3.568356
2103, 40.000000, 4.826963, 4.826963
2104, 40.000000, 5.990227, 5.990227
2105, 40.000000, 7.095603, 7.095603
2106, 40.000000, 8.159835, 8.159835
2107, 40.000000, 9.192388, 9.192388
2108, 40.000000, 1.534654, 2.000000
2109, 40.000000, 2.925697, 3.812843
2110, 40.000000, 4.042011, 5.267651
2111, 40.000000, 5.073762, 6.612255
2112, 40.000000, 6.054167, 7.889945
2113, 40.000000, 6.998082, 9.120078
2114, 40.000000, 7.913899, 10.313593
2115, 40.000000, 1.154701, 2.000000
2116, 40.000000, 2.320284, 4.018850
2117, 40.000000, 3.255666, 5.638979
2118, 40.000000, 4.120191, 7.136380
2119, 40.000000, 4.941693, 8.559264
2120, 40.000000, 5.732618, 9.929186
2121, 40.000000, 6.500000, 11.258330
2122, 40.000000, 0.828427, 2.000000
2123, 40.000000, 1.732594, 4.182852
2124, 40.000000, 2.458189, 5.934593
2125, 40.000000, 3.128818, 7.553636
2126, 40.000000, 3.766074, 9.092108
2127, 40.000000, 4.379611, 10.573316
2128, 40.000000, 4.974885, 12.010434
2129, 40.000000, 0.535898, 2.000000
2130, 40.000000, 1.152729, 4.302043
2131, 40.000000, 1.647736, 6.149435
2132, 40.000000, 2.105245, 7.856882
2133, 40.000000, 2.539987, 9.479360
2134, 40.000000, 2.958547, 11.041447
2135, 40.000000, 3.364648, 12.557036
2136, 40.000000, 0.263305, 2.000000
2137, 40.000000, 0.575898, 4.374383
2138, 40.000000, 0.826755, 6.279828
2139, 40.000000, 1.058609, 8.040931
2140, 40.000000, 1.278924, 9.714393
2141, 40.000000, 1.491039, 11.325568
2142, 40.000000, 1.696840, 12.888783
2143, 40.000000, 0.000000, 2.000000
2144, 40.000000, 0.000000, 4.398635
2145, 40.000000, 0.000000, 6.323541
2146, 40.000000, 0.000000, 8.102632
2147, 40.000000, 0.000000, 9.793187
2148, 40.000000, 0.000000, 11.420818
2149, 40.000000, 0.000000, 13.000000
2150, 40.000000, -0.263305, 2.000000
2151, 40.000000, -0.575898, 4.374383
2152, 40.000000, -0.826755, 6.279828
2153, 40.000000, -1.058609, 8.040931
2154, 40.000000, -1.278924, 9.714393
2155, 40.000000, -1.491039, 11.325568
2156, 40.000000, -1.696840, 12.888783
2157, 40.000000, -0.535898, 2.000000
2158, 40.000000, -1.152729, 4.302043
2159, 40.000000, -1.647736, 6.149435
2160, 40.000000, -2.105245, 7.856882
2161, 40.000000, -2.539987, 9.479360
2162, 40.000000, -2.958547, 11.041447
2163, 40.000000, -3.364648, 12.557036
2164, 40.000000, -0.828427, 2.000000
2165, 40.000000, -1.732594, 4.182852
2166, 40.000000, -2.458189, 5.934593
2167, 40.000000, -3.128818, 7.553636
2168, 40.000000, -3.766074, 9.092108
2169, 40.000000, -4.379611, 10.573316
2170, 40.000000, -4.974885, 12.010434
2171, 40.000000, -1.154701, 2.000000
2172, 40.000000, -2.320284, 4.018850
2173, 40.000000, -3.255666, 5.638979
2174, 40.000000, -4.120191, 7.136380
2175, 40.000000, -4.941693, 8.559264
2176, 40.000000, -5.732618, 9.929186
2177, 40.000000, -6.500000, 11.258330
2178, 40.000000, -1.534654, 2.000000
2179, 40.000000, -2.925697, 3.812843
2180, 40.000000, -4.042011, 5.267651
2181, 40.000000, -5.073762, 6.612255
2182, 40.000000, -6.054167, 7.889945
2183, 40.000000, -6.998082, 9.120078
2184, 40.000000, -7.913899, 10.313593
2185, 40.000000, -2.000000, 2.000000
2186, 40.000000, -3.568356, 3.568356
2187, 40.000000, -4.826963, 4.826963
2188, 40.000000, -5.990227, 5.990227
2189, 40.000000, -7.095603, 7.095603
2190, 40.000000, -8.159835, 8.159835
2191, 40.000000, -9.192388, 9.192388
2192, 40.000000, -2.000000, 1.534654
2193, 40.000000, -3.812843, 2.925697
2194, 40.000000, -5.267651, 4.042011
2195, 40.000000, -6.612255, 5.073762
2196, 40.000000, -7.889945, 6.054167
2197, 40.000000, -9.120078, 6.998082
2198, 40.000000, -10.313593, 7.913899
2199, 40.000000, -2.000000, 1.154701
2200, 40.000000, -4.018850, 2.320284
2201, 40.000000, -5.638979, 3.255666
2202, 40.000000, -7.136380, 4.120191
2203, 40.000000, -8.559264, 4.941693
2204, 40.000000, -9.929186, 5.732618
2205, 40.000000, -11.258330, 6.500000
2206, 40.000000, -2.000000, 0.828427
2207, 40.000000, -4.182852, 1.732594
2208, 40.000000, -5.934593, 2.458189
2209, 40.000000, -7.553636, 3.128818
2210, 40.000000, -9.092108, 3.766074
2211, 40.000000, -10.573316, 4.379611
2212, 40.000000, -12.010434, 4.974885
2213, 40.000000, -2.000000, 0.535898
2214, 40.000000, -4.302043, 1.152729
2215, 40.000000, -6.149435, 1.647736
2216, 40.000000, -7.856882, 2.105245
2217, 40.000000, -9.479360, 2.539987
2218, 40.000000, -11.041447, 2.958547
2219, 40.000000, -12.557036, 3.364648
2220, 40.000000, -2.000000, 0.263305
2221, 40.000000, -4.374383, 0.575898
2222, 40.000000, -6.279828, 0.826755
2223, 40.000000, -8.040931, 1.058609
2224, 40.000000, -9.714393, 1.278924
2225, 40.000000, -11.325568, 1.491039
2226, 40.000000, -12.888783, 1.696840
2227, 40.000000, -2.000000, 0.000000
2228, 40.000000, -4.398635, 0.000000
2229, 40.000000, -6.323541, 0.000000
2230, 40.000000, -8.102632, 0.000000
2231, 40.000000, -9.793187, 0.000000
2232, 40.000000, -11.420818, 0.000000
2233, 40.000000, -13.000000, 0.000000
2234, 40.000000, -2.000000, -0.263305
2235, 40.000000, -4.374383, -0.575898
2236, 40.000000, -6.279828, -0.826755
2237, 40.000000, -8.040931, -1.058609
2238, 40.000000, -9.714393, -1.278924
2239, 40.000000, -11.325568, -1.491039
2240, 40.000000, -12.888783, -1.696840
2241, 40.000000, -2.000000, -0.535898
2242, 40.000000, -4.302043, -1.152729
2243, 40.000000, -6.149435, -1.647736
2244, 40.000000, -7.856882, -2.105245
2245, 40.000000, -9.479360, -2.539987
2246, 40.000000, -11.041447, -2.958547
2247, 40.000000, -12.557036, -3.364648
2248, 40.000000, -2.000000, -0.828427
2249, 40.000000, -4.182852, -1.732594
2250, 40.000000, -5.934593, -2.458189
2251, 40.000000, -7.553636, -3.128818
2252, 40.000000, -9.092108, -3.766074
2253, 40.000000, -10.573316, -4.379611
2254, 40.000000, -12.010434, -4.974885
2255, 40.000000, -2.000000, -1.154701
2256, 40.000000, -4.018850, -2.320284
2257, 40.000000, -5.638979, -3.255666
2258, 40.000000, -7.136380, -4.120191
2259, 40.000000, -8.559264, -4.941693
2260, 40.000000, -9.929186, -5.732618
2261, 40.000000, -11.258330, -6.500000
2262, 40.000000, -2.000000, -1.534654
2263, 40.000000, -3.812843, -2.925697
2264, 40.000000, -5.267651, -4.042011
2265, 40.000000, -6.612255, -5.073762
2266, 40.000000, -7.889945, -6.054167
2267, 40.000000, -9.120078, -6.998082
2268, 40.000000, -10.313593, -7.913899
2269, 40.000000, -2.000000, -2.000000
2270, 40.000000, -3.568356, -3.568356
2271, 40.000000, -4.826963, -4.826963
2272, 40.000000, -5.990227, -5.990227
2273, 40.000000, -7.095603, -7.095603
2274, 40.000000, -8.159835, -8.159835
2275, 40.000000, -9.192388, -9.192388
2276, 40.000000, -1.534654, -2.000000
2277, 40.000000, -2.925697, -3.812843
2278, 40.000000, -4.042011, -5.267651
2279, 40.000000, -5.073762, -6.612255
2280, 40.000000, -6.054167, -7.889945
2281, 40.000000, -6.998082, -9.120078
2282, 40.000000, -7.913899, -10.313593
2283, 40.000000, -1.154701, -2.000000
2284, 40.000000, -2.320284, -4.018850
2285, 40.000000, -3.255666, -5.638979
2286, 40.000000, -4.120191, -7.136380
2287, 40.000000, -4.941693, -8.559264
2288, 40.000000, -5.732618, -9.929186
2289, 40.000000, -6.500000, -11.258330
2290, 40.000000, -0.828427, -2.000000
2291, 40.000000, -1.732594, -4.182852
2292, 40.000000, -2.458189, -5.934593
2293, 40.000000, -3.128818, -7.553636
2294, 40.000000, -3.766074, -9.092108
2295, 40.000000, -4.379611, -10.573316
2296, 40.000000, -4.974885, -12.010434
2297, 40.000000, -0.535898, -2.000000
2298, 40.000000, -1.152729, -4.302043
2299, 40.000000, -1.647736, -6.149435
2300, 40.000000, -2.105245, -7.856882
2301, 40.000000, -2.539987, -9.479360
2302, 40.000000, -2.958547, -11.041447
2303, 40.000000, -3.364648, -12.557036
2304, 40.000000, -0.263305, -2.000000
2305, 40.000000, -0.575898, -4.374383
2306, 40.000000, -0.826755, -6.279828
2307, 40.000000, -1.058609, -8.040931
2308, 40.000000, -1.278924, -9.714393
2309, 40.000000, -1.491039, -11.325568
2310, 40.000000, -1.696840, -12.888783
2311, 40.000000, -0.000000, -2.000000
2312, 40.000000, -0.000000, -4.398635
2313, 40.000000, -0.000000, -6.323541
2314, 40.000000, -0.000000, -8.102632
2315, 40.000000, -0.000000, -9.793187
2316, 40.000000, -0.000000, -11.420818
2317, 40.000000, -0.000000, -13.000000
2318, 40.000000, 0.263305, -2.000000
2319, 40.000000, 0.575898, -4.374383
2320, 40.000000, 0.826755, -6.279828
2321, 40.000000, 1.058609, -8.040931
2322, 40.000000, 1.278924, -9.714393
2323, 40.000000, 1.491039, -11.325568
2324, 40.000000, 1.696840, -12.888783
2325, 40.000000, 0.535898, -2.000000
2326, 40.000000, 1.152729, -4.302043
2327, 40.000000, 1.647736, -6.149435
2328, 40.000000, 2.105245, -7.856882
2329, 40.000000, 2.539987, -9.479360
2330, 40.000000, 2.958547, -11.041447
2331, 40.000000, 3.364648, -12.557036
2332, 40.000000, 0.828427, -2.000000
2333, 40.000000, 1.732594, -4.182852
2334, 40.000000, 2.458189, -5.934593
2335, 40.000000, 3.128818, -7.553636
2336, 40.000000, 3.766074, -9.092108
2337, 40.000000, 4.379611, -10.573316
2338, 40.000000, 4.974885, -12.010434
2339, 40.000000, 1.154701, -2.000000
2340, 40.000000, 2.320284, -4.018850
2341, 40.000000, 3.255666, -5.638979
2342, 40.000000, 4.120191, -7.136380
2343, 40.000000, 4.941693, -8.559264
2344, 40.000000, 5.732618, -9.929186
2345, 40.000000, 6.500000, -11.258330
2346, 40.000000, 1.534654, -2.000000
2347, 40.000000, 2.925697, -3.812843
2348, 40.000000, 4.042011, -5.267651
2349, 40.000000, 5.073762, -6.612255
2350, 40.000000, 6.054167, -7.889945
2351, 40.000000, 6.998082, -9.120078
2352, 40.000000, 7.913899, -10.313593
2353, 40.000000, 2.000000, -2.000000
2354, 40.000000, 3.568356, -3.568356
2355, 40.000000, 4.826963, -4.826963
2356, 40.000000, 5.990227, -5.990227
2357, 40.000000, 7.095603, -7.095603
2358, 40.000000, 8.159835, -8.159835
2359, 40.000000, 9.192388, -9.192388
2360, 40.000000, 2.000000, -1.534654
2361, 40.000000, 3.812843, -2.925697
2362, 40.000000, 5.267651, -4.042011
2363, 40.000000, 6.612255, -5.073762
2364, 40.000000, 7.889945, -6.054167
2365, 40.000000, 9.120078, -6.998082
2366, 40.000000, 10.313593, -7.913899
2367, 40.000000, 2.000000, -1.154701
2368, 40.000000, 4.018850, -2.320284
2369, 40.000000, 5.638979, -3.255666
2370, 40.000000, 7.136380, -4.120191
2371, 40.000000, 8.559264, -4.941693
2372, 40.000000, 9.929186, -5.732618
2373, 40.000000, 11.258330, -6.500000
2374, 40.000000, 2.000000, -0.828427
2375, 40.000000, 4.182852, -1.732594
2376, 40.000000, 5.934593, -2.458189
2377, 40.000000, 7.553636, -3.128818
2378, 40.000000, 9.092108, -3.766074
2379, 40.000000, 10.573316, -4.379611
2380, 40.000000, 12.010434, -4.974885
2381, 40.000000, 2.000000, -0.535898
2382, 40.000000, 4.302043, -1.152729
2383, 40.000000, 6.149435, -1.647736
2384, 40.000000, 7.856882, -2.105245
2385, 40.000000, 9.479360, -2.539987
2386, 40.000000, 11.041447, -2.958547
2387, 40.000000, 12.557036, -3.364648
2388, 40.000000, 2.000000, -0.263305
2389, 40.000000, 4.374383, -0.575898
2390, 40.000000, 6.279828, -0.826755
2391, 40.000000, 8.040931, -1.058609
2392, 40.000000, 9.714393, -1.278924
2393, 40.000000, 11.325568, -1.491039
2394, 40.000000, 12.888783, -1.696840
2395, 40.000000, 2.000000, -0.000000
2396, 40.000000, 4.398635, -0.000000
2397, 40.000000, 6.323541, -0.000000
2398, 40.000000, 8.102632, -0.000000
2399, 40.000000, 9.793187, -0.000000
2400, 40.000000, 11.420818, -0.000000
2401, 40.000000, 13.000000, -0.000000
2402, 46.666667, 2.000000, 0.000000
2403, 46.666667, 4.398635, 0.000000
2404, 46.666667, 6.323541, 0.000000
2405, 46.666667, 8.102632, 0.000000
2406, 46.666667, 9.793187, 0.000000
2407, 46.666667, 11.420818, 0.000000
2408, 46.666667, 13.000000, 0.000000
2409, 46.666667, 2.000000, 0.263305
2410, 46.666667, 4.374383, 0.575898
2411, 46.666667, 6.279828, 0.826755
2412, 46.666667, 8.040931, 1.058609
2413, 46.666667, 9.714393, 1.278924
2414, 46.666667, 11.325568, 1.491039
2415, 46.666667, 12.888783, 1.696840
2416, 46.666667, 2.000000, 0.535898
2417, 46.666667, 4.302043, 1.152729
2418, 46.666667, 6.149435, 1.647736
2419, 46.666667, 7.856882, 2.105245
2420, 46.666667, 9.479360, 2.539987
2421, 46.666667, 11.041447, 2.958547
2422, 46.666667, 12.557036, 3.364648
2423, 46.666667, 2.000000, 0.828427
2424, 46.666667, 4.182852, 1.732594
2425, 46.666667, 5.934593, 2.458189
2426, 46.666667, 7.553636, 3.128818
2427, 46.666667, 9.092108, 3.766074
2428, 46.666667, 10.573316, 4.379611
2429, 46.666667, 12.010434, 4.974885
2430, 46.666667, 2.000000, 1.154701
2431, 46.666667, 4.018850, 2.320284
2432, 46.666667, 5.638979, 3.255666
2433, 46.666667, 7.136380, 4.120191
2434, 46.666667, 8.559264, 4.941693
2435, 46.666667, 9.929186, 5.732618
2436, 46.666667, 11.258330, 6.500000
2437, 46.666667, 2.000000, 1.534654
2438, 46.666667, 3.812843, 2.925697
2439, 46.666667, 5.267651, 4.042011
2440, 46.666667, 6.612255, 5.073762
2441, 46.666667, 7.889945, 6.054167
2442, 46.666667, 9.120078, 6.998082
2443, 46.666667, 10.313593, 7.913899
2444, 46.666667, 2.000000, 2.000000
2445, 46.666667, 3.568356, 3.568356
2446, 46.666667, 4.826963, 4.826963
2447, 46.666667, 5.990227, 5.990227
2448, 46.666667, 7.095603, 7.095603
2449, 46.666667, 8.159835, 8.159835
2450, 46.666667, 9.192388, 9.192388
2451, 46.666667, 1.534654, 2.000000
2452, 46.666667, 2.925697, 3.812843
2453, 46.666667, 4.042011, 5.267651
2454, 46.666667, 5.073762, 6.612255
2455, 46.666667, 6.054167, 7.889945
2456, 46.666667, 6.998082, 9.120078
2457, 46.666667, 7.913899, 10.313593
2458, 46.666667, 1.154701, 2.000000
2459, 46.666667, 2.320284, 4.018850
2460, 46.666667, 3.255666, 5.638979
2461, 46.666667, 4.120191, 7.136380
2462, 46.666667, 4.941693, 8.559264
2463, 46.666667, 5.732618, 9.929186
2464, 46.666667, 6.500000, 11.258330
2465, 46.666667, 0.828427, 2.000000
2466, 46.666667, 1.732594, 4.182852
2467, 46.666667, 2.458189, 5.934593
2468, 46.666667, 3.128818, 7.553636
2469, 46.666667, 3.766074, 9.092108
2470, 46.666667, 4.379611, 10.573316
2471, 46.666667, 4.974885, 12.010434
2472, 46.666667, 0.535898, 2.000000
2473, 46.666667, 1.152729, 4.302043
2474, 46.666667, 1.647736, 6.149435
2475, 46.666667, 2.105245, 7.856882
2476, 46.666667, 2.539987, 9.479360
2477, 46.666667, 2.958547, 11.041447
2478, 46.666667, 3.364648, 12.557036
2479, 46.666667, 0.263305, 2.000000
2480, 46.666667, 0.575898, 4.374383
2481, 46.666667, 0.826755, 6.279828
2482, 46.666667, 1.058609, 8.040931
2483, 46.666667, 1.278924, 9.714393
2484, 46.666667, 1.491039, 11.325568
2485, 46.666667, 1.696840, 12.888783
2486, 46.666667, 0.000000, 2.000000
2487, 46.666667, 0.000000, 4.398635
2488, 46.666667, 0.000000, 6.323541
2489, 46.666667, 0.000000, 8.102632
2490, 46.666667, 0.000000, 9.793187
2491, 46.666667, 0.000000, 11.420818
2492, 46.666667, 0.000000, 13.000000
2493, 46.666667, -0.263305, 2.000000
2494, 46.666667, -0.575898, 4.374383
2495, 46.666667, -0.826755, 6.279828
2496, 46.666667, -1.058609, 8.040931
2497, 46.666667, -1.278924, 9.714393
2498, 46.666667, -1.491039, 11.325568
2499, 46.666667, -1.696840, 12.888783
2500, 46.666667, -0.535898, 2.000000
2501, 46.666667, -1.152729, 4.302043
2502, 46.666667, -1.647736, 6.149435
2503, 46.666667, -2.105245, 7.856882
2504, 46.666667, -2.539987, 9.479360
2505, 46.666667, -2.958547, 11.041447
2506, 46.666667, -3.364648, 12.557036
2507, 46.666667, -0.828427, 2.000000
2508, 46.666667, -1.732594, 4.182852
2509, 46.666667, -2.458189, 5.934593
2510, 46.666667, -3.128818, 7.553636
2511, 46.666667, -3.766074, 9.092108
2512, 46.666667, -4.379611, 10.573316
2513, 46.666667, -4.974885, 12.010434
2514, 46.666667, -1.154701, 2.000000
2515, 46.666667, -2.320284, 4.018850
2516, 46.666667, -3.255666, 5.638979
2517, 46.666667, -4.120191, 7.136380
2518, 46.666667, -4.941693, 8.559264
2519, 46.666667, -5.732618, 9.929186
2520, 46.666667, -6.500000, 11.258330
2521, 46.666667, -1.534654, 2.000000
2522, 46.666667, -2.925697, 3.812843
2523, 46.666667, -4.042011, 5.267651
2524, 46.666667, -5.073762, 6.612255
2525, 46.666667, -6.054167, 7.889945
2526, 46.666667, -6.998082, 9.120078
2527, 46.666667, -7.913899, 10.313593
2528, 46.666667, -2.000000, 2.000000
2529, 46.666667, -3.568356, 3.568356
2530, 46.666667, -4.826963, 4.826963
2531, 46.666667, -5.990227, 5.990227
2532, 46.666667, -7.095603, 7.095603
2533, 46.666667, -8.159835, 8.159835
2534, 46.666667, -9.192388, 9.192388
2535, 46.666667, -2.000000, 1.534654
2536, 46.666667, -3.812843, 2.925697
2537, 46.666667, -5.267651, 4.042011
2538, 46.666667, -6.612255, 5.073762
2539, 46.666667, -7.889945, 6.054167
2540, 46.666667, -9.120078, 6.998082
2541, 46.666667, -10.313593, 7.913899
2542, 46.666667, -2.000000, 1.154701
2543, 46.666667, -4.018850, 2.320284
2544, 46.666667, -5.638979, 3.255666
2545, 46.666667, -7.136380, 4.120191
2546, 46.666667, -8.559264, 4.941693
2547, 46.666667, -9.929186, 5.732618
2548, 46.666667, -11.258330, 6.500000
2549, 46.666667, -2.000000, 0.828427
2550, 46.666667, -4.182852, 1.732594
2551, 46.666667, -5.934593, 2.458189
2552, 46.666667, -7.553636, 3.128818
2553, 46.666667, -9.092108, 3.766074
2554, 46.666667, -10.573316, 4.379611
2555, 46.666667, -12.010434, 4.974885
2556, 46.666667, -2.000000, 0.535898
2557, 46.666667, -4.302043, 1.152729
2558, 46.666667, -6.149435, 1.647736
2559, 46.666667, -7.856882, 2.105245
2560, 46.666667, -9.479360, 2.539987
2561, 46.666667, -11.041447, 2.958547
2562, 46.666667, -12.557036, 3.364648
2563, 46.666667, -2.000000, 0.263305
2564, 46.666667, -4.374383, 0.575898
2565, 46.666667, -6.279828, 0.826755
2566, 46.666667, -8.040931, 1.058609
2567, 46.666667, -9.714393, 1.278924
2568, 46.666667, -11.325568, 1.491039
2569, 46.666667, -12.888783, 1.696840
2570, 46.666667, -2.000000, 0.000000
2571, 46.666667, -4.398635, 0.000000
2572, 46.666667, -6.323541, 0.000000
2573, 46.666667, -8.102632, 0.000000
2574, 46.666667, -9.793187, 0.000000
2575, 46.666667, -11.420818, 0.000000
2576, 46.666667, -13.000000, 0.000000
2577, 46.666667, -2.000000, -0.263305
2578, 46.666667, -4.374383, -0.575898
2579, 46.666667, -6.279828, -0.826755
2580, 46.666667, -8.040931, -1.058609
2581, 46.666667, -9.714393, -1.278924
2582, 46.666667, -11.325568, -1.491039
2583, 46.666667, -12.888783, -1.696840
2584, 46.666667, -2.000000, -0.535898
2585, 46.666667, -4.302043, -1.152729
2586, 46.666667, -6.149435, -1.647736
2587, 46.666667, -7.856882, -2.105245
2588, 46.666667, -9.479360, -2.539987
2589, 46.666667, -11.041447, -2.958547
2590, 46.666667, -12.557036, -3.364648
2591, 46.666667, -2.000000, -0.828427
2592, 46.666667, -4.182852, -1.732594
2593, 46.666667, -5.934593, -2.458189
2594, 46.666667, -7.553636, -3.128818
2595, 46.666667, -9.092108, -3.766074
2596, 46.666667, -10.573316, -4.379611
2597, 46.666667, -12.010434, -4.974885
2598, 46.666667, -2.000000, -1.154701
2599, 46.666667, -4.018850, -2.320284
2600, 46.666667, -5.638979, -3.255666
2601, 46.666667, -7.136380, -4.120191
2602, 46.666667, -8.559264, -4.941693
2603, 46.666667, -9.929186, -5.732618
2604, 46.666667, -11.258330, -6.500000
2605, 46.666667, -2.000000, -1.534654
2606, 46.666667, -3.812843, -2.925697
2607, 46.666667, -5.267651, -4.042011
2608, 46.666667, -6.612255, -5.073762
2609, 46.666667, -7.889945, -6.054167
2610, 46.666667, -9.120078, -6.998082
2611, 46.666667, -10.313593, -7.913899
2612, 46.666667, -2.000000, -2.000000
2613, 46.666667, -3.568356, -3.568356
2614, 46.666667, -4.826963, -4.826963
2615, 46.666667, -5.990227, -5.990227
2616, 46.666667, -7.095603, -7.095603
2617, 46.666667, -8.159835, -8.159835
2618, 46.666667, -9.192388, -9.192388
2619, 46.666667, -1.534654, -2.000000
2620, 46.666667, -2.925697, -3.812843
2621, 46.666667, -4.042011, -5.267651
2622, 46.666667, -5.073762, -6.612255
2623, 46.666667, -6.054167, -7.889945
2624, 46.666667, -6.998082, -9.120078
2625, 46.666667, -7.913899, -10.313593
2626, 46.666667, -1.154701, -2.000000
2627, 46.666667, -2.320284, -4.018850
2628, 46.666667, -3.255666, -5.638979
2629, 46.666667, -4.120191, -7.136380
2630, 46.666667, -4.941693, -8.559264
2631, 46.666667, -5.732618, -9.929186
2632, 46.666667, -6.500000, -11.258330
2633, 46.666667, -0.828427, -2.000000
2634, 46.666667, -1.732594, -4.182852
2635, 46.666667, -2.458189, -5.934593
2636, 46.666667, -3.128818, -7.553636
2637, 46.666667, -3.766074, -9.092108
2638, 46.666667, -4.379611, -10.573316
2639, 46.666667, -4.974885, -12.010434
2640, 46.666667, -0.535898, -2.000000
2641, 46.666667, -1.152729, -4.302043
2642, 46.666667, -1.647736, -6.149435
2643, 46.666667, -2.105245, -7.856882
2644, 46.666667, -2.539987, -9.479360
2645, 46.666667, -2.958547, -11.041447
2646, 46.666667, -3.364648, -12.557036
2647, 46.666667, -0.263305, -2.000000
2648, 46.666667, -0.575898, -4.374383
2649, 46.666667, -0.826755, -6.279828
2650, 46.666667, -1.058609, -8.040931
2651, 46.666667, -1.278924, -9.714393
2652, 46.666667, -1.491039, -11.325568
2653, 46.666667, -1.696840, -12.888783
2654, 46.666667, -0.000000, -2.000000
2655, 46.666667, -0.000000, -4.398635
2656, 46.666667, -0.000000, -6.323541
2657, 46.666667, -0.000000, -8.102632
2658, 46.666667, -0.000000, -9.793187
2659, 46.666667, -0.000000, -11.420818
2660, 46.666667, -0.000000, -13.000000
2661, 46.666667, 0.263305, -2.000000
2662, 46.666667, 0.575898, -4.374383
2663, 46.666667, 0.826755, -6.279828
2664, 46.666667, 1.058609, -8.040931
2665, 46.666667, 1.278924, -9.714393
2666, 46.666667, 1.491039, -11.325568
2667, 46.666667, 1.696840, -12.888783
2668, 46.666667, 0.535898, -2.000000
2669, 46.666667, 1.152729, -4.302043
2670, 46.666667, 1.647736, -6.149435
2671, 46.666667, 2.105245, -7.856882
2672, 46.666667, 2.539987, -9.479360
2673, 46.666667, 2.958547, -11.041447
2674, 46.666667, 3.364648, -12.557036
2675, 46.666667, 0.828427, -2.000000
2676, 46.666667, 1.732594, -4.182852
2677, 46.666667, 2.458189, -5.934593
2678, 46.666667, 3.128818, -7.553636
2679, 46.666667, 3.766074, -9.092108
2680, 46.666667, 4.379611, -10.573316
2681, 46.666667, 4.974885, -12.010434
2682, 46.666667, 1.154701, -2.000000
2683, 46.666667, 2.320284, -4.018850
2684, 46.666667, 3.255666, -5.638979
2685, 46.666667, 4.120191, -7.136380
2686, 46.666667, 4.941693, -8.559264
2687, 46.666667, 5.732618, -9.929186
2688, 46.666667, 6.500000, -11.258330
2689, 46.666667, 1.534654, -2.000000
2690, 46.666667, 2.925697, -3.812843
2691, 46.666667, 4.042011, -5.267651
2692, 46.666667, 5.073762, -6.612255
2693, 46.666667, 6.054167, -7.889945
2694, 46.666667, 6.998082, -9.120078
2695, 46.666667, 7.913899, -10.313593
2696, 46.666667, 2.000000, -2.000000
2697, 46.666667, 3.568356, -3.568356
2698, 46.666667, 4.826963, -4.826963
2699, 46.666667, 5.990227, -5.990227
2700, 46.666667, 7.095603, -7.095603
2701, 46.666667, 8.159835, -8.159835
2702, 46.666667, 9.192388, -9.192388
2703, 46.666667, 2.000000, -1.534654
2704, 46.666667, 3.812843, -2.925697
2705, 46.666667, 5.267651, -4.042011
2706, 46.666667, 6.612255, -5.073762
2707, 46.666667, 7.889945, -6.054167
2708, 46.666667, 9.120078, -6.998082
2709, 46.666667, 10.313593, -7.913899
2710, 46.666667, 2.000000, -1.154701
2711, 46.666667, 4.018850, -2.320284
2712, 46.666667, 5.638979, -3.255666
2713, 46.666667, 7.136380, -4.120191
2714, 46.666667, 8.559264, -4.941693
2715, 46.666667, 9.929186, -5.732618
2716, 46.666667, 11.258330, -6.500000
2717, 46.666667, 2.000000, -0.828427
2718, 46.666667, 4.182852, -1.732594
2719, 46.666667, 5.934593, -2.458189
2720, 46.666667, 7.553636, -3.128818
2721, 46.666667, 9.092108, -3.766074
2722, 46.666667, 10.573316, -4.379611
2723, 46.666667, 12.010434, -4.974885
2724, 46.666667, 2.000000, -0.535898
2725, 46.666667, 4.302043, -1.152729
2726, 46.666667, 6.149435, -1.647736
2727, 46.666667, 7.856882, -2.105245
2728, 46.666667, 9.479360, -2.539987
2729, 46.666667, 11.041447, -2.958547
2730, 46.666667, 12.557036, -3.364648
2731, 46.666667, 2.000000, -0.263305
2732, 46.666667, 4.374383, -0.575898
2733, 46.666667, 6.279828, -0.826755
2734, 46.666667, 8.040931, -1.058609
2735, 46.666667, 9.714393, -1.278924
2736, 46.666667, 11.325568, -1.491039
2737, 46.666667, 12.888783, -1.696840
2738, 46.666667, 2.000000, -0.000000
2739, 46.666667, 4.398635, -0.000000
2740, 46.666667, 6.323541, -0.000000
2741, 46.666667, 8.102632, -0.000000
2742, 46.666667, 9.793187, -0.000000
2743, 46.666667, 11.420818, -0.000000
2744, 46.666667, 13.000000, -0.000000
2745, 53.333333, 2.000000, 0.000000
2746, 53.333333, 4.398635, 0.000000
2747, 53.333333, 6.323541, 0.000000
2748, 53.333333, 8.102632, 0.000000
2749, 53.333333, 9.793187, 0.000000
2750, 53.333333, 11.420818, 0.000000
2751, 53.333333, 13.000000, 0.000000
2752, 53.333333, 2.000000, 0.263305
2753, 53.333333, 4.374383, 0.575898
2754, 53.333333, 6.279828, 0.826755
2755, 53.333333, 8.040931, 1.058609
2756, 53.333333, 9.714393, 1.278924
2757, 53.333333, 11.325568, 1.491039
2758, 53.333333, 12.888783, 1.696840
2759, 53.333333, 2.000000, 0.535898
2760, 53.333333, 4.302043, 1.152729
2761, 53.333333, 6.149435, 1.647736
2762, 53.333333, 7.856882, 2.105245
2763, 53.333333, 9.479360, 2.539987
2764, 53.333333, 11.041447, 2.958547
2765, 53.333333, 12.557036, 3.364648
2766, 53.333333, 2.000000, 0.828427
2767, 53.333333, 4.182852, 1.732594
2768, 53.333333, 5.934593, 2.458189
2769, 53.333333, 7.553636, 3.128818
2770, 53.333333, 9.092108, 3.766074
2771, 53.333333, 10.573316, 4.379611
2772, 53.333333, 12.010434, 4.974885
2773, 53.333333, 2.000000, 1.154701
2774, 53.333333, 4.018850, 2.320284
2775, 53.333333, 5.638979, 3.255666
2776, 53.333333, 7.136380, 4.120191
2777, 53.333333, 8.559264, 4.941693
2778, 53.333333, 9.929186, 5.732618
2779, 53.333333, 11.258330, 6.500000
2780, 53.333333, 2.000000, 1.534654
2781, 53.333333, 3.812843, 2.925697
2782, 53.333333, 5.267651, 4.042011
2783, 53.333333, 6.612255, 5.073762
2784, 53.333333, 7.889945, 6.054167
2785, 53.333333, 9.120078, 6.998082
2786, 53.333333, 10.313593, 7.913899
2787, 53.333333, 2.000000, 2.000000
2788, 53.333333, 3.568356, 3.568356
2789, 53.333333, 4.826963, 4.826963
2790, 53.333333, 5.990227, 5.990227
2791, 53.333333, 7.095603, 7.095603
2792, 53.333333, 8.159835, 8.159835
2793, 53.333333, 9.192388, 9.192388
2794, 53.333333, 1.534654, 2.000000
2795, 53.333333, 2.925697, 3.812843
2796, 53.333333, 4.042011, 5.267651
2797, 53.333333, 5.073762, 6.612255
2798, 53.333333, 6.054167, 7.889945
2799, 53.333333, 6.998082, 9.120078
2800, 53.333333, 7.913899, 10.313593
2801, 53.333333, 1.154701, 2.000000
2802, 53.333333, 2.320284, 4.018850
2803, 53.333333, 3.255666, 5.638979
2804, 53.333333, 4.120191, 7.136380
2805, 53.333333, 4.941693, 8.559264
2806, 53.333333, 5.732618, 9.929186
2807, 53.333333, 6.500000, 11.258330
2808, 53.333333, 0.828427, 2.000000
2809, 53.333333, 1.732594, 4.182852
2810, 53.333333, 2.458189, 5.934593
2811, 53.333333, 3.128818, 7.553636
2812, 53.333333, 3.766074, 9.092108
2813, 53.333333, 4.379611, 10.573316
2814, 53.333333, 4.974885, 12.010434
2815, 53.333333, 0.535898, 2.000000
2816, 53.333333, 1.152729, 4.302043
2817, 53.333333, 1.647736, 6.149435
2818, 53.333333, 2.105245, 7.856882
2819, 53.333333, 2.539987, 9.479360
2820, 53.333333, 2.958547, 11.041447
2821, 53.333333, 3.364648, 12.557036
2822, 53.333333, 0.263305, 2.000000
2823, 53.333333, 0.575898, 4.374383
2824, 53.333333, 0.826755, 6.279828
2825, 53.333333, 1.058609, 8.040931
2826, 53.333333, 1.278924, 9.714393
2827, 53.333333, 1.491039, 11.325568
2828, 53.333333, 1.696840, 12.888783
2829, 53.333333, 0.000000, 2.000000
2830, 53.333333, 0.000000, 4.398635
2831, 53.333333, 0.000000, 6.323541
2832, 53.333333, 0.000000, 8.102632
2833, 53.333333, 0.000000, 9.793187
2834, 53.333333, 0.000000, 11.420818
2835, 53.333333, 0.000000, 13.000000
2836, 53.333333, -0.263305, 2.000000
2837, 53.333333, -0.575898, 4.374383
2838, 53.333333, -0.826755, 6.279828
2839, 53.333333, -1.058609, 8.040931
2840, 53.333333, -1.278924, 9.714393
2841, 53.333333, -1.491039, 11.325568
2842, 53.333333, -1.696840, 12.888783
2843, 53.333333, -0.535898, 2.000000
2844, 53.333333, -1.152729, 4.302043
2845, 53.333333, -1.647736, 6.149435
2846, 53.333333, -2.105245, 7.856882
2847, 53.333333, -2.539987, 9.479360
2848, 53.333333, -2.958547, 11.041447
2849, 53.333333, -3.364648, 12.557036
2850, 53.333333, -0.828427, 2.000000
2851, 53.333333, -1.732594, 4.182852
2852, 53.333333, -2.458189, 5.934593
2853, 53.333333, -3.128818, 7.553636
2854, 53.333333, -3.766074, 9.092108
2855, 53.333333, -4.379611, 10.573316
2856, 53.333333, -4.974885, 12.010434
2857, 53.333333, -1.154701, 2.000000
2858, 53.333333, -2.320284, 4.018850
2859, 53.333333, -3.255666, 5.638979
2860, 53.333333, -4.120191, 7.136380
2861, 53.333333, -4.941693, 8.559264
2862, 53.333333, -5.732618, 9.929186
2863, 53.333333, -6.500000, 11.258330
2864, 53.333333, -1.534654, 2.000000
2865, 53.333333, -2.925697, 3.812843
2866, 53.333333, -4.042011, 5.267651
2867, 53.333333, -5.073762, 6.612255
2868, 53.333333, -6.054167, 7.889945
2869, 53.333333, -6.998082, 9.120078
2870, 53.333333, -7.913899, 10.313593
2871, 53.333333, -2.000000, 2.000000
2872, 53.333333, -3.568356, 3.568356
2873, 53.333333, -4.826963, 4.826963
2874, 53.333333, -5.990227, 5.990227
2875, 53.333333, -7.095603, 7.095603
2876, 53.333333, -8.159835, 8.159835
2877, 53.333333, -9.192388, 9.192388
2878, 53.333333, -2.000000, 1.534654
2879, 53.333333, -3.812843, 2.925697
2880, 53.333333, -5.267651, 4.042011
2881, 53.333333, -6.612255, 5.073762
2882, 53.333333, -7.889945, 6.054167
2883, 53.333333, -9.120078, 6.998082
2884, 53.333333, -10.313593, 7.913899
2885, 53.333333, -2.000000, 1.154701
2886, 53.333333, -4.018850, 2.320284
2887, 53.333333, -5.638979, 3.255666
2888, 53.333333, -7.136380, 4.120191
2889, 53.333333, -8.559264, 4.941693
2890, 53.333333, -9.929186, 5.732618
2891, 53.333333, -11.258330, 6.500000
2892, 53.333333, -2.000000, 0.828427
2893, 53.333333, -4.182852, 1.732594
2894, 53.333333, -5.934593, 2.458189
2895, 53.333333, -7.553636, 3.128818
2896, 53.333333, -9.092108, 3.766074
2897, 53.333333, -10.573316, 4.379611
2898, 53.333333, -12.010434, 4.974885
2899, 53.333333, -2.000000, 0.535898
2900, 53.333333, -4.302043, 1.152729
2901, 53.333333, -6.149435, 1.647736
2902, 53.333333, -7.856882, 2.105245
2903, 53.333333, -9.479360, 2.539987
2904, 53.333333, -11.041447, 2.958547
2905, 53.333333, -12.557036, 3.364648
2906, 53.333333, -2.000000, 0.263305
2907, 53.333333, -4.374383, 0.575898
2908, 53.333333, -6.279828, 0.826755
2909, 53.333333, -8.040931, 1.058609
2910, 53.333333, -9.714393, 1.278924
2911, 53.333333, -11.325568, 1.491039
2912, 53.333333, -12.888783, 1.696840
2913, 53.333333, -2.000000, 0.000000
2914, 53.333333, -4.398635, 0.000000
2915, 53.333333, -6.323541, 0.000000
2916, 53.333333, -8.102632, 0.000000
2917, 53.333333, -9.793187, 0.000000
2918, 53.333333, -11.420818, 0.000000
2919, 53.333333, -13.000000, 0.000000
2920, 53.333333, -2.000000, -0.263305
2921, 53.333333, -4.374383, -0.575898
2922, 53.333333, -6.279828, -0.826755
2923, 53.333333, -8.040931, -1.058609
2924, 53.333333, -9.714393, -1.278924
2925, 53.333333, -11.325568, -1.491039
2926, 53.333333, -12.888783, -1.696840
2927, 53.333333, -2.000000, -0.535898
2928, 53.333333, -4.302043, -1.152729
2929, 53.333333, -6.149435, -1.647736
2930, 53.333333, -7.856882, -2.105245
2931, 53.333333, -9.479360, -2.539987
2932, 53.333333, -11.041447, -2.958547
2933, 53.333333, -12.557036, -3.364648
2934, 53.333333, -2.000000, -0.828427
2935, 53.333333, -4.182852, -1.732594
2936, 53.333333, -5.934593, -2.458189
2937, 53.333333, -7.553636, -3.128818
2938, 53.333333, -9.092108, -3.766074
2939, 53.333333, -10.573316, -4.379611
2940, 53.333333, -12.010434, -4.974885
2941, 53.333333, -2.000000, -1.154701
2942, 53.333333, -4.018850, -2.320284
2943, 53.333333, -5.638979, -3.255666
2944, 53.333333, -7.136380, -4.120191
2945, 53.333333, -8.559264, -4.941693
2946, 53.333333, -9.929186, -5.732618
2947, 53.333333, -11.258330, -6.500000
2948, 53.333333, -2.000000, -1.534654
2949, 53.333333, -3.812843, -2.925697
2950, 53.333333, -5.267651, -4.042011
2951, 53.333333, -6.612255, -5.073762
2952, 53.333333, -7.889945, -6.054167
2953, 53.333333, -9.120078, -6.998082
2954, 53.333333, -10.313593, -7.913899
2955, 53.333333, -2.000000, -2.000000
2956, 53.333333, -3.568356, -3.568356
2957, 53.333333, -4.826963, -4.826963
2958, 53.333333, -5.990227, -5.990227
2959, 53.333333, -7.095603, -7.095603
2960, 53.333333, -8.159835, -8.159835
2961, 53.333333, -9.192388, -9.192388
2962, 53.333333, -1.534654, -2.000000
2963, 53.333333, -2.925697, -3.812843
2964, 53.333333, -4.042011, -5.267651
2965, 53.333333, -5.073762, -6.612255
2966, 53.333333, -6.054167, -7.889945
2967, 53.333333, -6.998082, -9.120078
2968, 53.333333, -7.913899, -10.313593
2969, 53.333333, -1.154701, -2.000000
2970, 53.333333, -2.320284, -4.018850
2971, 53.333333, -3.255666, -5.638979
2972, 53.333333, -4.120191, -7.136380
2973, 53.333333, -4.941693, -8.559264
2974, 53.333333, -5.732618, -9.929186
2975, 53.333333, -6.500000, -11.258330
2976, 53.333333, -0.828427, -2.000000
2977, 53.333333, -1.732594, -4.182852
2978, 53.333333, -2.458189, -5.934593
2979, 53.333333, -3.128818, -7.553636
2980, 53.333333, -3.766074, -9.092108
2981, 53.333333, -4.379611, -10.573316
2982, 53.333333, -4.974885, -12.010434
2983, 53.333333, -0.535898, -2.000000
2984, 53.333333, -1.152729, -4.302043
2985, 53.333333, -1.647736, -6.149435
2986, 53.333333, -2.105245, -7.856882
2987, 53.333333, -2.539987, -9.479360
2988, 53.333333, -2.958547, -11.041447
2989, 53.333333, -3.364648, -12.557036
2990, 53.333333, -0.263305, -2.000000
2991, 53.333333, -0.575898, -4.374383
2992, 53.333333, -0.826755, -6.279828
2993, 53.333333, -1.058609, -8.040931
2994, 53.333333, -1.278924, -9.714393
2995, 53.333333, -1.491039, -11.325568
2996, 53.333333, -1.696840, -12.888783
2997, 53.333333, -0.000000, -2.000000
2998, 53.333333, -0.000000, -4.398635
2999, 53.333333, -0.000000, -6.323541
3000, 53.333333, -0.000000, -8.102632
3001, 53.333333, -0.000000, -9.793187
3002, 53.333333, -0.000000, -11.420818
3003, 53.333333, -0.000000, -13.000000
3004, 53.333333, 0.263305, -2.000000
3005, 53.333333, 0.575898, -4.374383
3006, 53.333333, 0.826755, -6.279828
3007, 53.333333, 1.058609, -8.040931
3008, 53.333333, 1.278924, -9.714393
3009, 53.333333, 1.491039, -11.325568
3010, 53.333333, 1.696840, -12.888783
3011, 53.333333, 0.535898, -2.000000
3012, 53.333333, 1.152729, -4.302043
3013, 53.333333, 1.647736, -6.149435
3014, 53.333333, 2.105245, -7.856882
3015, 53.333333, 2.539987, -9.479360
3016, 53.333333, 2.958547, -11.041447
3017, 53.333333, 3.364648, -12.557036
3018, 53.333333, 0.828427, -2.000000
3019, 53.333333, 1.732594, -4.182852
3020, 53.333333, 2.458189, -5.934593
3021, 53.333333, 3.128818, -7.553636
3022, 53.333333, 3.766074, -9.092108
3023, 53.333333, 4.379611, -10.573316
3024, 53.333333, 4.974885, -12.010434
3025, 53.333333, 1.154701, -2.000000
3026, 53.333333, 2.320284, -4.018850
3027, 53.333333, 3.255666, -5.638979
3028, 53.333333, 4.120191, -7.136380
3029, 53.333333, 4.941693, -8.559264
3030, 53.333333, 5.732618, -9.929186
3031, 53.333333, 6.500000, -11.258330
3032, 53.333333, 1.534654, -2.000000
3033, 53.333333, 2.925697, -3.812843
3034, 53.333333, 4.042011, -5.267651
3035, 53.333333, 5.073762, -6.612255
3036, 53.333333, 6.054167, -7.889945
3037, 53.333333, 6.998082, -9.120078
3038, 53.333333, 7.913899, -10.313593
3039, 53.333333, 2.000000, -2.000000
3040, 53.333333, 3.568356, -3.568356
3041, 53.333333, 4.826963, -4.826963
3042, 53.333333, 5.990227, -5.990227
3043, 53.333333, 7.095603, -7.095603
3044, 53.333333, 8.159835, -8.159835
3045, 53.333333, 9.192388, -9.192388
3046, 53.333333, 2.000000, -1.534654
3047, 53.333333, 3.812843, -2.925697
3048, 53.333333, 5.267651, -4.042011
3049, 53.333333, 6.612255, -5.073762
3050, 53.333333, 7.889945, -6.054167
3051, 53.333333, 9.120078, -6.998082
3052, 53.333333, 10.313593, -7.913899
3053, 53.333333, 2.000000, -1.154701
3054, 53.333333, 4.018850, -2.320284
3055, 53.333333, 5.638979, -3.255666
3056, 53.333333, 7.136380, -4.120191
3057, 53.333333, 8.559264, -4.941693
3058, 53.333333, 9.929186, -5.732618
3059, 53.333333, 11.258330, -6.500000
3060, 53.333333, 2.000000, -0.828427
3061, 53.333333, 4.182852, -1.732594
3062, 53.333333, 5.934593, -2.458189
3063, 53.333333, 7.553636, -3.128818
3064, 53.333333, 9.092108, -3.766074
3065, 53.333333, 10.573316, -4.379611
3066, 53.333333, 12.010434, -4.974885
3067, 53.333333, 2.000000, -0.535898
3068, 53.333333, 4.302043, -1.152729
3069, 53.333333, 6.149435, -1.647736
3070, 53.333333, 7.856882, -2.105245
3071, 53.333333, 9.479360, -2.539987
3072, 53.333333, 11.041447, -2.958547
3073, 53.333333, 12.557036, -3.364648
3074, 53.333333, 2.000000, -0.263305
3075, 53.333333, 4.374383, -0.575898
3076, 53.333333, 6.279828, -0.826755
3077, 53.333333, 8.040931, -1.058609
3078, 53.333333, 9.714393, -1.278924
3079, 53.333333, 11.325568, -1.491039
3080, 53.333333, 12.888783, -1.696840
3081, 53.333333, 2.000000, -0.000000
3082, 53.333333, 4.398635, -0.000000
3083, 53.333333, 6.323541, -0.000000
3084, 53.333333, 8.102632, -0.000000
3085, 53.333333, 9.793187, -0.000000
3086, 53.333333, 11.420818, -0.000000
3087, 53.333333, 13.000000, -0.000000
3088, 60.000000, 2.000000, 0.000000
3089, 60.000000, 4.398635, 0.000000
3090, 60.000000, 6.323541, 0.000000
3091, 60.000000, 8.102632, 0.000000
3092, 60.000000, 9.793187, 0.000000
3093, 60.000000, 11.420818, 0.000000
3094, 60.000000, 13.000000, 0.000000
3095, 60.000000, 2.000000, 0.263305
3096, 60.000000, 4.374383, 0.575898
3097, 60.000000, 6.279828, 0.826755
3098, 60.000000, 8.040931, 1.058609
3099, 60.000000, 9.714393, 1.278924
3100, 60.000000, 11.325568, 1.491039
3101, 60.000000, 12.888783, 1.696840
3102, 60.000000, 2.000000, 0.535898
3103, 60.000000, 4.302043, 1.152729
3104, 60.000000, 6.149435, 1.647736
3105, 60.000000, 7.856882, 2.105245
3106, 60.000000, 9.479360, 2.539987
3107, 60.000000, 11.041447, 2.958547
3108, 60.000000, 12.557036, 3.364648
3109, 60.000000, 2.000000, 0.828427
3110, 60.000000, 4.182852, 1.732594
3111, 60.000000, 5.934593, 2.458189
3112, 60.000000, 7.553636, 3.128818
3113, 60.000000, 9.092108, 3.766074
3114, 60.000000, 10.573316, 4.379611
3115, 60.000000, 12.010434, 4.974885
3116, 60.000000, 2.000000, 1.154701
3117, 60.000000, 4.018850, 2.320284
3118, 60.000000, 5.638979, 3.255666
3119, 60.000000, 7.136380, 4.120191
3120, 60.000000, 8.559264, 4.941693
3121, 60.000000, 9.929186, 5.732618
3122, 60.000000, 11.258330, 6.500000
3123, 60.000000, 2.000000, 1.534654
3124, 60.000000, 3.812843, 2.925697
3125, 60.000000, 5.267651, 4.042011
3126, 60.000000, 6.612255, 5.073762
3127, 60.000000, 7.889945, 6.054167
3128, 60.000000, 9.120078, 6.998082
3129, 60.000000, 10.313593, 7.913899
3130, 60.000000, 2.000000, 2.000000
3131, 60.000000, 3.568356, 3.568356
3132, 60.000000, 4.826963, 4.826963
3133, 60.000000, 5.990227, 5.990227
3134, 60.000000, 7.095603, 7.095603
3135, 60.000000, 8.159835, 8.159835
3136, 60.000000, 9.192388, 9.192388
3137, 60.000000, 1.534654, 2.000000
3138, 60.000000, 2.925697, 3.812843
3139, 60.000000, 4.042011, 5.267651
3140, 60.000000, 5.073762, 6.612255
3141, 60.000000, 6.054167, 7.889945
3142, 60.000000, 6.998082, 9.120078
3143, 60.000000, 7.913899, 10.313593
3144, 60.000000, 1.154701, 2.000000
3145, 60.000000, 2.320284, 4.018850
3146, 60.000000, 3.255666, 5.638979
3147, 60.000000, 4.120191, 7.136380
3148, 60.000000, 4.941693, 8.559264
3149, 60.000000, 5.732618, 9.929186
3150, 60.000000, 6.500000, 11.258330
3151, 60.000000, 0.828427, 2.000000
3152, 60.000000, 1.732594, 4.182852
3153, 60.000000, 2.458189, 5.934593
3154, 60.000000, 3.128818, 7.553636
3155, 60.000000, 3.766074, 9.092108
3156, 60.000000, 4.379611, 10.573316
3157, 60.000000, 4.974885, 12.010434
3158, 60.000000, 0.535898, 2.000000
3159, 60.000000, 1.152729, 4.302043
3160, 60.000000, 1.647736, 6.149435
3161, 60.000000, 2.105245, 7.856882
3162, 60.000000, 2.539987, 9.479360
3163, 60.000000, 2.958547, 11.041447
3164, 60.000000, 3.364648, 12.557036
3165, 60.000000, 0.263305, 2.000000
3166, 60.000000, 0.575898, 4.374383
3167, 60.000000, 0.826755, 6.279828
3168, 60.000000, 1.058609, 8.040931
3169, 60.000000, 1.278924, 9.714393
3170, 60.000000, 1.491039, 11.325568
3171, 60.000000, 1.696840, 12.888783
3172, 60.000000, 0.000000, 2.000000
3173, 60.000000, 0.000000, 4.398635
3174, 60.000000, 0.000000, 6.323541
3175, 60.000000, 0.000000, 8.102632
3176, 60.000000, 0.000000, 9.793187
3177, 60.000000, 0.000000, 11.420818
3178, 60.000000, 0.000000, 13.000000
3179, 60.000000, -0.263305, 2.000000
3180, 60.000000, -0.575898, 4.374383
3181, 60.000000, -0.826755, 6.279828
3182, 60.000000, -1.058609, 8.040931
3183, 60.000000, -1.278924, 9.714393
3184, 60.000000, -1.491039, 11.325568
3185, 60.000000, -1.696840, 12.888783
3186, 60.000000, -0.535898, 2.000000
3187, 60.000000, -1.152729, 4.302043
3188, 60.000000, -1.647736, 6.149435
3189, 60.000000, -2.105245, 7.856882
3190, 60.000000, -2.539987, 9.479360
3191, 60.000000, -2.958547, 11.041447
3192, 60.000000, -3.364648, 12.557036
3193, 60.000000, -0.828427, 2.000000
3194, 60.000000, -1.732594, 4.182852
3195, 60.000000, -2.458189, 5.934593
3196, 60.000000, -3.128818, 7.553636
3197, 60.000000, -3.766074, 9.092108
3198, 60.000000, -4.379611, 10.573316
3199, 60.000000, -4.974885, 12.010434
3200, 60.000000, -1.154701, 2.000000
3201, 60.000000, -2.320284, 4.018850
3202, 60.000000, -3.255666, 5.638979
3203, 60.000000, -4.120191, 7.136380
3204, 60.000000, -4.941693, 8.559264
3205, 60.000000, -5.732618, 9.929186
3206, 60.000000, -6.500000, 11.258330
3207, 60.000000, -1.534654, 2.000000
3208, 60.000000, -2.925697, 3.812843
3209, 60.000000, -4.042011, 5.267651
3210, 60.000000, -5.073762, 6.612255
3211, 60.000000, -6.054167, 7.889945
3212, 60.000000, -6.998082, 9.120078
3213, 60.000000, -7.913899, 10.313593
3214, 60.000000, -2.000000, 2.000000
3215, 60.000000, -3.568356, 3.568356
3216, 60.000000, -4.826963, 4.826963
3217, 60.000000, -5.990227, 5.990227
3218, 60.000000, -7.095603, 7.095603
3219, 60.000000, -8.159835, 8.159835
3220, 60.000000, -9.192388, 9.192388
3221, 60.000000, -2.000000, 1.534654
3222, 60.000000, -3.812843, 2.925697
3223, 60.000000, -5.267651, 4.042011
3224, 60.000000, -6.612255, 5.073762
3225, 60.000000, -7.889945, 6.054167
3226, 60.000000, -9.120078, 6.998082
3227, 60.000000, -10.313593, 7.913899
3228, 60.000000, -2.000000, 1.154701
3229, 60.000000, -4.018850, 2.320284
3230, 60.000000, -5.638979, 3.255666
3231, 60.000000, -7.136380, 4.120191
3232, 60.000000, -8.559264, 4.941693
3233, 60.000000, -9.929186, 5.732618
3234, 60.000000, -11.258330, 6.500000
3235, 60.000000, -2.000000, 0.828427
3236, 60.000000, -4.182852, 1.732594
3237, 60.000000, -5.934593, 2.458189
3238, 60.000000, -7.553636, 3.128818
3239, 60.000000, -9.092108, 3.766074
3240, 60.000000, -10.573316, 4.379611
3241, 60.000000, -12.010434, 4.974885
3242, 60.000000, -2.000000, 0.535898
3243, 60.000000, -4.302043, 1.152729
3244, 60.000000, -6.149435, 1.647736
3245, 60.000000, -7.856882, 2.105245
3246, 60.000000, -9.479360, 2.539987
3247, 60.000000, -11.041447, 2.958547
3248, 60.000000, -12.557036, 3.364648
3249, 60.000000, -2.000000, 0.263305
3250, 60.000000, -4.374383, 0.575898
3251, 60.000000, -6.279828, 0.826755
3252, 60.000000, -8.040931, 1.058609
3253, 60.000000, -9.714393, 1.278924
3254, 60.000000, -11.325568, 1.491039
3255, 60.000000, -12.888783, 1.696840
3256, 60.000000, -2.000000, 0.000000
3257, 60.000000, -4.398635, 0.000000
3258, 60.000000, -6.323541, 0.000000
3259, 60.000000, -8.102632, 0.000000
3260, 60.000000, -9.793187, 0.000000
3261, 60.000000, -11.420818, 0.000000
3262, 60.000000, -13.000000, 0.000000
3263, 60.000000, -2.000000, -0.263305
3264, 60.000000, -4.374383, -0.575898
3265, 60.000000, -6.279828, -0.826755
3266, 60.000000, -8.040931, -1.058609
3267, 60.000000, -9.714393, -1.278924
3268, 60.000000, -11.325568, -1.491039
3269, 60.000000, -12.888783, -1.696840
3270, 60.000000, -2.000000, -0.535898
3271, 60.000000, -4.302043, -1.152729
3272, 60.000000, -6.149435, -1.647736
3273, 60.000000, -7.856882, -2.105245
3274, 60.000000, -9.479360, -2.539987
3275, 60.000000, -11.041447, -2.958547
3276, 60.000000, -12.557036, -3.364648
3277, 60.000000, -2.000000, -0.828427
3278, 60.000000, -4.182852, -1.732594
3279, 60.000000, -5.934593, -2.458189
3280, 60.000000, -7.553636, -3.128818
3281, 60.000000, -9.092108, -3.766074
3282, 60.000000, -10.573316, -4.379611
3283, 60.000000, -12.010434, -4.974885
3284, 60.000000, -2.000000, -1.154701
3285, 60.000000, -4.018850, -2.320284
3286, 60.000000, -5.638979, -3.255666
3287, 60.000000, -7.136380, -4.120191
3288, 60.000000, -8.559264, -4.941693
3289, 60.000000, -9.929186, -5.732618
3290, 60.000000, -11.258330, -6.500000
3291, 60.000000, -2.000000, -1.534654
3292, 60.000000, -3.812843, -2.925697
3293, 60.000000, -5.267651, -4.042011
3294, 60.000000, -6.612255, -5.073762
3295, 60.000000, -7.889945, -6.054167
3296, 60.000000, -9.120078, -6.998082
3297, 60.000000, -10.313593, -7.913899
3298, 60.000000, -2.000000, -2.000000
3299, 60.000000, -3.568356, -3.568356
3300, 60.000000, -4.826963, -4.826963
3301, 60.000000, -5.990227, -5.990227
3302, 60.000000, -7.095603, -7.095603
3303, 60.000000, -8.159835, -8.159835
3304, 60.000000, -9.192388, -9.192388
3305, 60.000000, -1.534654, -2.000000
3306, 60.000000, -2.925697, -3.812843
3307, 60.000000, -4.042011, -5.267651
3308, 60.000000, -5.073762, -6.612255
3309, 60.000000, -6.054167, -7.889945
3310, 60.000000, -6.998082, -9.120078
3311, 60.000000, -7.913899, -10.313593
3312, 60.000000, -1.154701, -2.000000
3313, 60.000000, -2.320284, -4.018850
3314, 60.000000, -3.255666, -5.638979
3315, 60.000000, -4.120191, -7.136380
3316, 60.000000, -4.941693, -8.559264
3317, 60.000000, -5.732618, -9.929186
3318, 60.000000, -6.500000, -11.258330
3319, 60.000000, -0.828427, -2.000000
3320, 60.000000, -1.732594, -4.182852
3321, 60.000000, -2.458189, -5.934593
3322, 60.000000, -3.128818, -7.553636
3323, 60.000000, -3.766074, -9.092108
3324, 60.000000, -4.379611, -10.573316
3325, 60.000000, -4.974885, -12.010434
3326, 60.000000, -0.535898, -2.000000
3327, 60.000000, -1.152729, -4.302043
3328, 60.000000, -1.647736, -6.149435
3329, 60.000000, -2.105245, -7.856882
3330, 60.000000, -2.539987, -9.479360
3331, 60.000000, -2.958547, -11.041447
3332, 60.000000, -3.364648, -12.557036
3333, 60.000000, -0.263305, -2.000000
3334, 60.000000, -0.575898, -4.374383
3335, 60.000000, -0.826755, -6.279828
3336, 60.000000, -1.058609, -8.040931
3337, 60.000000, -1.278924, -9.714393
3338, 60.000000, -1.491039, -11.325568
3339, 60.000000, -1.696840, -12.888783
3340, 60.000000, -0.000000, -2.000000
3341, 60.000000, -0.000000, -4.398635
3342, 60.000000, -0.000000, -6.323541
3343, 60.000000, -0.000000, -8.102632
3344, 60.000000, -0.000000, -9.793187
3345, 60.000000, -0.000000, -11.420818
3346, 60.000000, -0.000000, -13.000000
3347, 60.000000, 0.263305, -2.000000
3348, 60.000000, 0.575898, -4.374383
3349, 60.000000, 0.826755, -6.279828
3350, 60.000000, 1.058609, -8.040931
3351, 60.000000, 1.278924, -9.714393
3352, 60.000000, 1.491039, -11.325568
3353, 60.000000, 1.696840, -12.888783
3354, 60.000000, 0.535898, -2.000000
3355, 60.000000, 1.152729, -4.302043
3356, 60.000000, 1.647736, -6.149435
3357, 60.000000, 2.105245, -7.856882
3358, 60.000000, 2.539987, -9.479360
3359, 60.000000, 2.958547, -11.041447
3360, 60.000000, 3.364648, -12.557036
3361, 60.000000, 0.828427, -2.000000
3362, 60.000000, 1.732594, -4.182852
3363, 60.000000, 2.458189, -5.934593
3364, 60.000000, 3.128818, -7.553636
3365, 60.000000, 3.766074, -9.092108
3366, 60.000000, 4.379611, -10.573316
3367, 60.000000, 4.974885, -12.010434
3368, 60.000000, 1.154701, -2.000000
3369, 60.000000, 2.320284, -4.018850
3370, 60.000000, 3.255666, -5.638979
3371, 60.000000, 4.120191, -7.136380
3372, 60.000000, 4.941693, -8.559264
3373, 60.000000, 5.732618, -9.929186
3374, 60.000000, 6.500000, -11.258330
3375, 60.000000, 1.534654, -2.000000
3376, 60.000000, 2.925697, -3.812843
3377, 60.000000, 4.042011, -5.267651
3378, 60.000000, 5.073762, -6.612255
3379, 60.000000, 6.054167, -7.889945
3380, 60.000000, 6.998082, -9.120078
3381, 60.000000, 7.913899, -10.313593
3382, 60.000000, 2.000000, -2.000000
3383, 60.000000, 3.568356, -3.568356
3384, 60.000000, 4.826963, -4.826963
3385, 60.000000, 5.990227, -5.990227
3386, 60.000000, 7.095603, -7.095603
3387, 60.000000, 8.159835, -8.159835
3388, 60.000000, 9.192388, -9.192388
3389, 60.000000, 2.000000, -1.534654
3390, 60.000000, 3.812843, -2.925697
3391, 60.000000, 5.267651, -4.042011
3392, 60.000000, 6.612255, -5.073762
3393, 60.000000, 7.889945, -6.054167
3394, 60.000000, 9.120078, -6.998082
3395, 60.000000, 10.313593, -7.913899
3396, 60.000000, 2.000000, -1.154701
3397, 60.000000, 4.018850, -2.320284
3398, 60.000000, 5.638979, -3.255666
3399, 60.000000, 7.136380, -4.120191
3400, 60.000000, 8.559264, -4.941693
3401, 60.000000, 9.929186, -5.732618
3402, 60.000000, 11.258330, -6.500000
3403, 60.000000, 2.000000, -0.828427
3404, 60.000000, 4.182852, -1.732594
3405, 60.000000, 5.934593, -2.458189
3406, 60.000000, 7.553636, -3.128818
3407, 60.000000, 9.092108, -3.766074
3408, 60.000000, 10.573316, -4.379611
3409, 60.000000, 12.010434, -4.974885
3410, 60.000000, 2.000000, -0.535898
3411, 60.000000, 4.302043, -1.152729
3412, 60.000000, 6.149435, -1.647736
3413, 60.000000, 7.856882, -2.105245
3414, 60.000000, 9.479360, -2.539987
3415, 60.000000, 11.041447, -2.958547
3416, 60.000000, 12.557036, -3.364648
3417, 60.000000, 2.000000, -0.263305
3418, 60.000000, 4.374383, -0.575898
3419, 60.000000, 6.279828, -0.826755
3420, 60.000000, 8.040931, -1.058609
3421, 60.000000, 9.714393, -1.278924
3422, 60.000000, 11.325568, -1.491039
3423, 60.000000, 12.888783, -1.696840
3424, 60.000000, 2.000000, -0.000000
3425, 60.000000, 4.398635, -0.000000
3426, 60.000000, 6.323541, -0.000000
3427, 60.000000, 8.102632, -0.000000
3428, 60.000000, 9.793187, -0.000000
3429, 60.000000, 11.420818, -0.000000
3430, 60.000000, 13.000000, -0.000000
3431, 66.666667, 2.000000, 0.000000
3432, 66.666667, 4.398635, 0.000000
3433, 66.666667, 6.323541, 0.000000
3434, 66.666667, 8.102632, 0.000000
3435, 66.666667, 9.793187, 0.000000
3436, 66.666667, 11.420818, 0.000000
3437, 66.666667, 13.000000, 0.000000
3438, 66.666667, 2.000000, 0.263305
3439, 66.666667, 4.374383, 0.575898
3440, 66.666667, 6.279828, 0.826755
3441, 66.666667, 8.040931, 1.058609
3442, 66.666667, 9.714393, 1.278924
3443, 66.666667, 11.325568, 1.491039
3444, 66.666667, 12.888783, 1.696840
3445, 66.666667, 2.000000, 0.535898
3446, 66.666667, 4.302043, 1.152729
3447, 66.666667, 6.149435, 1.647736
3448, 66.666667, 7.856882, 2.105245
3449, 66.666667, 9.479360, 2.539987
3450, 66.666667, 11.041447, 2.958547
3451, 66.666667, 12.557036, 3.364648
3452, 66.666667, 2.000000, 0.828427
3453, 66.666667, 4.182852, 1.732594
3454, 66.666667, 5.934593, 2.458189
3455, 66.666667, 7.553636, 3.128818
3456, 66.666667, 9.092108, 3.766074
3457, 66.666667, 10.573316, 4.379611
3458, 66.666667, 12.010434, 4.974885
3459, 66.666667, 2.000000, 1.154701
3460, 66.666667, 4.018850, 2.320284
3461, 66.666667, 5.638979, 3.255666
3462, 66.666667, 7.136380, 4.120191
3463, 66.666667, 8.559264, 4.941693
3464, 66.666667, 9.929186, 5.732618
3465, 66.666667, 11.258330, 6.500000
3466, 66.666667, 2.000000, 1.534654
3467, 66.666667, 3.812843, 2.925697
3468, 66.666667, 5.267651, 4.042011
3469, 66.666667, 6.612255, 5.073762
3470, 66.666667, 7.889945, 6.054167
3471, 66.666667, 9.120078, 6.998082
3472, 66.666667, 10.313593, 7.913899
3473, 66.666667, 2.000000, 2.000000
3474, 66.666667, 3.568356, 3.568356
3475, 66.666667, 4.826963, 4.826963
3476, 66.666667, 5.990227, 5.990227
3477, 66.666667, 7.095603, 7.095603
3478, 66.666667, 8.159835, 8.159835
3479, 66.666667, 9.192388, 9.192388
3480, 66.666667, 1.534654, 2.000000
3481, 66.666667, 2.925697, 3.812843
3482, 66.666667, 4.042011, 5.267651
3483, 66.666667, 5.073762, 6.612255
3484, 66.666667, 6.054167, 7.889945
3485, 66.666667, 6.998082, 9.120078
3486, 66.666667, 7.913899, 10.313593
3487, 66.666667, 1.154701, 2.000000
3488, 66.666667, 2.320284, 4.018850
3489, 66.666667, 3.255666, 5.638979
3490, 66.666667, 4.120191, 7.136380
3491, 66.666667, 4.941693, 8.559264
3492, 66.666667, 5.732618, 9.929186
3493, 66.666667, 6.500000, 11.258330
3494, 66.666667, 0.828427, 2.000000
3495, 66.666667, 1.732594, 4.182852
3496, 66.666667, 2.458189, 5.934593
3497, 66.666667, 3.128818, 7.553636
3498, 66.666667, 3.766074, 9.092108
3499, 66.666667, 4.379611, 10.573316
3500, 66.666667, 4.974885, 12.010434
3501, 66.666667, 0.535898, 2.000000
3502, 66.666667, 1.152729, 4.302043
3503, 66.666667, 1.647736, 6.149435
3504, 66.666667, 2.105245, 7.856882
3505, 66.666667, 2.539987, 9.479360
3506, 66.666667, 2.958547, 11.041447
3507, 66.666667, 3.364648, 12.557036
3508, 66.666667, 0.263305, 2.000000
3509, 66.666667, 0.575898, 4.374383
3510, 66.666667, 0.826755, 6.279828
3511, 66.666667, 1.058609, 8.040931
3512, 66.666667, 1.278924, 9.714393
3513, 66.666667, 1.491039, 11.325568
3514, 66.666667, 1.696840, 12.888783
3515, 66.666667, 0.000000, 2.000000
3516, 66.666667, 0.000000, 4.398635
3517, 66.666667, 0.000000, 6.323541
3518, 66.666667, 0.000000, 8.102632
3519, 66.666667, 0.000000, 9.793187
3520, 66.666667, 0.000000, 11.420818
3521, 66.666667, 0.000000, 13.000000
3522, 66.666667, -0.263305, 2.000000
3523, 66.666667, -0.575898, 4.374383
3524, 66.666667, -0.826755, 6.279828
3525, 66.666667, -1.058609, 8.040931
3526, 66.666667, -1.278924, 9.714393
3527, 66.666667, -1.491039, 11.325568
3528, 66.666667, -1.696840, 12.888783
3529, 66.666667, -0.535898, 2.000000
3530, 66.666667, -1.152729, 4.302043
3531, 66.666667, -1.647736, 6.149435
3532, 66.666667, -2.105245, 7.856882
3533, 66.666667, -2.539987, 9.479360
3534, 66.666667, -2.958547, 11.041447
3535, 66.666667, -3.364648, 12.557036
3536, 66.666667, -0.828427, 2.000000
3537, 66.666667, -1.732594, 4.182852
3538, 66.666667, -2.458189, 5.934593
3539, 66.666667, -3.128818, 7.553636
3540, 66.666667, -3.766074, 9.092108
3541, 66.666667, -4.379611, 10.573316
3542, 66.666667, -4.974885, 12.010434
3543, 66.666667, -1.154701, 2.000000
3544, 66.666667, -2.320284, 4.018850
3545, 66.666667, -3.255666, 5.638979
3546, 66.666667, -4.120191, 7.136380
3547, 66.666667, -4.941693, 8.559264
3548, 66.666667, -5.732618, 9.929186
3549, 66.666667, -6.500000, 11.258330
3550, 66.666667, -1.534654, 2.000000
3551, 66.666667, -2.925697, 3.812843
3552, 66.666667, -4.042011, 5.267651
3553, 66.666667, -5.073762, 6.612255
3554, 66.666667, -6.054167, 7.889945
3555, 66.666667, -6.998082, 9.120078
3556, 66.666667, -7.913899, 10.313593
3557, 66.666667, -2.000000, 2.000000
3558, 66.666667, -3.568356, 3.568356
3559, 66.666667, -4.826963, 4.826963
3560, 66.666667, -5.990227, 5.990227
3561, 66.666667, -7.095603, 7.095603
3562, 66.666667, -8.159835, 8.159835
3563, 66.666667, -9.192388, 9.192388
3564, 66.666667, -2.000000, 1.534654
3565, 66.666667, -3.812843, 2.925697
3566, 66.666667, -5.267651, 4.042011
3567, 66.666667, -6.612255, 5.073762
3568, 66.666667, -7.889945, 6.054167
3569, 66.666667, -9.120078, 6.998082
3570, 66.666667, -10.313593, 7.913899
3571, 66.666667, -2.000000, 1.154701
3572, 66.666667, -4.018850, 2.320284
3573, 66.666667, -5.638979, 3.255666
3574, 66.666667, -7.136380, 4.120191
3575, 66.666667, -8.559264, 4.941693
3576, 66.666667, -9.929186, 5.732618
3577, 66.666667, -11.258330, 6.500000
3578, 66.666667, -2.000000, 0.828427
3579, 66.666667, -4.182852, 1.732594
3580, 66.666667, -5.934593, 2.458189
3581, 66.666667, -7.553636, 3.128818
3582, 66.666667, -9.092108, 3.766074
3583, 66.666667, -10.573316, 4.379611
3584, 66.666667, -12.010434, 4.974885
3585, 66.666667, -2.000000, 0.535898
3586, 66.666667, -4.302043, 1.152729
3587, 66.666667, -6.149435, 1.647736
3588, 66.666667, -7.856882, 2.105245
3589, 66.666667, -9.479360, 2.539987
3590, 66.666667, -11.041447, 2.958547
3591, 66.666667, -12.557036, 3.364648
3592, 66.666667, -2.000000, 0.263305
3593, 66.666667, -4.374383, 0.575898
3594, 66.666667, -6.279828, 0.826755
3595, 66.666667, -8.040931, 1.058609
3596, 66.666667, -9.714393, 1.278924
3597, 66.666667, -11.325568, 1.491039
3598, 66.666667, -12.888783, 1.696840
3599, 66.666667, -2.000000, 0.000000
3600, 66.666667, -4.398635, 0.000000
3601, 66.666667, -6.323541, 0.000000
3602, 66.666667, -8.102632, 0.000000
3603, 66.666667, -9.793187, 0.000000
3604, 66.666667, -11.420818, 0.000000
3605, 66.666667, -13.000000, 0.000000
3606, 66.666667, -2.000000, -0.263305
3607, 66.666667, -4.374383, -0.575898
3608, 66.666667, -6.279828, -0.826755
3609, 66.666667, -8.040931, -1.058609
3610, 66.666667, -9.714393, -1.278924
3611, 66.666667, -11.325568, -1.491039
3612, 66.666667, -12.888783, -1.696840
3613, 66.666667, -2.000000, -0.535898
3614, 66.666667, -4.302043, -1.152729
3615, 66.666667, -6.149435, -1.647736
3616, 66.666667, -7.856882, -2.105245
3617, 66.666667, -9.479360, -2.539987
3618, 66.666667, -11.041447, -2.958547
3619, 66.666667, -12.557036, -3.364648
3620, 66.666667, -2.000000, -0.828427
3621, 66.666667, -4.182852, -1.732594
3622, 66.666667, -5.934593, -2.458189
3623, 66.666667, -7.553636, -3.128818
3624, 66.666667, -9.092108, -3.766074
3625, 66.666667, -10.573316, -4.379611
3626, 66.666667, -12.010434, -4.974885
3627, 66.666667, -2.000000, -1.154701
3628, 66.666667, -4.018850, -2.320284
3629, 66.666667, -5.638979, -3.255666
3630, 66.666667, -7.136380, -4.120191
3631, 66.666667, -8.559264, -4.941693
3632, 66.666667, -9.929186, -5.732618
3633, 66.666667, -11.258330, -6.500000
3634, 66.666667, -2.000000, -1.534654
3635, 66.666667, -3.812843, -2.925697
3636, 66.666667, -5.267651, -4.042011
3637, 66.666667, -6.612255, -5.073762
3638, 66.666667, -7.889945, -6.054167
3639, 66.666667, -9.120078, -6.998082
3640, 66.666667, -10.313593, -7.913899
3641, 66.666667, -2.000000, -2.000000
3642, 66.666667, -3.568356, -3.568356
3643, 66.666667, -4.826963, -4.826963
3644, 66.666667, -5.990227, -5.990227
3645, 66.666667, -7.095603, -7.095603
3646, 66.666667, -8.159835, -8.159835
3647, 66.666667, -9.192388, -9.192388
3648, 66.666667, -1.534654, -2.000000
3649, 66.666667, -2.925697, -3.812843
3650, 66.666667, -4.042011, -5.267651
3651, 66.666667, -5.073762, -6.612255
3652, 66.666667, -6.054167, -7.889945
3653, 66.666667, -6.998082, -9.120078
3654, 66.666667, -7.913899, -10.313593
3655, 66.666667, -1.154701, -2.000000
3656, 66.666667, -2.320284, -4.018850
3657, 66.666667, -3.255666, -5.638979
3658, 66.666667, -4.120191, -7.136380
3659, 66.666667, -4.941693, -8.559264
3660, 66.666667, -5.732618, -9.929186
3661, 66.666667, -6.500000, -11.258330
3662, 66.666667, -0.828427, -2.000000
3663, 66.666667, -1.732594, -4.182852
3664, 66.666667, -2.458189, -5.934593
3665, 66.666667, -3.128818, -7.553636
3666, 66.666667, -3.766074, -9.092108
3667, 66.666667, -4.379611, -10.573316
3668, 66.666667, -4.974885, -12.010434
3669, 66.666667, -0.535898, -2.000000
3670, 66.666667, -1.152729, -4.302043
3671, 66.666667, -1.647736, -6.149435
3672, 66.666667, -2.105245, -7.856882
3673, 66.666667, -2.539987, -9.479360
3674, 66.666667, -2.958547, -11.041447
3675, 66.666667, -3.364648, -12.557036
3676, 66.666667, -0.263305, -2.000000
3677, 66.666667, -0.575898, -4.374383
3678, 66.666667, -0.826755, -6.279828
3679, 66.666667, -1.058609, -8.040931
3680, 66.666667, -1.278924, -9.714393
3681, 66.666667, -1.491039, -11.325568
3682, 66.666667, -1.696840, -12.888783
3683, 66.666667, -0.000000, -2.000000
3684, 66.666667, -0.000000, -4.398635
3685, 66.666667, -0.000000, -6.323541
3686, 66.666667, -0.000000, -8.102632
3687, 66.666667, -0.000000, -9.793187
3688, 66.666667, -0.000000, -11.420818
3689, 66.666667, -0.000000, -13.000000
3690, 66.666667, 0.263305, -2.000000
3691, 66.666667, 0.575898, -4.374383
3692, 66.666667, 0.826755, -6.279828
3693, 66.666667, 1.058609, -8.040931
3694, 66.666667, 1.278924, -9.714393
3695, 66.666667, 1.491039, -11.325568
3696, 66.666667, 1.696840, -12.888783
3697, 66.666667, 0.535898, -2.000000
3698, 66.666667, 1.152729, -4.302043
3699, 66.666667, 1.647736, -6.149435
3700, 66.666667, 2.105245, -7.856882
3701, 66.666667, 2.539987, -9.479360
3702, 66.666667, 2.958547, -11.041447
3703, 66.666667, 3.364648, -12.557036
3704, 66.666667, 0.828427, -2.000000
3705, 66.666667, 1.732594, -4.182852
3706, 66.666667, 2.458189, -5.934593
3707, 66.666667, 3.128818, -7.553636
3708, 66.666667, 3.766074, -9.092108
3709, 66.666667, 4.379611, -10.573316
3710, 66.666667, 4.974885, -12.010434
3711, 66.666667, 1.154701, -2.000000
3712, 66.666667, 2.320284, -4.018850
3713, 66.666667, 3.255666, -5.638979
3714, 66.666667, 4.120191, -7.136380
3715, 66.666667, 4.941693, -8.559264
3716, 66.666667, 5.732618, -9.929186
3717, 66.666667, 6.500000, -11.258330
3718, 66.666667, 1.534654, -2.000000
3719, 66.666667, 2.925697, -3.812843
3720, 66.666667, 4.042011, -5.267651
3721, 66.666667, 5.073762, -6.612255
3722, 66.666667, 6.054167, -7.889945
3723, 66.666667, 6.998082, -9.120078
3724, 66.666667, 7.913899, -10.313593
3725, 66.666667, 2.000000, -2.000000
3726, 66.666667, 3.568356, -3.568356
3727, 66.666667, 4.826963, -4.826963
3728, 66.666667, 5.990227, -5.990227
3729, 66.666667, 7.095603, -7.095603
3730, 66.666667, 8.159835, -8.159835
3731, 66.666667, 9.192388, -9.192388
3732, 66.666667, 2.000000, -1.534654
3733, 66.666667, 3.812843, -2.925697
3734, 66.666667, 5.267651, -4.042011
3735, 66.666667, 6.612255, -5.073762
3736, 66.666667, 7.889945, -6.054167
3737, 66.666667, 9.120078, -6.998082
3738, 66.666667, 10.313593, -7.913899
3739, 66.666667, 2.000000, -1.154701
3740, 66.666667, 4.018850, -2.320284
3741, 66.666667, 5.638979, -3.255666
3742, 66.666667, 7.136380, -4.120191
3743, 66.666667, 8.559264, -4.941693
3744, 66.666667, 9.929186, -5.732618
3745, 66.666667, 11.258330, -6.500000
3746, 66.666667, 2.000000, -0.828427
3747, 66.666667, 4.182852, -1.732594
3748, 66.666667, 5.934593, -2.458189
3749, 66.666667, 7.553636, -3.128818
3750, 66.666667, 9.092108, -3.766074
3751, 66.666667, 10.573316, -4.379611
3752, 66.666667, 12.010434, -4.974885
3753, 66.666667, 2.000000, -0.535898
3754, 66.666667, 4.302043, -1.152729
3755, 66.666667, 6.149435, -1.647736
3756, 66.666667, 7.856882, -2.105245
3757, 66.666667, 9.479360, -2.539987
3758, 66.666667, 11.041447, -2.958547
3759, 66.666667, 12.557036, -3.364648
3760, 66.666667, 2.000000, -0.263305
3761, 66.666667, 4.374383, -0.575898
3762, 66.666667, 6.279828, -0.826755
3763, 66.666667, 8.040931, -1.058609
3764, 66.666667, 9.714393, -1.278924
3765, 66.666667, 11.325568, -1.491039
3766, 66.666667, 12.888783, -1.696840
3767, 66.666667, 2.000000, -0.000000
3768, 66.666667, 4.398635, -0.000000
3769, 66.666667, 6.323541, -0.000000
3770, 66.666667, 8.102632, -0.000000
3771, 66.666667, 9.793187, -0.000000
3772, 66.666667, 11.420818, -0.000000
3773, 66.666667, 13.000000, -0.000000
3774, 73.333333, 2.000000, 0.000000
3775, 73.333333, 4.398635, 0.000000
3776, 73.333333, 6.323541, 0.000000
3777, 73.333333, 8.102632, 0.000000
3778, 73.333333, 9.793187, 0.000000
3779, 73.333333, 11.420818, 0.000000
3780, 73.333333, 13.000000, 0.000000
3781, 73.333333, 2.000000, 0.263305
3782, 73.333333, 4.374383, 0.575898
3783, 73.333333, 6.279828, 0.826755
3784, 73.333333, 8.040931, 1.058609
3785, 73.333333, 9.714393, 1.278924
3786, 73.333333, 11.325568, 1.491039
3787, 73.333333, 12.888783, 1.696840
3788, 73.333333, 2.000000, 0.535898
3789, 73.333333, 4.302043, 1.152729
3790, 73.333333, 6.149435, 1.647736
3791, 73.333333, 7.856882, 2.105245
3792, 73.333333, 9.479360, 2.539987
3793, 73.333333, 11.041447, 2.958547
3794, 73.333333, 12.557036, 3.364648
3795, 73.333333, 2.000000, 0.828427
3796, 73.333333, 4.182852, 1.732594
3797, 73.333333, 5.934593, 2.458189
3798, 73.333333, 7.553636, 3.128818
3799, 73.333333, 9.092108, 3.766074
3800, 73.333333, 10.573316, 4.379611
3801, 73.333333, 12.010434, 4.974885
3802, 73.333333, 2.000000, 1.154701
3803, 73.333333, 4.018850, 2.320284
3804, 73.333333, 5.638979, 3.255666
3805, 73.333333, 7.136380, 4.120191
3806, 73.333333, 8.559264, 4.941693
3807, 73.333333, 9.929186, 5.732618
3808, 73.333333, 11.258330, 6.500000
3809, 73.333333, 2.000000, 1.534654
3810, 73.333333, 3.812843, 2.925697
3811, 73.333333, 5.267651, 4.042011
3812, 73.333333, 6.612255, 5.073762
3813, 73.333333, 7.889945, 6.054167
3814, 73.333333, 9.120078, 6.998082
3815, 73.333333, 10.313593, 7.913899
3816, 73.333333, 2.000000, 2.000000
3817, 73.333333, 3.568356, 3.568356
3818, 73.333333, 4.826963, 4.826963
3819, 73.333333, 5.990227, 5.990227
3820, 73.333333, 7.095603, 7.095603
3821, 73.333333, 8.159835, 8.159835
3822, 73.333333, 9.192388, 9.192388
3823, 73.333333, 1.534654, 2.000000
3824, 73.333333, 2.925697, 3.812843
3825, 73.333333, 4.042011, 5.267651
3826, 73.333333, 5.073762, 6.612255
3827, 73.333333, 6.054167, 7.889945
3828, 73.333333, 6.998082, 9.120078
3829, 73.333333, 7.913899, 10.313593
3830, 73.333333, 1.154701, 2.000000
3831, 73.333333, 2.320284, 4.018850
3832, 73.333333, 3.255666, 5.638979
3833, 73.333333, 4.120191, 7.136380
3834, 73.333333, 4.941693, 8.559264
3835, 73.333333, 5.732618, 9.929186
3836, 73.333333, 6.500000, 11.258330
3837, 73.333333, 0.828427, 2.000000
3838, 73.333333, 1.732594, 4.182852
3839, 73.333333, 2.458189, 5.934593
3840, 73.333333, 3.128818, 7.553636
3841, 73.333333, 3.766074, 9.092108
3842, 73.333333, 4.379611, 10.573316
3843, 73.333333, 4.974885, 12.010434
3844, 73.333333, 0.535898, 2.000000
3845, 73.333333, 1.152729, 4.302043
3846, 73.333333, 1.647736, 6.149435
3847, 73.333333, 2.105245, 7.856882
3848, 73.333333, 2.539987, 9.479360
3849, 73.333333, 2.958547, 11.041447
3850, 73.333333, 3.364648, 12.557036
3851, 73.333333, 0.263305, 2.000000
3852, 73.333333, 0.575898, 4.374383
3853, 73.333333, 0.826755, 6.279828
3854, 73.333333, 1.058609, 8.040931
3855, 73.333333, 1.278924, 9.714393
3856, 73.333333, 1.491039, 11.325568
3857, 73.333333, 1.696840, 12.888783
3858, 73.333333, 0.000000, 2.000000
3859, 73.333333, 0.000000, 4.398635
3860, 73.333333, 0.000000, 6.323541
3861, 73.333333, 0.000000, 8.102632
3862, 73.333333, 0.000000, 9.793187
3863, 73.333333, 0.000000, 11.420818
3864, 73.333333, 0.000000, 13.000000
3865, 73.333333, -0.263305, 2.000000
3866, 73.333333, -0.575898, 4.374383
3867, 73.333333, -0.826755, 6.279828
3868, 73.333333, -1.058609, 8.040931
3869, 73.333333, -1.278924, 9.714393
3870, 73.333333, -1.491039, 11.325568
3871, 73.333333, -1.696840, 12.888783
3872, 73.333333, -0.535898, 2.000000
3873, 73.333333, -1.152729, 4.302043
3874, 73.333333, -1.647736, 6.149435
3875, 73.333333, -2.105245, 7.856882
3876, 73.333333, -2.539987, 9.479360
3877, 73.333333, -2.958547, 11.041447
3878, 73.333333, -3.364648, 12.557036
3879, 73.333333, -0.828427, 2.000000
3880, 73.333333, -1.732594, 4.182852
3881, 73.333333, -2.458189, 5.934593
3882, 73.333333, -3.128818, 7.553636
3883, 73.333333, -3.766074, 9.092108
3884, 73.333333, -4.379611, 10.573316
3885, 73.333333, -4.974885, 12.010434
3886, 73.333333, -1.154701, 2.000000
3887, 73.333333, -2.320284, 4.018850
3888, 73.333333, -3.255666, 5.638979
3889, 73.333333, -4.120191, 7.136380
3890, 73.333333, -4.941693, 8.559264
3891, 73.333333, -5.732618, 9.929186
3892, 73.333333, -6.500000, 11.258330
3893, 73.333333, -1.534654, 2.000000
3894, 73.333333, -2.925697, 3.812843
3895, 73.333333, -4.042011, 5.267651
3896, 73.333333, -5.073762, 6.612255
3897, 73.333333, -6.054167, 7.889945
3898, 73.333333, -6.998082, 9.120078
3899, 73.333333, -7.913899, 10.313593
3900, 73.333333, -2.000000, 2.000000
3901, 73.333333, -3.568356, 3.568356
3902, 73.333333, -4.826963, 4.826963
3903, 73.333333, -5.990227, 5.990227
3904, 73.333333, -7.095603, 7.095603
3905, 73.333333, -8.159835, 8.159835
3906, 73.333333, -9.192388, 9.192388
3907, 73.333333, -2.000000, 1.534654
3908, 73.333333, -3.812843, 2.925697
3909, 73.333333, -5.267651, 4.042011
3910, 73.333333, -6.612255, 5.073762
3911, 73.333333, -7.889945, 6.054167
3912, 73.333333, -9.120078, 6.998082
3913, 73.333333, -10.313593, 7.913899
3914, 73.333333, -2.000000, 1.154701
3915, 73.333333, -4.018850, 2.320284
3916, 73.333333, -5.638979, 3.255666
3917, 73.333333, -7.136380, 4.120191
3918, 73.333333, -8.559264, 4.941693
3919, 73.333333, -9.929186, 5.732618
3920, 73.333333, -11.258330, 6.500000
3921, 73.333333, -2.000000, 0.828427
3922, 73.333333, -4.182852, 1.732594
3923, 73.333333, -5.934593, 2.458189
3924, 73.333333, -7.553636, 3.128818
3925, 73.333333, -9.092108, 3.766074
3926, 73.333333, -10.573316, 4.379611
3927, 73.333333, -12.010434, 4.974885
3928, 73.333333, -2.000000, 0.535898
3929, 73.333333, -4.302043, 1.152729
3930, 73.333333, -6.149435, 1.647736
3931, 73.333333, -7.856882, 2.105245
3932, 73.333333, -9.479360, 2.539987
3933, 73.333333, -11.041447, 2.958547
3934, 73.333333, -12.557036, 3.364648
3935, 73.333333, -2.000000, 0.263305
3936, 73.333333, -4.374383, 0.575898
3937, 73.333333, -6.279828, 0.826755
3938, 73.333333, -8.040931, 1.058609
3939, 73.333333, -9.714393, 1.278924
3940, 73.333333, -11.325568, 1.491039
3941, 73.333333, -12.888783, 1.696840
3942, 73.333333, -2.000000, 0.000000
3943, 73.333333, -4.398635, 0.000000
3944, 73.333333, -6.323541, 0.000000
3945, 73.333333, -8.102632, 0.000000
3946, 73.333333, -9.793187, 0.000000
3947, 73.333333, -11.420818, 0.000000
3948, 73.333333, -13.000000, 0.000000
3949, 73.333333, -2.000000, -0.263305
3950, 73.333333, -4.374383, -0.575898
3951, 73.333333, -6.279828, -0.826755
3952, 73.333333, -8.040931, -1.058609
3953, 73.333333, -9.714393, -1.278924
3954, 73.333333, -11.325568, -1.491039
3955, 73.333333, -12.888783, -1.696840
3956, 73.333333, -2.000000, -0.535898
3957, 73.333333, -4.302043, -1.152729
3958, 73.333333, -6.149435, -1.647736
3959, 73.333333, -7.856882, -2.105245
3960, 73.333333, -9.479360, -2.539987
3961, 73.333333, -11.041447, -2.958547
3962, 73.333333, -12.557036, -3.364648
3963, 73.333333, -2.000000, -0.828427
3964, 73.333333, -4.182852, -1.732594
3965, 73.333333, -5.934593, -2.458189
3966, 73.333333, -7.553636, -3.128818
3967, 73.333333, -9.092108, -3.766074
3968, 73.333333, -10.573316, -4.379611
3969, 73.333333, -12.010434, -4.974885
3970, 73.333333, -2.000000, -1.154701
3971, 73.333333, -4.018850, -2.320284
3972, 73.333333, -5.638979, -3.255666
3973, 73.333333, -7.136380, -4.120191
3974, 73.333333, -8.559264, -4.941693
3975, 73.333333, -9.929186, -5.732618
3976, 73.333333, -11.258330, -6.500000
3977, 73.333333, -2.000000, -1.534654
3978, 73.333333, -3.812843, -2.925697
3979, 73.333333, -5.267651, -4.042011
3980, 73.333333, -6.612255, -5.073762
3981, 73.333333, -7.889945, -6.054167
3982, 73.333333, -9.120078, -6.998082
3983, 73.333333, -10.313593, -7.913899
3984, 73.333333, -2.000000, -2.000000
3985, 73.333333, -3.568356, -3.568356
3986, 73.333333, -4.826963, -4.826963
3987, 73.333333, -5.990227, -5.990227
3988, 73.333333, -7.095603, -7.095603
3989, 73.333333, -8.159835, -8.159835
3990, 73.333333, -9.192388, -9.192388
3991, 73.333333, -1.534654, -2.000000
3992, 73.333333, -2.925697, -3.812843
3993, 73.333333, -4.042011, -5.267651
3994, 73.333333, -5.073762, -6.612255
3995, 73.333333, -6.054167, -7.889945
3996, 73.333333, -6.998082, -9.120078
3997, 73.333333, -7.913899, -10.313593
3998, 73.333333, -1.154701, -2.000000
3999, 73.333333, -2.320284, -4.018850
4000, 73.333333, -3.255666, -5.638979
4001, 73.333333, -4.120191, -7.136380
4002, 73.333333, -4.941693, -8.559264
4003, 73.333333, -5.732618, -9.929186
4004, 73.333333, -6.500000, -11.258330
4005, 73.333333, -0.828427, -2.000000
4006, 73.333333, -1.732594, -4.182852
4007, 73.333333, -2.458189, -5.934593
4008, 73.333333, -3.128818, -7.553636
4009, 73.333333, -3.766074, -9.092108
4010, 73.333333, -4.379611, -10.573316
4011, 73.333333, -4.974885, -12.010434
4012, 73.333333, -0.535898, -2.000000
4013, 73.333333, -1.152729, -4.302043
4014, 73.333333, -1.647736, -6.149435
4015, 73.333333, -2.105245, -7.856882
4016, 73.333333, -2.539987, -9.479360
4017, 73.333333, -2.958547, -11.041447
4018, 73.333333, -3.364648, -12.557036
4019, 73.333333, -0.263305, -2.000000
4020, 73.333333, -0.575898, -4.374383
4021, 73.333333, -0.826755, -6.279828
4022, 73.333333, -1.058609, -8.040931
4023, 73.333333, -1.278924, -9.714393
4024, 73.333333, -1.491039, -11.325568
4025, 73.333333, -1.696840, -12.888783
4026, 73.333333, -0.000000, -2.000000
4027, 73.333333, -0.000000, -4.398635
4028, 73.333333, -0.000000, -6.323541
4029, 73.333333, -0.000000, -8.102632
4030, 73.333333, -0.000000, -9.793187
4031, 73.333333, -0.000000, -11.420818
4032, 73.333333, -0.000000, -13.000000
4033, 73.333333, 0.263305, -2.000000
4034, 73.333333, 0.575898, -4.374383
4035, 73.333333, 0.826755, -6.279828
4036, 73.333333, 1.058609, -8.040931
4037, 73.333333, 1.278924, -9.714393
4038, 73.333333, 1.491039, -11.325568
4039, 73.333333, 1.696840, -12.888783
4040, 73.333333, 0.535898, -2.000000
4041, 73.333333, 1.152729, -4.302043
4042, 73.333333, 1.647736, -6.149435
4043, 73.333333, 2.105245, -7.856882
4044, 73.333333, 2.539987, -9.479360
4045, 73.333333, 2.958547, -11.041447
4046, 73.333333, 3.364648, -12.557036
4047, 73.333333, 0.828427, -2.000000
4048, 73.333333, 1.732594, -4.182852
4049, 73.333333, 2.458189, -5.934593
4050, 73.333333, 3.128818, -7.553636
4051, 73.333333, 3.766074, -9.092108
4052, 73.333333, 4.379611, -10.573316
4053, 73.333333, 4.974885, -12.010434
4054, 73.333333, 1.154701, -2.000000
4055, 73.333333, 2.320284, -4.018850
4056, 73.333333, 3.255666, -5.638979
4057, 73.333333, 4.120191, -7.136380
4058, 73.333333, 4.941693, -8.559264
4059, 73.333333, 5.732618, -9.929186
4060, 73.333333, 6.500000, -11.258330
4061, 73.333333, 1.534654, -2.000000
4062, 73.333333, 2.925697, -3.812843
4063, 73.333333, 4.042011, -5.267651
4064, 73.333333, 5.073762, -6.612255
4065, 73.333333, 6.054167, -7.889945
4066, 73.333333, 6.998082, -9.120078
4067, 73.333333, 7.913899, -10.313593
4068, 73.333333, 2.000000, -2.000000
4069, 73.333333, 3.568356, -3.568356
4070, 73.333333, 4.826963, -4.826963
4071, 73.333333, 5.990227, -5.990227
4072, 73.333333, 7.095603, -7.095603
4073, 73.333333, 8.159835, -8.159835
4074, 73.333333, 9.192388, -9.192388
4075, 73.333333, 2.000000, -1.534654
4076, 73.333333, 3.812843, -2.925697
4077, 73.333333, 5.267651, -4.042011
4078, 73.333333, 6.612255, -5.073762
4079, 73.333333, 7.889945, -6.054167
4080, 73.333333, 9.120078, -6.998082
4081, 73.333333, 10.313593, -7.913899
4082, 73.333333, 2.000000, -1.154701
4083, 73.333333, 4.018850, -2.320284
4084, 73.333333, 5.638979, -3.255666
4085, 73.333333, 7.136380, -4.120191
4086, 73.333333, 8.559264, -4.941693
4087, 73.333333, 9.929186, -5.732618
4088, 73.333333, 11.258330, -6.500000
4089, 73.333333, 2.000000, -0.828427
4090, 73.333333, 4.182852, -1.732594
4091, 73.333333, 5.934593, -2.458189
4092, 73.333333, 7.553636, -3.128818
4093, 73.333333, 9.092108, -3.766074
4094, 73.333333, 10.573316, -4.379611
4095, 73.333333, 12.010434, -4.974885
4096, 73.333333, 2.000000, -0.535898
4097, 73.333333, 4.302043, -1.152729
4098, 73.333333, 6.149435, -1.647736
4099, 73.333333, 7.856882, -2.105245
4100, 73.333333, 9.479360, -2.539987
4101, 73.333333, 11.041447, -2.958547
4102, 73.333333, 12.557036, -3.364648
4103, 73.333333, 2.000000, -0.263305
4104, 73.333333, 4.374383, -0.575898
4105, 73.333333, 6.279828, -0.826755
4106, 73.333333, 8.040931, -1.058609
4107, 73.333333, 9.714393, -1.278924
4108, 73.333333, 11.325568, -1.491039
4109, 73.333333, 12.888783, -1.696840
4110, 73.333333, 2.000000, -0.000000
4111, 73.333333, 4.398635, -0.000000
4112, 73.333333, 6.323541, -0.000000
4113, 73.333333, 8.102632, -0.000000
4114, 73.333333, 9.793187, -0.000000
4115, 73.333333, 11.420818, -0.000000
4116, 73.333333, 13.000000, -0.000000
4117, 80.000000, 2.000000, 0.000000
4118, 80.000000, 4.398635, 0.000000
4119, 80.000000, 6.323541, 0.000000
4120, 80.000000, 8.102632, 0.000000
4121, 80.000000, 9.793187, 0.000000
4122, 80.000000, 11.420818, 0.000000
4123, 80.000000, 13.000000, 0.000000
4124, 80.000000, 2.000000, 0.263305
4125, 80.000000, 4.374383, 0.575898
4126, 80.000000, 6.279828, 0.826755
4127, 80.000000, 8.040931, 1.058609
4128, 80.000000, 9.714393, 1.278924
4129, 80.000000, 11.325568, 1.491039
4130, 80.000000, 12.888783, 1.696840
4131, 80.000000, 2.000000, 0.535898
4132, 80.000000, 4.302043, 1.152729
4133, 80.000000, 6.149435, 1.647736
4134, 80.000000, 7.856882, 2.105245
4135, 80.000000, 9.479360, 2.539987
4136, 80.000000, 11.041447, 2.958547
4137, 80.000000, 12.557036, 3.364648
4138, 80.000000, 2.000000, 0.828427
4139, 80.000000, 4.182852, 1.732594
4140, 80.000000, 5.934593, 2.458189
4141, 80.000000, 7.553636, 3.128818
4142, 80.000000, 9.092108, 3.766074
4143, 80.000000, 10.573316, 4.379611
4144, 80.000000, 12.010434, 4.974885
4145, 80.000000, 2.000000, 1.154701
4146, 80.000000, 4.018850, 2.320284
4147, 80.000000, 5.638979, 3.255666
4148, 80.000000, 7.136380, 4.120191
4149, 80.000000, 8.559264, 4.941693
4150, 80.000000, 9.929186, 5.732618
4151, 80.000000, 11.258330, 6.500000
4152, 80.000000, 2.000000, 1.534654
4153, 80.000000, 3.812843, 2.925697
4154, 80.000000, 5.267651, 4.042011
4155, 80.000000, 6.612255, 5.073762
4156, 80.000000, 7.889945, 6.054167
4157, 80.000000, 9.120078, 6.998082
4158, 80.000000, 10.313593, 7.913899
4159, 80.000000, 2.000000, 2.000000
4160, 80.000000, 3.568356, 3.568356
4161, 80.000000, 4.826963, 4.826963
4162, 80.000000, 5.990227, 5.990227
4163, 80.000000, 7.095603, 7.095603
4164, 80.000000, 8.159835, 8.159835
4165, 80.000000, 9.192388, 9.192388
4166, 80.000000, 1.534654, 2.000000
4167, 80.000000, 2.925697, 3.812843
4168, 80.000000, 4.042011, 5.267651
4169, 80.000000, 5.073762, 6.612255
4170, 80.000000, 6.054167, 7.889945
4171, 80.000000, 6.998082, 9.120078
4172, 80.000000, 7.913899, 10.313593
4173, 80.000000, 1.154701, 2.000000
4174, 80.000000, 2.320284, 4.018850
4175, 80.000000, 3.255666, 5.638979
4176, 80.000000, 4.120191, 7.136380
4177, 80.000000, 4.941693, 8.559264
4178, 80.000000, 5.732618, 9.929186
4179, 80.000000, 6.500000, 11.258330
4180, 80.000000, 0.828427, 2.000000
4181, 80.000000, 1.732594, 4.182852
4182, 80.000000, 2.458189, 5.934593
4183, 80.000000, 3.128818, 7.553636
4184, 80.000000, 3.766074, 9.092108
4185, 80.000000, 4.379611, 10.573316
4186, 80.000000, 4.974885, 12.010434
4187, 80.000000, 0.535898, 2.000000
4188, 80.000000, 1.152729, 4.302043
4189, 80.000000, 1.647736, 6.149435
4190, 80.000000, 2.105245, 7.856882
4191, 80.000000, 2.539987, 9.479360
4192, 80.000000, 2.958547, 11.041447
4193, 80.000000, 3.364648, 12.557036
4194, 80.000000, 0.263305, 2.000000
4195, 80.000000, 0.575898, 4.374383
4196, 80.000000, 0.826755, 6.279828
4197, 80.000000, 1.058609, 8.040931
4198, 80.000000, 1.278924, 9.714393
4199, 80.000000, 1.491039, 11.325568
4200, 80.000000, 1.696840, 12.888783
4201, 80.000000, 0.000000, 2.000000
4202, 80.000000, 0.000000, 4.398635
4203, 80.000000, 0.000000, 6.323541
4204, 80.000000, 0.000000, 8.102632
4205, 80.000000, 0.000000, 9.793187
4206, 80.000000, 0.000000, 11.420818
4207, 80.000000, 0.000000, 13.000000
4208, 80.000000, -0.263305, 2.000000
4209, 80.000000, -0.575898, 4.374383
4210, 80.000000, -0.826755, 6.279828
4211, 80.000000, -1.058609, 8.040931
4212, 80.000000, -1.278924, 9.714393
4213, 80.000000, -1.491039, 11.325568
4214, 80.000000, -1.696840, 12.888783
4215, 80.000000, -0.535898, 2.000000
4216, 80.000000, -1.152729, 4.302043
4217, 80.000000, -1.647736, 6.149435
4218, 80.000000, -2.105245, 7.856882
4219, 80.000000, -2.539987, 9.479360
4220, 80.000000, -2.958547, 11.041447
4221, 80.000000, -3.364648, 12.557036
4222, 80.000000, -0.828427, 2.000000
4223, 80.000000, -1.732594, 4.182852
4224, 80.000000, -2.458189, 5.934593
4225, 80.000000, -3.128818, 7.553636
4226, 80.000000, -3.766074, 9.092108
4227, 80.000000, -4.379611, 10.573316
4228, 80.000000, -4.974885, 12.010434
4229, 80.000000, -1.154701, 2.000000
4230, 80.000000, -2.320284, 4.018850
4231, 80.000000, -3.255666, 5.638979
4232, 80.000000, -4.120191, 7.136380
4233, 80.000000, -4.941693, 8.559264
4234, 80.000000, -5.732618, 9.929186
4235, 80.000000, -6.500000, 11.258330
4236, 80.000000, -1.534654, 2.000000
4237, 80.000000, -2.925697, 3.812843
4238, 80.000000, -4.042011, 5.267651
4239, 80.000000, -5.073762, 6.612255
4240, 80.000000, -6.054167, 7.889945
4241, 80.000000, -6.998082, 9.120078
4242, 80.000000, -7.913899, 10.313593
4243, 80.000000, -2.000000, 2.000000
4244, 80.000000, -3.568356, 3.568356
4245, 80.000000, -4.826963, 4.826963
4246, 80.000000, -5.990227, 5.990227
4247, 80.000000, -7.095603, 7.095603
4248, 80.000000, -8.159835, 8.159835
4249, 80.000000, -9.192388, 9.192388
4250, 80.000000, -2.000000, 1.534654
4251, 80.000000, -3.812843, 2.925697
4252, 80.000000, -5.267651, 4.042011
4253, 80.000000, -6.612255, 5.073762
4254, 80.000000, -7.889945, 6.054167
4255, 80.000000, -9.120078, 6.998082
4256, 80.000000, -10.313593, 7.913899
4257, 80.000000, -2.000000, 1.154701
4258, 80.000000, -4.018850, 2.320284
4259, 80.000000, -5.638979, 3.255666
4260, 80.000000, -7.136380, 4.120191
4261, 80.000000, -8.559264, 4.941693
4262, 80.000000, -9.929186, 5.732618
4263, 80.000000, -11.258330, 6.500000
4264, 80.000000, -2.000000, 0.828427
4265, 80.000000, -4.182852, 1.732594
4266, 80.000000, -5.934593, 2.458189
4267, 80.000000, -7.553636, 3.128818
4268, 80.000000, -9.092108, 3.766074
4269, 80.000000, -10.573316, 4.379611
4270, 80.000000, -12.010434, 4.974885
4271, 80.000000, -2.000000, 0.535898
4272, 80.000000, -4.302043, 1.152729
4273, 80.000000, -6.149435, 1.647736
4274, 80.000000, -7.856882, 2.105245
4275, 80.000000, -9.479360, 2.539987
4276, 80.000000, -11.041447, 2.958547
4277, 80.000000, -12.557036, 3.364648
4278, 80.000000, -2.000000, 0.263305
4279, 80.000000, -4.374383, 0.575898
4280, 80.000000, -6.279828, 0.826755
4281, 80.000000, -8.040931, 1.058609
4282, 80.000000, -9.714393, 1.278924
4283, 80.000000, -11.325568, 1.491039
4284, 80.000000, -12.888783, 1.696840
4285, 80.000000, -2.000000, 0.000000
4286, 80.000000, -4.398635, 0.000000
4287, 80.000000, -6.323541, 0.000000
4288, 80.000000, -8.102632, 0.000000
4289, 80.000000, -9.793187, 0.000000
4290, 80.000000, -11.420818, 0.000000
4291, 80.000000, -13.000000, 0.000000
4292, 80.000000, -2.000000, -0.263305
4293, 80.000000, -4.374383, -0.575898
4294, 80.000000, -6.279828, -0.826755
4295, 80.000000, -8.040931, -1.058609
4296, 80.000000, -9.714393, -1.278924
4297, 80.000000, -11.325568, -1.491039
4298, 80.000000, -12.888783, -1.696840
4299, 80.000000, -2.000000, -0.535898
4300, 80.000000, -4.302043, -1.152729
4301, 80.000000, -6.149435, -1.647736
4302, 80.000000, -7.856882, -2.105245
4303, 80.000000, -9.479360, -2.539987
4304, 80.000000, -11.041447, -2.958547
4305, 80.000000, -12.557036, -3.364648
4306, 80.000000, -2.000000, -0.828427
4307, 80.000000, -4.182852, -1.732594
4308, 80.000000, -5.934593, -2.458189
4309, 80.000000, -7.553636, -3.128818
4310, 80.000000, -9.092108, -3.766074
4311, 80.000000, -10.573316, -4.379611
4312, 80.000000, -12.010434, -4.974885
4313, 80.000000, -2.000000, -1.154701
4314, 80.000000, -4.018850, -2.320284
4315, 80.000000, -5.638979, -3.255666
4316, 80.000000, -7.136380, -4.120191
4317, 80.000000, -8.559264, -4.941693
4318, 80.000000, -9.929186, -5.732618
4319, 80.000000, -11.258330, -6.500000
4320, 80.000000, -2.000000, -1.534654
4321, 80.000000, -3.812843, -2.925697
4322, 80.000000, -5.267651, -4.042011
4323, 80.000000, -6.612255, -5.073762
4324, 80.000000, -7.889945, -6.054167
4325, 80.000000, -9.120078, -6.998082
4326, 80.000000, -10.313593, -7.913899
4327, 80.000000, -2.000000, -2.000000
4328, 80.000000, -3.568356, -3.568356
4329, 80.000000, -4.826963, -4.826963
4330, 80.000000, -5.990227, -5.990227
4331, 80.000000, -7.095603, -7.095603
4332, 80.000000, -8.159835, -8.159835
4333, 80.000000, -9.192388, -9.192388
4334, 80.000000, -1.534654, -2.000000
4335, 80.000000, -2.925697, -3.812843
4336, 80.000000, -4.042011, -5.267651
4337, 80.000000, -5.073762, -6.612255
4338, 80.000000, -6.054167, -7.889945
4339, 80.000000, -6.998082, -9.120078
4340, 80.000000, -7.913899, -10.313593
4341, 80.000000, -1.154701, -2.000000
4342, 80.000000, -2.320284, -4.018850
4343, 80.000000, -3.255666, -5.638979
4344, 80.000000, -4.120191, -7.136380
4345, 80.000000, -4.941693, -8.559264
4346, 80.000000, -5.732618, -9.929186
4347, 80.000000, -6.500000, -11.258330
4348, 80.000000, -0.828427, -2.000000
4349, 80.000000, -1.732594, -4.182852
4350, 80.000000, -2.458189, -5.934593
4351, 80.000000, -3.128818, -7.553636
4352, 80.000000, -3.766074, -9.092108
4353, 80.000000, -4.379611, -10.573316
4354, 80.000000, -4.974885, -12.010434
4355, 80.000000, -0.535898, -2.000000
4356, 80.000000, -1.152729, -4.302043
4357, 80.000000, -1.647736, -6.149435
4358, 80.000000, -2.105245, -7.856882
4359, 80.000000, -2.539987, -9.479360
4360, 80.000000, -2.958547, -11.041447
4361, 80.000000, -3.364648, -12.557036
4362, 80.000000, -0.263305, -2.000000
4363, 80.000000, -0.575898, -4.374383
4364, 80.000000, -0.826755, -6.279828
4365, 80.000000, -1.058609, -8.040931
4366, 80.000000, -1.278924, -9.714393
4367, 80.000000, -1.491039, -11.325568
4368, 80.000000, -1.696840, -12.888783
4369, 80.000000, -0.000000, -2.000000
4370, 80.000000, -0.000000, -4.398635
4371, 80.000000, -0.000000, -6.323541
4372, 80.000000, -0.000000, -8.102632
4373, 80.000000, -0.000000, -9.793187
4374, 80.000000, -0.000000, -11.420818
4375, 80.000000, -0.000000, -13.000000
4376, 80.000000, 0.263305, -2.000000
4377, 80.000000, 0.575898, -4.374383
4378, 80.000000, 0.826755, -6.279828
4379, 80.000000, 1.058609, -8.040931
4380, 80.000000, 1.278924, -9.714393
4381, 80.000000, 1.491039, -11.325568
4382, 80.000000, 1.696840, -12.888783
4383, 80.000000, 0.535898, -2.000000
4384, 80.000000, 1.152729, -4.302043
4385, 80.000000, 1.647736, -6.149435
4386, 80.000000, 2.105245, -7.856882
4387, 80.000000, 2.539987, -9.479360
4388, 80.000000, 2.958547, -11.041447
4389, 80.000000, 3.364648, -12.557036
4390, 80.000000, 0.828427, -2.000000
4391, 80.000000, 1.732594, -4.182852
4392, 80.000000, 2.458189, -5.934593
4393, 80.000000, 3.128818, -7.553636
4394, 80.000000, 3.766074, -9.092108
4395, 80.000000, 4.379611, -10.573316
4396, 80.000000, 4.974885, -12.010434
4397, 80.000000, 1.154701, -2.000000
4398, 80.000000, 2.320284, -4.018850
4399, 80.000000, 3.255666, -5.638979
4400, 80.000000, 4.120191, -7.136380
4401, 80.000000, 4.941693, -8.559264
4402, 80.000000, 5.732618, -9.929186
4403, 80.000000, 6.500000, -11.258330
4404, 80.000000, 1.534654, -2.000000
4405, 80.000000, 2.925697, -3.812843
4406, 80.000000, 4.042011, -5.267651
4407, 80.000000, 5.073762, -6.612255
4408, 80.000000, 6.054167, -7.889945
4409, 80.000000, 6.998082, -9.120078
4410, 80.000000, 7.913899, -10.313593
4411, 80.000000, 2.000000, -2.000000
4412, 80.000000, 3.568356, -3.568356
4413, 80.000000, 4.826963, -4.826963
4414, 80.000000, 5.990227, -5.990227
4415, 80.000000, 7.095603, -7.095603
4416, 80.000000, 8.159835, -8.159835
4417, 80.000000, 9.192388, -9.192388
4418, 80.000000, 2.000000, -1.534654
4419, 80.000000, 3.812843, -2.925697
4420, 80.000000, 5.267651, -4.042011
4421, 80.000000, 6.612255, -5.073762
4422, 80.000000, 7.889945, -6.054167
4423, 80.000000, 9.120078, -6.998082
4424, 80.000000, 10.313593, -7.913899
4425, 80.000000, 2.000000, -1.154701
4426, 80.000000, 4.018850, -2.320284
4427, 80.000000, 5.638979, -3.255666
4428, 80.000000, 7.136380, -4.120191
4429, 80.000000, 8.559264, -4.941693
4430, 80.000000, 9.929186, -5.732618
4431, 80.000000, 11.258330, -6.500000
4432, 80.000000, 2.000000, -0.828427
4433, 80.000000, 4.182852, -1.732594
4434, 80.000000, 5.934593, -2.458189
4435, 80.000000, 7.553636, -3.128818
4436, 80.000000, 9.092108, -3.766074
4437, 80.000000, 10.573316, -4.379611
4438, 80.000000, 12.010434, -4.974885
4439, 80.000000, 2.000000, -0.535898
4440, 80.000000, 4.302043, -1.152729
4441, 80.000000, 6.149435, -1.647736
4442, 80.000000, 7.856882, -2.105245
4443, 80.000000, 9.479360, -2.539987
4444, 80.000000, 11.041447, -2.958547
4445, 80.000000, 12.557036, -3.364648
4446, 80.000000, 2.000000, -0.263305
4447, 80.000000, 4.374383, -0.575898
4448, 80.000000, 6.279828, -0.826755
4449, 80.000000, 8.040931, -1.058609
4450, 80.000000, 9.714393, -1.278924
4451, 80.000000, 11.325568, -1.491039
4452, 80.000000, 12.888783, -1.696840
4453, 80.000000, 2.000000, -0.000000
4454, 80.000000, 4.398635, -0.000000
4455, 80.000000, 6.323541, -0.000000
4456, 80.000000, 8.102632, -0.000000
4457, 80.000000, 9.793187, -0.000000
4458, 80.000000, 11.420818, -0.000000
4459, 80.000000, 13.000000, -0.000000
4460, 86.666667, 2.000000, 0.000000
4461, 86.666667, 4.398635, 0.000000
4462, 86.666667, 6.323541, 0.000000
4463, 86.666667, 8.102632, 0.000000
4464, 86.666667, 9.793187, 0.000000
4465, 86.666667, 11.420818, 0.000000
4466, 86.666667, 13.000000, 0.000000
4467, 86.666667, 2.000000, 0.263305
4468, 86.666667, 4.374383, 0.575898
4469, 86.666667, 6.279828, 0.826755
4470, 86.666667, 8.040931, 1.058609
4471, 86.666667, 9.714393, 1.278924
4472, 86.666667, 11.325568, 1.491039
4473, 86.666667, 12.888783, 1.696840
4474, 86.666667, 2.000000, 0.535898
4475, 86.666667, 4.302043, 1.152729
4476, 86.666667, 6.149435, 1.647736
4477, 86.666667, 7.856882, 2.105245
4478, 86.666667, 9.479360, 2.539987
4479, 86.666667, 11.041447, 2.958547
4480, 86.666667, 12.557036, 3.364648
4481, 86.666667, 2.000000, 0.828427
4482, 86.666667, 4.182852, 1.732594
4483, 86.666667, 5.934593, 2.458189
4484, 86.666667, 7.553636, 3.128818
4485, 86.666667, 9.092108, 3.766074
4486, 86.666667, 10.573316, 4.379611
4487, 86.666667, 12.010434, 4.974885
4488, 86.666667, 2.000000, 1.154701
4489, 86.666667, 4.018850, 2.320284
4490, 86.666667, 5.638979, 3.255666
4491, 86.666667, 7.136380, 4.120191
4492, 86.666667, 8.559264, 4.941693
4493, 86.666667, 9.929186, 5.732618
4494, 86.666667, 11.258330, 6.500000
4495, 86.666667, 2.000000, 1.534654
4496, 86.666667, 3.812843, 2.925697
4497, 86.666667, 5.267651, 4.042011
4498, 86.666667, 6.612255, 5.073762
4499, 86.666667, 7.889945, 6.054167
4500, 86.666667, 9.120078, 6.998082
4501, 86.666667, 10.313593, 7.913899
4502, 86.666667, 2.000000, 2.000000
4503, 86.666667, 3.568356, 3.568356
4504, 86.666667, 4.826963, 4.826963
4505, 86.666667, 5.990227, 5.990227
4506, 86.666667, 7.095603, 7.095603
4507, 86.666667, 8.159835, 8.159835
4508, 86.666667, 9.192388, 9.192388
4509, 86.666667, 1.534654, 2.000000
4510, 86.666667, 2.925697, 3.812843
4511, 86.666667, 4.042011, 5.267651
4512, 86.666667, 5.073762, 6.612255
4513, 86.666667, 6.054167, 7.889945
4514, 86.666667, 6.998082, 9.120078
4515, 86.666667, 7.913899, 10.313593
4516, 86.666667, 1.154701, 2.000000
4517, 86.666667, 2.320284, 4.018850
4518, 86.666667, 3.255666, 5.638979
4519, 86.666667, 4.120191, 7.136380
4520, 86.666667, 4.941693, 8.559264
4521, 86.666667, 5.732618, 9.929186
4522, 86.666667, 6.500000, 11.258330
4523, 86.666667, 0.828427, 2.000000
4524, 86.666667, 1.732594, 4.182852
4525, 86.666667, 2.458189, 5.934593
4526, 86.666667, 3.128818, 7.553636
4527, 86.666667, 3.766074, 9.092108
4528, 86.666667, 4.379611, 10.573316
4529, 86.666667, 4.974885, 12.010434
4530, 86.666667, 0.535898, 2.000000
4531, 86.666667, 1.152729, 4.302043
4532, 86.666667, 1.647736, 6.149435
4533, 86.666667, 2.105245, 7.856882
4534, 86.666667, 2.539987, 9.479360
4535, 86.666667, 2.958547, 11.041447
4536, 86.666667, 3.364648, 12.557036
4537, 86.666667, 0.263305, 2.000000
4538, 86.666667, 0.575898, 4.374383
4539, 86.666667, 0.826755, 6.279828
4540, 86.666667, 1.058609, 8.040931
4541, 86.666667, 1.278924, 9.714393
4542, 86.666667, 1.491039, 11.325568
4543, 86.666667, 1.696840, 12.888783
4544, 86.666667, 0.000000, 2.000000
4545, 86.666667, 0.000000, 4.398635
4546, 86.666667, 0.000000, 6.323541
4547, 86.666667, 0.000000, 8.102632
4548, 86.666667, 0.000000, 9.793187
4549, 86.666667, 0.000000, 11.420818
4550, 86.666667, 0.000000, 13.000000
4551, 86.666667, -0.263305, 2.000000
4552, 86.666667, -0.575898, 4.374383
4553, 86.666667, -0.826755, 6.279828
4554, 86.666667, -1.058609, 8.040931
4555, 86.666667, -1.278924, 9.714393
4556, 86.666667, -1.491039, 11.325568
4557, 86.666667, -1.696840, 12.888783
4558, 86.666667, -0.535898, 2.000000
4559, 86.666667, -1.152729, 4.302043
4560, 86.666667, -1.647736, 6.149435
4561, 86.666667, -2.105245, 7.856882
4562, 86.666667, -2.539987, 9.479360
4563, 86.666667, -2.958547, 11.041447
4564, 86.666667, -3.364648, 12.557036
4565, 86.666667, -0.828427, 2.000000
4566, 86.666667, -1.732594, 4.182852
4567, 86.666667, -2.458189, 5.934593
4568, 86.666667, -3.128818, 7.553636
4569, 86.666667, -3.766074, 9.092108
4570, 86.666667, -4.379611, 10.573316
4571, 86.666667, -4.974885, 12.010434
4572, 86.666667, -1.154701, 2.000000
4573, 86.666667, -2.320284, 4.018850
4574, 86.666667, -3.255666, 5.638979
4575, 86.666667, -4.120191, 7.136380
4576, 86.666667, -4.941693, 8.559264
4577, 86.666667, -5.732618, 9.929186
4578, 86.666667, -6.500000, 11.258330
4579, 86.666667, -1.534654, 2.000000
4580, 86.666667, -2.925697, 3.812843
4581, 86.666667, -4.042011, 5.267651
4582, 86.666667, -5.073762, 6.612255
4583, 86.666667, -6.054167, 7.889945
4584, 86.666667, -6.998082, 9.120078
4585, 86.666667, -7.913899, 10.313593
4586, 86.666667, -2.000000, 2.000000
4587, 86.666667, -3.568356, 3.568356
4588, 86.666667, -4.826963, 4.826963
4589, 86.666667, -5.990227, 5.990227
4590, 86.666667, -7.095603, 7.095603
4591, 86.666667, -8.159835, 8.159835
4592, 86.666667, -9.192388, 9.192388
4593, 86.666667, -2.000000, 1.534654
4594, 86.666667, -3.812843, 2.925697
4595, 86.666667, -5.267651, 4.042011
4596, 86.666667, -6.612255, 5.073762
4597, 86.666667, -7.889945, 6.054167
4598, 86.666667, -9.120078, 6.998082
4599, 86.666667, -10.313593, 7.913899
4600, 86.666667, -2.000000, 1.154701
4601, 86.666667, -4.018850, 2.320284
4602, 86.666667, -5.638979, 3.255666
4603, 86.666667, -7.136380, 4.120191
4604, 86.666667, -8.559264, 4.941693
4605, 86.666667, -9.929186, 5.732618
4606, 86.666667, -11.258330, 6.500000
4607, 86.666667, -2.000000, 0.828427
4608, 86.666667, -4.182852, 1.732594
4609, 86.666667, -5.934593, 2.458189
4610, 86.666667, -7.553636, 3.128818
4611, 86.666667, -9.092108, 3.766074
4612, 86.666667, -10.573316, 4.379611
4613, 86.666667, -12.010434, 4.974885
4614, 86.666667, -2.000000, 0.535898
4615, 86.666667, -4.302043, 1.152729
4616, 86.666667, -6.149435, 1.647736
4617, 86.666667, -7.856882, 2.105245
4618, 86.666667, -9.479360, 2.539987
4619, 86.666667, -11.041447, 2.958547
4620, 86.666667, -12.557036, 3.364648
4621, 86.666667, -2.000000, 0.263305
4622, 86.666667, -4.374383, 0.575898
4623, 86.666667, -6.279828, 0.826755
4624, 86.666667, -8.040931, 1.058609
4625, 86.666667, -9.714393, 1.278924
4626, 86.666667, -11.325568, 1.491039
4627, 86.666667, -12.888783, 1.696840
4628, 86.666667, -2.000000, 0.000000
4629, 86.666667, -4.398635, 0.000000
4630, 86.666667, -6.323541, 0.000000
4631, 86.666667, -8.102632, 0.000000
4632, 86.666667, -9.793187, 0.000000
4633, 86.666667, -11.420818, 0.000000
4634, 86.666667, -13.000000, 0.000000
4635, 86.666667, -2.000000, -0.263305
4636, 86.666667, -4.374383, -0.575898
4637, 86.666667, -6.279828, -0.826755
4638, 86.666667, -8.040931, -1.058609
4639, 86.666667, -9.714393, -1.278924
4640, 86.666667, -11.325568, -1.491039
4641, 86.666667, -12.888783, -1.696840
4642, 86.666667, -2.000000, -0.535898
4643, 86.666667, -4.302043, -1.152729
4644, 86.666667, -6.149435, -1.647736
4645, 86.666667, -7.856882, -2.105245
4646, 86.666667, -9.479360, -2.539987
4647, 86.666667, -11.041447, -2.958547
4648, 86.666667, -12.557036, -3.364648
4649, 86.666667, -2.000000, -0.828427
4650, 86.666667, -4.182852, -1.732594
4651, 86.666667, -5.934593, -2.458189
4652, 86.666667, -7.553636, -3.128818
4653, 86.666667, -9.092108, -3.766074
4654, 86.666667, -10.573316, -4.379611
4655, 86.666667, -12.010434, -4.974885
4656, 86.666667, -2.000000, -1.154701
4657, 86.666667, -4.018850, -2.320284
4658, 86.666667, -5.638979, -3.255666
4659, 86.666667, -7.136380, -4.120191
4660, 86.666667, -8.559264, -4.941693
4661, 86.666667, -9.929186, -5.732618
4662, 86.666667, -11.258330, -6.500000
4663, 86.666667, -2.000000, -1.534654
4664, 86.666667, -3.812843, -2.925697
4665, 86.666667, -5.267651, -4.042011
4666, 86.666667, -6.612255, -5.073762
4667, 86.666667, -7.889945, -6.054167
4668, 86.666667, -9.120078, -6.998082
4669, 86.666667, -10.313593, -7.913899
4670, 86.666667, -2.000000, -2.000000
4671, 86.666667, -3.568356, -3.568356
4672, 86.666667, -4.826963, -4.826963
4673, 86.666667, -5.990227, -5.990227
4674, 86.666667, -7.095603, -7.095603
4675, 86.666667, -8.159835, -8.159835
4676, 86.666667, -9.192388, -9.192388
4677, 86.666667, -1.534654, -2.000000
4678, 86.666667, -2.925697, -3.812843
4679, 86.666667, -4.042011, -5.267651
4680, 86.666667, -5.073762, -6.612255
4681, 86.666667, -6.054167, -7.889945
4682, 86.666667, -6.998082, -9.120078
4683, 86.666667, -7.913899, -10.313593
4684, 86.666667, -1.154701, -2.000000
4685, 86.666667, -2.320284, -4.018850
4686, 86.666667, -3.255666, -5.638979
4687, 86.666667, -4.120191, -7.136380
4688, 86.666667, -4.941693, -8.559264
4689, 86.666667, -5.732618, -9.929186
4690, 86.666667, -6.500000, -11.258330
4691, 86.666667, -0.828427, -2.000000
4692, 86.666667, -1.732594, -4.182852
4693, 86.666667, -2.458189, -5.934593
4694, 86.666667, -3.128818, -7.553636
4695, 86.666667, -3.766074, -9.092108
4696, 86.666667, -4.379611, -10.573316
4697, 86.666667, -4.974885, -12.010434
4698, 86.666667, -0.535898, -2.000000
4699, 86.666667, -1.152729, -4.302043
4700, 86.666667, -1.647736, -6.149435
4701, 86.666667, -2.105245, -7.856882
4702, 86.666667, -2.539987, -9.479360
4703, 86.666667, -2.958547, -11.041447
4704, 86.666667, -3.364648, -12.557036
4705, 86.666667, -0.263305, -2.000000
4706, 86.666667, -0.575898, -4.374383
4707, 86.666667, -0.826755, -6.279828
4708, 86.666667, -1.058609, -8.040931
4709, 86.666667, -1.278924, -9.714393
4710, 86.666667, -1.491039, -11.325568
4711, 86.666667, -1.696840, -12.888783
4712, 86.666667, -0.000000, -2.000000
4713, 86.666667, -0.000000, -4.398635
4714, 86.666667, -0.000000, -6.323541
4715, 86.666667, -0.000000, -8.102632
4716, 86.666667, -0.000000, -9.793187
4717, 86.666667, -0.000000, -11.420818
4718, 86.666667, -0.000000, -13.000000
4719, 86.666667, 0.263305, -2.000000
4720, 86.666667, 0.575898, -4.374383
4721, 86.666667, 0.826755, -6.279828
4722, 86.666667, 1.058609, -8.040931
4723, 86.666667, 1.278924, -9.714393
4724, 86.666667, 1.491039, -11.325568
4725, 86.666667, 1.696840, -12.888783
4726, 86.666667, 0.535898, -2.000000
4727, 86.666667, 1.152729, -4.302043
4728, 86.666667, 1.647736, -6.149435
4729, 86.666667, 2.105245, -7.856882
4730, 86.666667, 2.539987, -9.479360
4731, 86.666667, 2.958547, -11.041447
4732, 86.666667, 3.364648, -12.557036
4733, 86.666667, 0.828427, -2.000000
4734, 86.666667, 1.732594, -4.182852
4735, 86.666667, 2.458189, -5.934593
4736, 86.666667, 3.128818, -7.553636
4737, 86.666667, 3.766074, -9.092108
4738, 86.666667, 4.379611, -10.573316
4739, 86.666667, 4.974885, -12.010434
4740, 86.666667, 1.154701, -2.000000
4741, 86.666667, 2.320284, -4.018850
4742, 86.666667, 3.255666, -5.638979
4743, 86.666667, 4.120191, -7.136380
4744, 86.666667, 4.941693, -8.559264
4745, 86.666667, 5.732618, -9.929186
4746, 86.666667, 6.500000, -11.258330
4747, 86.666667, 1.534654, -2.000000
4748, 86.666667, 2.925697, -3.812843
4749, 86.666667, 4.042011, -5.267651
4750, 86.666667, 5.073762, -6.612255
4751, 86.666667, 6.054167, -7.889945
4752, 86.666667, 6.998082, -9.120078
4753, 86.666667, 7.913899, -10.313593
4754, 86.666667, 2.000000, -2.000000
4755, 86.666667, 3.568356, -3.568356
4756, 86.666667, 4.826963, -4.826963
4757, 86.666667, 5.990227, -5.990227
4758, 86.666667, 7.095603, -7.095603
4759, 86.666667, 8.159835, -8.159835
4760, 86.666667, 9.192388, -9.192388
4761, 86.666667, 2.000000, -1.534654
4762, 86.666667, 3.812843, -2.925697
4763, 86.666667, 5.267651, -4.042011
4764, 86.666667, 6.612255, -5.073762
4765, 86.666667, 7.889945, -6.054167
4766, 86.666667, 9.120078, -6.998082
4767, 86.666667, 10.313593, -7.913899
4768, 86.666667, 2.000000, -1.154701
4769, 86.666667, 4.018850, -2.320284
4770, 86.666667, 5.638979, -3.255666
4771, 86.666667, 7.136380, -4.120191
4772, 86.666667, 8.559264, -4.941693
4773, 86.666667, 9.929186, -5.732618
4774, 86.666667, 11.258330, -6.500000
4775, 86.666667, 2.000000, -0.828427
4776, 86.666667, 4.182852, -1.732594
4777, 86.666667, 5.934593, -2.458189
4778, 86.666667, 7.553636, -3.128818
4779, 86.666667, 9.092108, -3.766074
4780, 86.666667, 10.573316, -4.379611
4781, 86.666667, 12.010434, -4.974885
4782, 86.666667, 2.000000, -0.535898
4783, 86.666667, 4.302043, -1.152729
4784, 86.666667, 6.149435, -1.647736
4785, 86.666667, 7.856882, -2.105245
4786, 86.666667, 9.479360, -2.539987
4787, 86.666667, 11.041447, -2.958547
4788, 86.666667, 12.557036, -3.364648
4789, 86.666667, 2.000000, -0.263305
4790, 86.666667, 4.374383, -0.575898
4791, 86.666667, 6.279828, -0.826755
4792, 86.666667, 8.040931, -1.058609
4793, 86.666667, 9.714393, -1.278924
4794, 86.666667, 11.325568, -1.491039
4795, 86.666667, 12.888783, -1.696840
4796, 86.666667, 2.000000, -0.000000
4797, 86.666667, 4.398635, -0.000000
4798, 86.666667, 6.323541, -0.000000
4799, 86.666667, 8.102632, -0.000000
4800, 86.666667, 9.793187, -0.000000
4801, 86.666667, 11.420818, -0.000000
4802, 86.666667, 13.000000, -0.000000
4803, 93.333333, 2.000000, 0.000000
4804, 93.333333, 4.398635, 0.000000
4805, 93.333333, 6.323541, 0.000000
4806, 93.333333, 8.102632, 0.000000
4807, 93.333333, 9.793187, 0.000000
4808, 93.333333, 11.420818, 0.000000
4809, 93.333333, 13.000000, 0.000000
4810, 93.333333, 2.000000, 0.263305
4811, 93.333333, 4.374383, 0.575898
4812, 93.333333, 6.279828, 0.826755
4813, 93.333333, 8.040931, 1.058609
4814, 93.333333, 9.714393, 1.278924
4815, 93.333333, 11.325568, 1.491039
4816, 93.333333, 12.888783, 1.696840
4817, 93.333333, 2.000000, 0.535898
4818, 93.333333, 4.302043, 1.152729
4819, 93.333333, 6.149435, 1.647736
4820, 93.333333, 7.856882, 2.105245
4821, 93.333333, 9.479360, 2.539987
4822, 93.333333, 11.041447, 2.958547
4823, 93.333333, 12.557036, 3.364648
4824, 93.333333, 2.000000, 0.828427
4825, 93.333333, 4.182852, 1.732594
4826, 93.333333, 5.934593, 2.458189
4827, 93.333333, 7.553636, 3.128818
4828, 93.333333, 9.092108, 3.766074
4829, 93.333333, 10.573316, 4.379611
4830, 93.333333, 12.010434, 4.974885
4831, 93.333333, 2.000000, 1.154701
4832, 93.333333, 4.018850, 2.320284
4833, 93.333333, 5.638979, 3.255666
4834, 93.333333, 7.136380, 4.120191
4835, 93.333333, 8.559264, 4.941693
4836, 93.333333, 9.929186, 5.732618
4837, 93.333333, 11.258330, 6.500000
4838, 93.333333, 2.000000, 1.534654
4839, 93.333333, 3.812843, 2.925697
4840, 93.333333, 5.267651, 4.042011
4841, 93.333333, 6.612255, 5.073762
4842, 93.333333, 7.889945, 6.054167
4843, 93.333333, 9.120078, 6.998082
4844, 93.333333, 10.313593, 7.913899
4845, 93.333333, 2.000000, 2.000000
4846, 93.333333, 3.568356, 3.568356
4847, 93.333333, 4.826963, 4.826963
4848, 93.333333, 5.990227, 5.990227
4849, 93.333333, 7.095603, 7.095603
4850, 93.333333, 8.159835, 8.159835
4851, 93.333333, 9.192388, 9.192388
4852, 93.333333, 1.534654, 2.000000
4853, 93.333333, 2.925697, 3.812843
4854, 93.333333, 4.042011, 5.267651
4855, 93.333333, 5.073762, 6.612255
4856, 93.333333, 6.054167, 7.889945
4857, 93.333333, 6.998082, 9.120078
4858, 93.333333, 7.913899, 10.313593
4859, 93.333333, 1.154701, 2.000000
4860, 93.333333, 2.320284, 4.018850
4861, 93.333333, 3.255666, 5.638979
4862, 93.333333, 4.120191, 7.136380
4863, 93.333333, 4.941693, 8.559264
4864, 93.333333, 5.732618, 9.929186
4865, 93.333333, 6.500000, 11.258330
4866, 93.333333, 0.828427, 2.000000
4867, 93.333333, 1.732594, 4.182852
4868, 93.333333, 2.458189, 5.934593
4869, 93.333333, 3.128818, 7.553636
4870, 93.333333, 3.766074, 9.092108
4871, 93.333333, 4.379611, 10.573316
4872, 93.333333, 4.974885, 12.010434
4873, 93.333333, 0.535898, 2.000000
4874, 93.333333, 1.152729, 4.302043
4875, 93.333333, 1.647736, 6.149435
4876, 93.333333, 2.105245, 7.856882
4877, 93.333333, 2.539987, 9.479360
4878, 93.333333, 2.958547, 11.041447
4879, 93.333333, 3.364648, 12.557036
4880, 93.333333, 0.263305, 2.000000
4881, 93.333333, 0.575898, 4.374383
4882, 93.333333, 0.826755, 6.279828
4883, 93.333333, 1.058609, 8.040931
4884, 93.333333, 1.278924, 9.714393
4885, 93.333333, 1.491039, 11.325568
4886, 93.333333, 1.696840, 12.888783
4887, 93.333333, 0.000000, 2.000000
4888, 93.333333, 0.000000, 4.398635
4889, 93.333333, 0.000000, 6.323541
4890, 93.333333, 0.000000, 8.102632
4891, 93.333333, 0.000000, 9.793187
4892, 93.333333, 0.000000, 11.420818
4893, 93.333333, 0.000000, 13.000000
4894, 93.333333, -0.263305, 2.000000
4895, 93.333333, -0.575898, 4.374383
4896, 93.333333, -0.826755, 6.279828
4897, 93.333333, -1.058609, 8.040931
4898, 93.333333, -1.278924, 9.714393
4899, 93.333333, -1.491039, 11.325568
4900, 93.333333, -1.696840, 12.888783
4901, 93.333333, -0.535898, 2.000000
4902, 93.333333, -1.152729, 4.302043
4903, 93.333333, -1.647736, 6.149435
4904, 93.333333, -2.105245, 7.856882
4905, 93.333333, -2.539987, 9.479360
4906, 93.333333, -2.958547, 11.041447
4907, 93.333333, -3.364648, 12.557036
4908, 93.333333, -0.828427, 2.000000
4909, 93.333333, -1.732594, 4.182852
4910, 93.333333, -2.458189, 5.934593
4911, 93.333333, -3.128818, 7.553636
4912, 93.333333, -3.766074, 9.092108
4913, 93.333333, -4.379611, 10.573316
4914, 93.333333, -4.974885, 12.010434
4915, 93.333333, -1.154701, 2.000000
4916, 93.333333, -2.320284, 4.018850
4917, 93.333333, -3.255666, 5.638979
4918, 93.333333, -4.120191, 7.136380
4919, 93.333333, -4.941693, 8.559264
4920, 93.333333, -5.732618, 9.929186
4921, 93.333333, -6.500000, 11.258330
4922, 93.333333, -1.534654, 2.000000
4923, 93.333333, -2.925697, 3.812843
4924, 93.333333, -4.042011, 5.267651
4925, 93.333333, -5.073762, 6.612255
4926, 93.333333, -6.054167, 7.889945
4927, 93.333333, -6.998082, 9.120078
4928, 93.333333, -7.913899, 10.313593
4929, 93.333333, -2.000000, 2.000000
4930, 93.333333, -3.568356, 3.568356
4931, 93.333333, -4.826963, 4.826963
4932, 93.333333, -5.990227, 5.990227
4933, 93.333333, -7.095603, 7.095603
4934, 93.333333, -8.159835, 8.159835
4935, 93.333333, -9.192388, 9.192388
4936, 93.333333, -2.000000, 1.534654
4937, 93.333333, -3.812843, 2.925697
4938, 93.333333, -5.267651, 4.042011
4939, 93.333333, -6.612255, 5.073762
4940, 93.333333, -7.889945, 6.054167
4941, 93.333333, -9.120078, 6.998082
4942, 93.333333, -10.313593, 7.913899
4943, 93.333333, -2.000000, 1.154701
4944, 93.333333, -4.018850, 2.320284
4945, 93.333333, -5.638979, 3.255666
4946, 93.333333, -7.136380, 4.120191
4947, 93.333333, -8.559264, 4.941693
4948, 93.333333, -9.929186, 5.732618
4949, 93.333333, -11.258330, 6.500000
4950, 93.333333, -2.000000, 0.828427
4951, 93.333333, -4.182852, 1.732594
4952, 93.333333, -5.934593, 2.458189
4953, 93.333333, -7.553636, 3.128818
4954, 93.333333, -9.092108, 3.766074
4955, 93.333333, -10.573316, 4.379611
4956, 93.333333, -12.010434, 4.974885
4957, 93.333333, -2.000000, 0.535898
4958, 93.333333, -4.302043, 1.152729
4959, 93.333333, -6.149435, 1.647736
4960, 93.333333, -7.856882, 2.105245
4961, 93.333333, -9.479360, 2.539987
4962, 93.333333, -11.041447, 2.958547
4963, 93.333333, -12.557036, 3.364648
4964, 93.333333, -2.000000, 0.263305
4965, 93.333333, -4.374383, 0.575898
4966, 93.333333, -6.279828, 0.826755
4967, 93.333333, -8.040931, 1.058609
4968, 93.333333, -9.714393, 1.278924
4969, 93.333333, -11.325568, 1.491039
4970, 93.333333, -12.888783, 1.696840
4971, 93.333333, -2.000000, 0.000000
4972, 93.333333, -4.398635, 0.000000
4973, 93.333333, -6.323541, 0.000000
4974, 93.333333, -8.102632, 0.000000
4975, 93.333333, -9.793187, 0.000000
4976, 93.333333, -11.420818, 0.000000
4977, 93.333333, -13.000000, 0.000000
4978, 93.333333, -2.000000, -0.263305
4979, 93.333333, -4.374383, -0.575898
4980, 93.333333, -6.279828, -0.826755
4981, 93.333333, -8.040931, -1.058609
4982, 93.333333, -9.714393, -1.278924
4983, 93.333333, -11.325568, -1.491039
4984, 93.333333, -12.888783, -1.696840
4985, 93.333333, -2.000000, -0.535898
4986, 93.333333, -4.302043, -1.152729
4987, 93.333333, -6.149435, -1.647736
4988, 93.333333, -7.856882, -2.105245
4989, 93.333333, -9.479360, -2.539987
4990, 93.333333, -11.041447, -2.958547
4991, 93.333333, -12.557036, -3.364648
4992, 93.333333, -2.000000, -0.828427
4993, 93.333333, -4.182852, -1.732594
4994, 93.333333, -5.934593, -2.458189
4995, 93.333333, -7.553636, -3.128818
4996, 93.333333, -9.092108, -3.766074
4997, 93.333333, -10.573316, -4.379611
4998, 93.333333, -12.010434, -4.974885
4999, 93.333333, -2.000000, -1.154701
5000, 93.333333, -4.018850, -2.320284
5001, 93.333333, -5.638979, -3.255666
5002, 93.333333, -7.136380, -4.120191
5003, 93.333333, -8.559264, -4.941693
5004, 93.333333, -9.929186, -5.732618
5005, 93.333333, -11.258330, -6.500000
5006, 93.333333, -2.000000, -1.534654
5007, 93.333333, -3.812843, -2.925697
5008, 93.333333, -5.267651, -4.042011
5009, 93.333333, -6.612255, -5.073762
5010, 93.333333, -7.889945, -6.054167
5011, 93.333333, -9.120078, -6.998082
5012, 93.333333, -10.313593, -7.913899
5013, 93.333333, -2.000000, -2.000000
5014, 93.333333, -3.568356, -3.568356
5015, 93.333333, -4.826963, -4.826963
5016, 93.333333, -5.990227, -5.990227
5017, 93.333333, -7.095603, -7.095603
5018, 93.333333, -8.159835, -8.159835
5019, 93.333333, -9.192388, -9.192388
5020, 93.333333, -1.534654, -2.000000
5021, 93.333333, -2.925697, -3.812843
5022, 93.333333, -4.042011, -5.267651
5023, 93.333333, -5.073762, -6.612255
5024, 93.333333, -6.054167, -7.889945
5025, 93.333333, -6.998082, -9.120078
5026, 93.333333, -7.913899, -10.313593
5027, 93.333333, -1.154701, -2.000000
5028, 93.333333, -2.320284, -4.018850
5029, 93.333333, -3.255666, -5.638979
5030, 93.333333, -4.120191, -7.136380
5031, 93.333333, -4.941693, -8.559264
5032, 93.333333, -5.732618, -9.929186
5033, 93.333333, -6.500000, -11.258330
5034, 93.333333, -0.828427, -2.000000
5035, 93.333333, -1.732594, -4.182852
5036, 93.333333, -2.458189, -5.934593
5037, 93.333333, -3.128818, -7.553636
5038, 93.333333, -3.766074, -9.092108
5039, 93.333333, -4.379611, -10.573316
5040, 93.333333, -4.974885, -12.010434
5041, 93.333333, -0.535898, -2.000000
5042, 93.333333, -1.152729, -4.302043
5043, 93.333333, -1.647736, -6.149435
5044, 93.333333, -2.105245, -7.856882
5045, 93.333333, -2.539987, -9.479360
5046, 93.333333, -2.958547, -11.041447
5047, 93.333333, -3.364648, -12.557036
5048, 93.333333, -0.263305, -2.000000
5049, 93.333333, -0.575898, -4.374383
5050, 93.333333, -0.826755, -6.279828
5051, 93.333333, -1.058609, -8.040931
5052, 93.333333, -1.278924, -9.714393
5053, 93.333333, -1.491039, -11.325568
5054, 93.333333, -1.696840, -12.888783
5055, 93.333333, -0.000000, -2.000000
5056, 93.333333, -0.000000, -4.398635
5057, 93.333333, -0.000000, -6.323541
5058, 93.333333, -0.000000, -8.102632
5059, 93.333333, -0.000000, -9.793187
5060, 93.333333, -0.000000, -11.420818
5061, 93.333333, -0.000000, -13.000000
5062, 93.333333, 0.263305, -2.000000
5063, 93.333333, 0.575898, -4.374383
5064, 93.333333, 0.826755, -6.279828
5065, 93.333333, 1.058609, -8.040931
5066, 93.333333, 1.278924, -9.714393
5067, 93.333333, 1.491039, -11.325568
5068, 93.333333, 1.696840, -12.888783
5069, 93.333333, 0.535898, -2.000000
5070, 93.333333, 1.152729, -4.302043
5071, 93.333333, 1.647736, -6.149435
5072, 93.333333, 2.105245, -7.856882
5073, 93.333333, 2.539987, -9.479360
5074, 93.333333, 2.958547, -11.041447
5075, 93.333333, 3.364648, -12.557036
5076, 93.333333, 0.828427, -2.000000
5077, 93.333333, 1.732594, -4.182852
5078, 93.333333, 2.458189, -5.934593
5079, 93.333333, 3.128818, -7.553636
5080, 93.333333, 3.766074, -9.092108
5081, 93.333333, 4.379611, -10.573316
5082, 93.333333, 4.974885, -12.010434
5083, 93.333333, 1.154701, -2.000000
5084, 93.333333, 2.320284, -4.018850
5085, 93.333333, 3.255666, -5.638979
5086, 93.333333, 4.120191, -7.136380
5087, 93.333333, 4.941693, -8.559264
5088, 93.333333, 5.732618, -9.929186
5089, 93.333333, 6.500000, -11.258330
5090, 93.333333, 1.534654, -2.000000
5091, 93.333333, 2.925697, -3.812843
5092, 93.333333, 4.042011, -5.267651
5093, 93.333333, 5.073762, -6.612255
5094, 93.333333, 6.054167, -7.889945
5095, 93.333333, 6.998082, -9.120078
5096, 93.333333, 7.913899, -10.313593
5097, 93.333333, 2.000000, -2.000000
5098, 93.333333, 3.568356, -3.568356
5099, 93.333333, 4.826963, -4.826963
5100, 93.333333, 5.990227, -5.990227
5101, 93.333333, 7.095603, -7.095603
5102, 93.333333, 8.159835, -8.159835
5103, 93.333333, 9.192388, -9.192388
5104, 93.333333, 2.000000, -1.534654
5105, 93.333333, 3.812843, -2.925697
5106, 93.333333, 5.267651, -4.042011
5107, 93.333333, 6.612255, -5.073762
5108, 93.333333, 7.889945, -6.054167
5109, 93.333333, 9.120078, -6.998082
5110, 93.333333, 10.313593, -7.913899
5111, 93.333333, 2.000000, -1.154701
5112, 93.333333, 4.018850, -2.320284
5113, 93.333333, 5.638979, -3.255666
5114, 93.333333, 7.136380, -4.120191
5115, 93.333333, 8.559264, -4.941693
5116, 93.333333, 9.929186, -5.732618
5117, 93.333333, 11.258330, -6.500000
5118, 93.333333, 2.000000, -0.828427
5119, 93.333333, 4.182852, -1.732594
5120, 93.333333, 5.934593, -2.458189
5121, 93.333333, 7.553636, -3.128818
5122, 93.333333, 9.092108, -3.766074
5123, 93.333333, 10.573316, -4.379611
5124, 93.333333, 12.010434, -4.974885
5125, 93.333333, 2.000000, -0.535898
5126, 93.333333, 4.302043, -1.152729
5127, 93.333333, 6.149435, -1.647736
5128, 93.333333, 7.856882, -2.105245
5129, 93.333333, 9.479360, -2.539987
5130, 93.333333, 11.041447, -2.958547
5131, 93.333333, 12.557036, -3.364648
5132, 93.333333, 2.000000, -0.263305
5133, 93.333333, 4.374383, -0.575898
5134, 93.333333, 6.279828, -0.826755
5135, 93.333333, 8.040931, -1.058609
5136, 93.333333, 9.714393, -1.278924
5137, 93.333333, 11.325568, -1.491039
5138, 93.333333, 12.888783, -1.696840
5139, 93.333333, 2.000000, -0.000000
5140, 93.333333, 4.398635, -0.000000
5141, 93.333333, 6.323541, -0.000000
5142, 93.333333, 8.102632, -0.000000
5143, 93.333333, 9.793187, -0.000000
5144, 93.333333, 11.420818, -0.000000
5145, 93.333333, 13.000000, -0.000000
5146, 100.000000, 2.000000, 0.000000
5147, 100.000000, 4.398635, 0.000000
5148, 100.000000, 6.323541, 0.000000
5149, 100.000000, 8.102632, 0.000000
5150, 100.000000, 9.793187, 0.000000
5151, 100.000000, 11.420818, 0.000000
5152, 100.000000, 13.000000, 0.000000
5153, 100.000000, 2.000000, 0.263305
5154, 100.000000, 4.374383, 0.575898
5155, 100.000000, 6.279828, 0.826755
5156, 100.000000, 8.040931, 1.058609
5157, 100.000000, 9.714393, 1.278924
5158, 100.000000, 11.325568, 1.491039
5159, 100.000000, 12.888783, 1.696840
5160, 100.000000, 2.000000, 0.535898
5161, 100.000000, 4.302043, 1.152729
5162, 100.000000, 6.149435, 1.647736
5163, 100.000000, 7.856882, 2.105245
5164, 100.000000, 9.479360, 2.539987
5165, 100.000000, 11.041447, 2.958547
5166, 100.000000, 12.557036, 3.364648
5167, 100.000000, 2.000000, 0.828427
5168, 100.000000, 4.182852, 1.732594
5169, 100.000000, 5.934593, 2.458189
5170, 100.000000, 7.553636, 3.128818
5171, 100.000000, 9.092108, 3.766074
5172, 100.000000, 10.573316, 4.379611
5173, 100.000000, 12.010434, 4.974885
5174, 100.000000, 2.000000, 1.154701
5175, 100.000000, 4.018850, 2.320284
5176, 100.000000, 5.638979, 3.255666
5177, 100.000000, 7.136380, 4.120191
5178, 100.000000, 8.559264, 4.941693
5179, 100.000000, 9.929186, 5.732618
5180, 100.000000, 11.258330, 6.500000
5181, 100.000000, 2.000000, 1.534654
5182, 100.000000, 3.812843, 2.925697
5183, 100.000000, 5.267651, 4.042011
5184, 100.000000, 6.612255, 5.073762
5185, 100.000000, 7.889945, 6.054167
5186, 100.000000, 9.120078, 6.998082
5187, 100.000000, 10.313593, 7.913899
5188, 100.000000, 2.000000, 2.000000
5189, 100.000000, 3.568356, 3.568356
5190, 100.000000, 4.826963, 4.826963
5191, 100.000000, 5.990227, 5.990227
5192, 100.000000, 7.095603, 7.095603
5193, 100.000000, 8.159835, 8.159835
5194, 100.000000, 9.192388, 9.192388
5195, 100.000000, 1.534654, 2.000000
5196, 100.000000, 2.925697, 3.812843
5197, 100.000000, 4.042011, 5.267651
5198, 100.000000, 5.073762, 6.612255
5199, 100.000000, 6.054167, 7.889945
5200, 100.000000, 6.998082, 9.120078
5201, 100.000000, 7.913899, 10.313593
5202, 100.000000, 1.154701, 2.000000
5203, 100.000000, 2.320284, 4.018850
5204, 100.000000, 3.255666, 5.638979
5205, 100.000000, 4.120191, 7.136380
5206, 100.000000, 4.941693, 8.559264
5207, 100.000000, 5.732618, 9.929186
5208, 100.000000, 6.500000, 11.258330
5209, 100.000000, 0.828427, 2.000000
5210, 100.000000, 1.732594, 4.182852
5211, 100.000000, 2.458189, 5.934593
5212, 100.000000, 3.128818, 7.553636
5213, 100.000000, 3.766074, 9.092108
5214, 100.000000, 4.379611, 10.573316
5215, 100.000000, 4.974885, 12.010434
5216, 100.000000, 0.535898, 2.000000
5217, 100.000000, 1.152729, 4.302043
5218, 100.000000, 1.647736, 6.149435
5219, 100.000000, 2.105245, 7.856882
5220, 100.000000, 2.539987, 9.479360
5221, 100.000000, 2.958547, 11.041447
5222, 100.000000, 3.364648, 12.557036
5223, 100.000000, 0.263305, 2.000000
5224, 100.000000, 0.575898, 4.374383
5225, 100.000000, 0.826755, 6.279828
5226, 100.000000, 1.058609, 8.040931
5227, 100.000000, 1.278924, 9.714393
5228, 100.000000, 1.491039, 11.325568
5229, 100.000000, 1.696840, 12.888783
5230, 100.000000, 0.000000, 2.000000
5231, 100.000000, 0.000000, 4.398635
5232, 100.000000, 0.000000, 6.323541
5233, 100.000000, 0.000000, 8.102632
5234, 100.000000, 0.000000, 9.793187
5235, 100.000000, 0.000000, 11.420818
5236, 100.000000, 0.000000, 13.000000
5237, 100.000000, -0.263305, 2.000000
5238, 100.000000, -0.575898, 4.374383
5239, 100.000000, -0.826755, 6.279828
5240, 100.000000, -1.058609, 8.040931
5241, 100.000000, -1.278924, 9.714393
5242, 100.000000, -1.491039, 11.325568
5243, 100.000000, -1.696840, 12.888783
5244, 100.000000, -0.535898, 2.000000
5245, 100.000000, -1.152729, 4.302043
5246, 100.000000, -1.647736, 6.149435
5247, 100.000000, -2.105245, 7.856882
5248, 100.000000, -2.539987, 9.479360
5249, 100.000000, -2.958547, 11.041447
5250, 100.000000, -3.364648, 12.557036
5251, 100.000000, -0.828427, 2.000000
5252, 100.000000, -1.732594, 4.182852
5253, 100.000000, -2.458189, 5.934593
5254, 100.000000, -3.128818, 7.553636
5255, 100.000000, -3.766074, 9.092108
5256, 100.000000, -4.379611, 10.573316
5257, 100.000000, -4.974885, 12.010434
5258, 100.000000, -1.154701, 2.000000
5259, 100.000000, -2.320284, 4.018850
5260, 100.000000, -3.255666, 5.638979
5261, 100.000000, -4.120191, 7.136380
5262, 100.000000, -4.941693, 8.559264
5263, 100.000000, -5.732618, 9.929186
5264, 100.000000, -6.500000, 11.258330
5265, 100.000000, -1.534654, 2.000000
5266, 100.000000, -2.925697, 3.812843
5267, 100.000000, -4.042011, 5.267651
5268, 100.000000, -5.073762, 6.612255
5269, 100.000000, -6.054167, 7.889945
5270, 100.000000, -6.998082, 9.120078
5271, 100.000000, -7.913899, 10.313593
5272, 100.000000, -2.000000, 2.000000
5273, 100.000000, -3.568356, 3.568356
5274, 100.000000, -4.826963, 4.826963
5275, 100.000000, -5.990227, 5.990227
5276, 100.000000, -7.095603, 7.095603
5277, 100.000000, -8.159835, 8.159835
5278, 100.000000, -9.192388, 9.192388
5279, 100.000000, -2.000000, 1.534654
5280, 100.000000, -3.812843, 2.925697
5281, 100.000000, -5.267651, 4.042011
5282, 100.000000, -6.612255, 5.073762
5283, 100.000000, -7.889945, 6.054167
5284, 100.000000, -9.120078, 6.998082
5285, 100.000000, -10.313593, 7.913899
5286, 100.000000, -2.000000, 1.154701
5287, 100.000000, -4.018850, 2.320284
5288, 100.000000, -5.638979, 3.255666
5289, 100.000000, -7.136380, 4.120191
5290, 100.000000, -8.559264, 4.941693
5291, 100.000000, -9.929186, 5.732618
5292, 100.000000, -11.258330, 6.500000
5293, 100.000000, -2.000000, 0.828427
5294, 100.000000, -4.182852, 1.732594
5295, 100.000000, -5.934593, 2.458189
5296, 100.000000, -7.553636, 3.128818
5297, 100.000000, -9.092108, 3.766074
5298, 100.000000, -10.573316, 4.379611
5299, 100.000000, -12.010434, 4.974885
5300, 100.000000, -2.000000, 0.535898
5301, 100.000000, -4.302043, 1.152729
5302, 100.000000, -6.149435, 1.647736
5303, 100.000000, -7.856882, 2.105245
5304, 100.000000, -9.479360, 2.539987
5305, 100.000000, -11.041447, 2.958547
5306, 100.000000, -12.557036, 3.364648
5307, 100.000000, -2.000000, 0.263305
5308, 100.000000, -4.374383, 0.575898
5309, 100.000000, -6.279828, 0.826755
5310, 100.000000, -8.040931, 1.058609
5311, 100.000000, -9.714393, 1.278924
5312, 100.000000, -11.325568, 1.491039
5313, 100.000000, -12.888783, 1.696840
5314, 100.000000, -2.000000, 0.000000
5315, 100.000000, -4.398635, 0.000000
5316, 100.000000, -6.323541, 0.000000
5317, 100.000000, -8.102632, 0.000000
5318, 100.000000, -9.793187, 0.000000
5319, 100.000000, -11.420818, 0.000000
5320, 100.000000, -13.000000, 0.000000
5321, 100.000000, -2.000000, -0.263305
5322, 100.000000, -4.374383, -0.575898
5323, 100.000000, -6.279828, -0.826755
5324, 100.000000, -8.040931, -1.058609
5325, 100.000000, -9.714393, -1.278924
5326, 100.000000, -11.325568, -1.491039
5327, 100.000000, -12.888783, -1.696840
5328, 100.000000, -2.000000, -0.535898
5329, 100.000000, -4.302043, -1.152729
5330, 100.000000, -6.149435, -1.647736
5331, 100.000000, -7.856882, -2.105245
5332, 100.000000, -9.479360, -2.539987
5333, 100.000000, -11.041447, -2.958547
5334, 100.000000, -12.557036, -3.364648
5335, 100.000000, -2.000000, -0.828427
5336, 100.000000, -4.182852, -1.732594
5337, 100.000000, -5.934593, -2.458189
5338, 100.000000, -7.553636, -3.128818
5339, 100.000000, -9.092108, -3.766074
5340, 100.000000, -10.573316, -4.379611
5341, 100.000000, -12.010434, -4.974885
5342, 100.000000, -2.000000, -1.154701
5343, 100.000000, -4.018850, -2.320284
5344, 100.000000, -5.638979, -3.255666
5345, 100.000000, -7.136380, -4.120191
5346, 100.000000, -8.559264, -4.941693
5347, 100.000000, -9.929186, -5.732618
5348, 100.000000, -11.258330, -6.500000
5349, 100.000000, -2.000000, -1.534654
5350, 100.000000, -3.812843, -2.925697
5351, 100.000000, -5.267651, -4.042011
5352, 100.000000, -6.612255, -5.073762
5353, 100.000000, -7.889945, -6.054167
5354, 100.000000, -9.120078, -6.998082
5355, 100.000000, -10.313593, -7.913899
5356, 100.000000, -2.000000, -2.000000
5357, 100.000000, -3.568356, -3.568356
5358, 100.000000, -4.826963, -4.826963
5359, 100.000000, -5.990227, -5.990227
5360, 100.000000, -7.095603, -7.095603
5361, 100.000000, -8.159835, -8.159835
5362, 100.000000, -9.192388, -9.192388
5363, 100.000000, -1.534654, -2.000000
5364, 100.000000, -2.925697, -3.812843
5365, 100.000000, -4.042011, -5.267651
5366, 100.000000, -5.073762, -6.612255
5367, 100.000000, -6.054167, -7.889945
5368, 100.000000, -6.998082, -9.120078
5369, 100.000000, -7.913899, -10.313593
5370, 100.000000, -1.154701, -2.000000
5371, 100.000000, -2.320284, -4.018850
5372, 100.000000, -3.255666, -5.638979
5373, 100.000000, -4.120191, -7.136380
5374, 100.000000, -4.941693, -8.559264
5375, 100.000000, -5.732618, -9.929186
5376, 100.000000, -6.500000, -11.258330
5377, 100.000000, -0.828427, -2.000000
5378, 100.000000, -1.732594, -4.182852
5379, 100.000000, -2.458189, -5.934593
5380, 100.000000, -3.128818, -7.553636
5381, 100.000000, -3.766074, -9.092108
5382, 100.000000, -4.379611, -10.573316
5383, 100.000000, -4.974885, -12.010434
5384, 100.000000, -0.535898, -2.000000
5385, 100.000000, -1.152729, -4.302043
5386, 100.000000, -1.647736, -6.149435
5387, 100.000000, -2.105245, -7.856882
5388, 100.000000, -2.539987, -9.479360
5389, 100.000000, -2.958547, -11.041447
5390, 100.000000, -3.364648, -12.557036
5391, 100.000000, -0.263305, -2.000000
5392, 100.000000, -0.575898, -4.374383
5393, 100.000000, -0.826755, -6.279828
5394, 100.000000, -1.058609, -8.040931
5395, 100.000000, -1.278924, -9.714393
5396, 100.000000, -1.491039, -11.325568
5397, 100.000000, -1.696840, -12.888783
5398, 100.000000, -0.000000, -2.000000
5399, 100.000000, -0.000000, -4.398635
5400, 100.000000, -0.000000, -6.323541
5401, 100.000000, -0.000000, -8.102632
5402, 100.000000, -0.000000, -9.793187
5403, 100.000000, -0.000000, -11.420818
5404, 100.000000, -0.000000, -13.000000
5405, 100.000000, 0.263305, -2.000000
5406, 100.000000, 0.575898, -4.374383
5407, 100.000000, 0.826755, -6.279828
5408, 100.000000, 1.058609, -8.040931
5409, 100.000000, 1.278924, -9.714393
5410, 100.000000, 1.491039, -11.325568
5411, 100.000000, 1.696840, -12.888783
5412, 100.000000, 0.535898, -2.000000
5413, 100.000000, 1.152729, -4.302043
5414, 100.000000, 1.647736, -6.149435
5415, 100.000000, 2.105245, -7.856882
5416, 100.000000, 2.539987, -9.479360
5417, 100.000000, 2.958547, -11.041447
5418, 100.000000, 3.364648, -12.557036
5419, 100.000000, 0.828427, -2.000000
5420, 100.000000, 1.732594, -4.182852
5421, 100.000000, 2.458189, -5.934593
5422, 100.000000, 3.128818, -7.553636
5423, 100.000000, 3.766074, -9.092108
5424, 100.000000, 4.379611, -10.573316
5425, 100.000000, 4.974885, -12.010434
5426, 100.000000, 1.154701, -2.000000
5427, 100.000000, 2.320284, -4.018850
5428, 100.000000, 3.255666, -5.638979
5429, 100.000000, 4.120191, -7.136380
5430, 100.000000, 4.941693, -8.559264
5431, 100.000000, 5.732618, -9.929186
5432, 100.000000, 6.500000, -11.258330
5433, 100.000000, 1.534654, -2.000000
5434, 100.000000, 2.925697, -3.812843
5435, 100.000000, 4.042011, -5.267651
5436, 100.000000, 5.073762, -6.612255
5437, 100.000000, 6.054167, -7.889945
5438, 100.000000, 6.998082, -9.120078
5439, 100.000000, 7.913899, -10.313593
5440, 100.000000, 2.000000, -2.000000
5441, 100.000000, 3.568356, -3.568356
5442, 100.000000, 4.826963, -4.826963
5443, 100.000000, 5.990227, -5.990227
5444, 100.000000, 7.095603, -7.095603
5445, 100.000000, 8.159835, -8.159835
5446, 100.000000, 9.192388, -9.192388
5447, 100.000000, 2.000000, -1.534654
5448, 100.000000, 3.812843, -2.925697
5449, 100.000000, 5.267651, -4.042011
5450, 100.000000, 6.612255, -5.073762
5451, 100.000000, 7.889945, -6.054167
5452, 100.000000, 9.120078, -6.998082
5453, 100.000000, 10.313593, -7.913899
5454, 100.000000, 2.000000, -1.154701
5455, 100.000000, 4.018850, -2.320284
5456, 100.000000, 5.638979, -3.255666
5457, 100.000000, 7.136380, -4.120191
5458, 100.000000, 8.559264, -4.941693
5459, 100.000000, 9.929186, -5.732618
5460, 100.000000, 11.258330, -6.500000
5461, 100.000000, 2.000000, -0.828427
5462, 100.000000, 4.182852, -1.732594
5463, 100.000000, 5.934593, -2.458189
5464, 100.000000, 7.553636, -3.128818
5465, 100.000000, 9.092108, -3.766074
5466, 100.000000, 10.573316, -4.379611
5467, 100.000000, 12.010434, -4.974885
5468, 100.000000, 2.000000, -0.535898
5469, 100.000000, 4.302043, -1.152729
5470, 100.000000, 6.149435, -1.647736
5471, 100.000000, 7.856882, -2.105245
5472, 100.000000, 9.479360, -2.539987
5473, 100.000000, 11.041447, -2.958547
5474, 100.000000, 12.557036, -3.364648
5475, 100.000000, 2.000000, -0.263305
5476, 100.000000, 4.374383, -0.575898
5477, 100.000000, 6.279828, -0.826755
5478, 100.000000, 8.040931, -1.058609
5479, 100.000000, 9.714393, -1.278924
5480, 100.000000, 11.325568, -1.491039
5481, 100.000000, 12.888783, -1.696840
5482, 100.000000, 2.000000, -0.000000
5483, 100.000000, 4.398635, -0.000000
5484, 100.000000, 6.323541, -0.000000
5485, 100.000000, 8.102632, -0.000000
5486, 100.000000, 9.793187, -0.000000
5487, 100.000000, 11.420818, -0.000000
5488, 100.000000, 13.000000, -0.000000
5489, 106.666667, 2.000000, 0.000000
5490, 106.666667, 4.398635, 0.000000
5491, 106.666667, 6.323541, 0.000000
5492, 106.666667, 8.102632, 0.000000
5493, 106.666667, 9.793187, 0.000000
5494, 106.666667, 11.420818, 0.000000
5495, 106.666667, 13.000000, 0.000000
5496, 106.666667, 2.000000, 0.263305
5497, 106.666667, 4.374383, 0.575898
5498, 106.666667, 6.279828, 0.826755
5499, 106.666667, 8.040931, 1.058609
5500, 106.666667, 9.714393, 1.278924
5501, 106.666667, 11.325568, 1.491039
5502, 106.666667, 12.888783, 1.696840
5503, 106.666667, 2.000000, 0.535898
5504, 106.666667, 4.302043, 1.152729
5505, 106.666667, 6.149435, 1.647736
5506, 106.666667, 7.856882, 2.105245
5507, 106.666667, 9.479360, 2.539987
5508, 106.666667, 11.041447, 2.958547
5509, 106.666667, 12.557036, 3.364648
5510, 106.666667, 2.000000, 0.828427
5511, 106.666667, 4.182852, 1.732594
5512, 106.666667, 5.934593, 2.458189
5513, 106.666667, 7.553636, 3.128818
5514, 106.666667, 9.092108, 3.766074
5515, 106.666667, 10.573316, 4.379611
5516, 106.666667, 12.010434, 4.974885
5517, 106.666667, 2.000000, 1.154701
5518, 106.666667, 4.018850, 2.320284
5519, 106.666667, 5.638979, 3.255666
5520, 106.666667, 7.136380, 4.120191
5521, 106.666667, 8.559264, 4.941693
5522, 106.666667, 9.929186, 5.732618
5523, 106.666667, 11.258330, 6.500000
5524, 106.666667, 2.000000, 1.534654
5525, 106.666667, 3.812843, 2.925697
5526, 106.666667, 5.267651, 4.042011
5527, 106.666667, 6.612255, 5.073762
5528, 106.666667, 7.889945, 6.054167
5529, 106.666667, 9.120078, 6.998082
5530, 106.666667, 10.313593, 7.913899
5531, 106.666667, 2.000000, 2.000000
5532, 106.666667, 3.568356, 3.568356
5533, 106.666667, 4.826963, 4.826963
5534, 106.666667, 5.990227, 5.990227
5535, 106.666667, 7.095603, 7.095603
5536, 106.666667, 8.159835, 8.159835
5537, 106.666667, 9.192388, 9.192388
5538, 106.666667, 1.534654, 2.000000
5539, 106.666667, 2.925697, 3.812843
5540, 106.666667, 4.042011, 5.267651
5541, 106.666667, 5.073762, 6.612255
5542, 106.666667, 6.054167, 7.889945
5543, 106.666667, 6.998082, 9.120078
5544, 106.666667, 7.913899, 10.313593
5545, 106.666667, 1.154701, 2.000000
5546, 106.666667, 2.320284, 4.018850
5547, 106.666667, 3.255666, 5.638979
5548, 106.666667, 4.120191, 7.136380
5549, 106.666667, 4.941693, 8.559264
5550, 106.666667, 5.732618, 9.929186
5551, 106.666667, 6.500000, 11.258330
5552, 106.666667, 0.828427, 2.000000
5553, 106.666667, 1.732594, 4.182852
5554, 106.666667, 2.458189, 5.934593
5555, 106.666667, 3.128818, 7.553636
5556, 106.666667, 3.766074, 9.092108
5557, 106.666667, 4.379611, 10.573316
5558, 106.666667, 4.974885, 12.010434
5559, 106.666667, 0.535898, 2.000000
5560, 106.666667, 1.152729, 4.302043
5561, 106.666667, 1.647736, 6.149435
5562, 106.666667, 2.105245, 7.856882
5563, 106.666667, 2.539987, 9.479360
5564, 106.666667, 2.958547, 11.041447
5565, 106.666667, 3.364648, 12.557036
5566, 106.666667, 0.263305, 2.000000
5567, 106.666667, 0.575898, 4.374383
5568, 106.666667, 0.826755, 6.279828
5569, 106.666667, 1.058609, 8.040931
5570, 106.666667, 1.278924, 9.714393
5571, 106.666667, 1.491039, 11.325568
5572, 106.666667, 1.696840, 12.888783
5573, 106.666667, 0.000000, 2.000000
5574, 106.666667, 0.000000, 4.398635
5575, 106.666667, 0.000000, 6.323541
5576, 106.666667, 0.000000, 8.102632
5577, 106.666667, 0.000000, 9.793187
5578, 106.666667, 0.000000, 11.420818
5579, 106.666667, 0.000000, 13.000000
5580, 106.666667, -0.263305, 2.000000
5581, 106.666667, -0.575898, 4.374383
5582, 106.666667, -0.826755, 6.279828
5583, 106.666667, -1.058609, 8.040931
5584, 106.666667, -1.278924, 9.714393
5585, 106.666667, -1.491039, 11.325568
5586, 106.666667, -1.696840, 12.888783
5587, 106.666667, -0.535898, 2.000000
5588, 106.666667, -1.152729, 4.302043
5589, 106.666667, -1.647736, 6.149435
5590, 106.666667, -2.105245, 7.856882
5591, 106.666667, -2.539987, 9.479360
5592, 106.666667, -2.958547, 11.041447
5593, 106.666667, -3.364648, 12.557036
5594, 106.666667, -0.828427, 2.000000
5595, 106.666667, -1.732594, 4.182852
5596, 106.666667, -2.458189, 5.934593
5597, 106.666667, -3.128818, 7.553636
5598, 106.666667, -3.766074, 9.092108
5599, 106.666667, -4.379611, 10.573316
5600, 106.666667, -4.974885, 12.010434
5601, 106.666667, -1.154701, 2.000000
5602, 106.666667, -2.320284, 4.018850
5603, 106.666667, -3.255666, 5.638979
5604, 106.666667, -4.120191, 7.136380
5605, 106.666667, -4.941693, 8.559264
5606, 106.666667, -5.732618, 9.929186
5607, 106.666667, -6.500000, 11.258330
5608, 106.666667, -1.534654, 2.000000
5609, 106.666667, -2.925697, 3.812843
5610, 106.666667, -4.042011, 5.267651
5611, 106.666667, -5.073762, 6.612255
5612, 106.666667, -6.054167, 7.889945
5613, 106.666667, -6.998082, 9.120078
5614, 106.666667, -7.913899, 10.313593
5615, 106.666667, -2.000000, 2.000000
5616, 106.666667, -3.568356, 3.568356
5617, 106.666667, -4.826963, 4.826963
5618, 106.666667, -5.990227, 5.990227
5619, 106.666667, -7.095603, 7.095603
5620, 106.666667, -8.159835, 8.159835
5621, 106.666667, -9.192388, 9.192388
5622, 106.666667, -2.000000, 1.534654
5623, 106.666667, -3.812843, 2.925697
5624, 106.666667, -5.267651, 4.042011
5625, 106.666667, -6.612255, 5.073762
5626, 106.666667, -7.889945, 6.054167
5627, 106.666667, -9.120078, 6.998082
5628, 106.666667, -10.313593, 7.913899
5629, 106.666667, -2.000000, 1.154701
5630, 106.666667, -4.018850, 2.320284
5631, 106.666667, -5.638979, 3.255666
5632, 106.666667, -7.136380, 4.120191
5633, 106.666667, -8.559264, 4.941693
5634, 106.666667, -9.929186, 5.732618
5635, 106.666667, -11.258330, 6.500000
5636, 106.666667, -2.000000, 0.828427
5637, 106.666667, -4.182852, 1.732594
5638, 106.666667, -5.934593, 2.458189
5639, 106.666667, -7.553636, 3.128818
5640, 106.666667, -9.092108, 3.766074
5641, 106.666667, -10.573316, 4.379611
5642, 106.666667, -12.010434, 4.974885
5643, 106.666667, -2.000000, 0.535898
5644, 106.666667, -4.302043, 1.152729
5645, 106.666667, -6.149435, 1.647736
5646, 106.666667, -7.856882, 2.105245
5647, 106.666667, -9.479360, 2.539987
5648, 106.666667, -11.041447, 2.958547
5649, 106.666667, -12.557036, 3.364648
5650, 106.666667, -2.000000, 0.263305
5651, 106.666667, -4.374383, 0.575898
5652, 106.666667, -6.279828, 0.826755
5653, 106.666667, -8.040931, 1.058609
5654, 106.666667, -9.714393, 1.278924
5655, 106.666667, -11.325568, 1.491039
5656, 106.666667, -12.888783, 1.696840
5657, 106.666667, -2.000000, 0.000000
5658, 106.666667, -4.398635, 0.000000
5659, 106.666667, -6.323541, 0.000000
5660, 106.666667, -8.102632, 0.000000
5661, 106.666667, -9.793187, 0.000000
5662, 106.666667, -11.420818, 0.000000
5663, 106.666667, -13.000000, 0.000000
5664, 106.666667, -2.000000, -0.263305
5665, 106.666667, -4.374383, -0.575898
5666, 106.666667, -6.279828, -0.826755
5667, 106.666667, -8.040931, -1.058609
5668, 106.666667, -9.714393, -1.278924
5669, 106.666667, -11.325568, -1.491039
5670, 106.666667, -12.888783, -1.696840
5671, 106.666667, -2.000000, -0.535898
5672, 106.666667, -4.302043, -1.152729
5673, 106.666667, -6.149435, -1.647736
5674, 106.666667, -7.856882, -2.105245
5675, 106.666667, -9.479360, -2.539987
5676, 106.666667, -11.041447, -2.958547
5677, 106.666667, -12.557036, -3.364648
5678, 106.666667, -2.000000, -0.828427
5679, 106.666667, -4.182852, -1.732594
5680, 106.666667, -5.934593, -2.458189
5681, 106.666667, -7.553636, -3.128818
5682, 106.666667, -9.092108, -3.766074
5683, 106.666667, -10.573316, -4.379611
5684, 106.666667, -12.010434, -4.974885
5685, 106.666667, -2.000000, -1.154701
5686, 106.666667, -4.018850, -2.320284
5687, 106.666667, -5.638979, -3.255666
5688, 106.666667, -7.136380, -4.120191
5689, 106.666667, -8.559264, -4.941693
5690, 106.666667, -9.929186, -5.732618
5691, 106.666667, -11.258330, -6.500000
5692, 106.666667, -2.000000, -1.534654
5693, 106.666667, -3.812843, -2.925697
5694, 106.666667, -5.267651, -4.042011
5695, 106.666667, -6.612255, -5.073762
5696, 106.666667, -7.889945, -6.054167
5697, 106.666667, -9.120078, -6.998082
5698, 106.666667, -10.313593, -7.913899
5699, 106.666667, -2.000000, -2.000000
5700, 106.666667, -3.568356, -3.568356
5701, 106.666667, -4.826963, -4.826963
5702, 106.666667, -5.990227, -5.990227
5703, 106.666667, -7.095603, -7.095603
5704, 106.666667, -8.159835, -8.159835
5705, 106.666667, -9.192388, -9.192388
5706, 106.666667, -1.534654, -2.000000
5707, 106.666667, -2.925697, -3.812843
5708, 106.666667, -4.042011, -5.267651
5709, 106.666667, -5.073762, -6.612255
5710, 106.666667, -6.054167, -7.889945
5711, 106.666667, -6.998082, -9.120078
5712, 106.666667, -7.913899, -10.313593
5713, 106.666667, -1.154701, -2.000000
5714, 106.666667, -2.320284, -4.018850
5715, 106.666667, -3.255666, -5.638979
5716, 106.666667, -4.120191, -7.136380
5717, 106.666667, -4.941693, -8.559264
5718, 106.666667, -5.732618, -9.929186
5719, 106.666667, -6.500000, -11.258330
5720, 106.666667, -0.828427, -2.000000
5721, 106.666667, -1.732594, -4.182852
5722, 106.666667, -2.458189, -5.934593
5723, 106.666667, -3.128818, -7.553636
5724, 106.666667, -3.766074, -9.092108
5725, 106.666667, -4.379611, -10.573316
5726, 106.666667, -4.974885, -12.010434
5727, 106.666667, -0.535898, -2.000000
5728, 106.666667, -1.152729, -4.302043
5729, 106.666667, -1.647736, -6.149435
5730, 106.666667, -2.105245, -7.856882
5731, 106.666667, -2.539987, -9.479360
5732, 106.666667, -2.958547, -11.041447
5733, 106.666667, -3.364648, -12.557036
5734, 106.666667, -0.263305, -2.000000
5735, 106.666667, -0.575898, -4.374383
5736, 106.666667, -0.826755, -6.279828
5737, 106.666667, -1.058609, -8.040931
5738, 106.666667, -1.278924, -9.714393
5739, 106.666667, -1.491039, -11.325568
5740, 106.666667, -1.696840, -12.888783
5741, 106.666667, -0.000000, -2.000000
5742, 106.666667, -0.000000, -4.398635
5743, 106.666667, -0.000000, -6.323541
5744, 106.666667, -0.000000, -8.102632
5745, 106.666667, -0.000000, -9.793187
5746, 106.666667, -0.000000, -11.420818
5747, 106.666667, -0.000000, -13.000000
5748, 106.666667, 0.263305, -2.000000
5749, 106.666667, 0.575898, -4.374383
5750, 106.666667, 0.826755, -6.279828
5751, 106.666667, 1.058609, -8.040931
5752, 106.666667, 1.278924, -9.714393
5753, 106.666667, 1.491039, -11.325568
5754, 106.666667, 1.696840, -12.888783
5755, 106.666667, 0.535898, -2.000000
5756, 106.666667, 1.152729, -4.302043
5757, 106.666667, 1.647736, -6.149435
5758, 106.666667, 2.105245, -7.856882
5759, 106.666667, 2.539987, -9.479360
5760, 106.666667, 2.958547, -11.041447
5761, 106.666667, 3.364648, -12.557036
5762, 106.666667, 0.828427, -2.000000
5763, 106.666667, 1.732594, -4.182852
5764, 106.666667, 2.458189, -5.934593
5765, 106.666667, 3.128818, -7.553636
5766, 106.666667, 3.766074, -9.092108
5767, 106.666667, 4.379611, -10.573316
5768, 106.666667, 4.974885, -12.010434
5769, 106.666667, 1.154701, -2.000000
5770, 106.666667, 2.320284, -4.018850
5771, 106.666667, 3.255666, -5.638979
5772, 106.666667, 4.120191, -7.136380
5773, 106.666667, 4.941693, -8.559264
5774, 106.666667, 5.732618, -9.929186
5775, 106.666667, 6.500000, -11.258330
5776, 106.666667, 1.534654, -2.000000
5777, 106.666667, 2.925697, -3.812843
5778, 106.666667, 4.042011, -5.267651
5779, 106.666667, 5.073762, -6.612255
5780, 106.666667, 6.054167, -7.889945
5781, 106.666667, 6.998082, -9.120078
5782, 106.666667, 7.913899, -10.313593
5783, 106.666667, 2.000000, -2.000000
5784, 106.666667, 3.568356, -3.568356
5785, 106.666667, 4.826963, -4.826963
5786, 106.666667, 5.990227, -5.990227
5787, 106.666667, 7.095603, -7.095603
5788, 106.666667, 8.159835, -8.159835
5789, 106.666667, 9.192388, -9.192388
5790, 106.666667, 2.000000, -1.534654
5791, 106.666667, 3.812843, -2.925697
5792, 106.666667, 5.267651, -4.042011
5793, 106.666667, 6.612255, -5.073762
5794, 106.666667, 7.889945, -6.054167
5795, 106.666667, 9.120078, -6.998082
5796, 106.666667, 10.313593, -7.913899
5797, 106.666667, 2.000000, -1.154701
5798, 106.666667, 4.018850, -2.320284
5799, 106.666667, 5.638979, -3.255666
5800, 106.666667, 7.136380, -4.120191
5801, 106.666667, 8.559264, -4.941693
5802, 106.666667, 9.929186, -5.732618
5803, 106.666667, 11.258330, -6.500000
5804, 106.666667, 2.000000, -0.828427
5805, 106.666667, 4.182852, -1.732594
5806, 106.666667, 5.934593, -2.458189
5807, 106.666667, 7.553636, -3.128818
5808, 106.666667, 9.092108, -3.766074
5809, 106.666667, 10.573316, -4.379611
5810, 106.666667, 12.010434, -4.974885
5811, 106.666667, 2.000000, -0.535898
5812, 106.666667, 4.302043, -1.152729
5813, 106.666667, 6.149435, -1.647736
5814, 106.666667, 7.856882, -2.105245
5815, 106.666667, 9.479360, -2.539987
5816, 106.666667, 11.041447, -2.958547
5817, 106.666667, 12.557036, -3.364648
5818, 106.666667, 2.000000, -0.263305
5819, 106.666667, 4.374383, -0.575898
5820, 106.666667, 6.279828, -0.826755
5821, 106.666667, 8.040931, -1.058609
5822, 106.666667, 9.714393, -1.278924
5823, 106.666667, 11.325568, -1.491039
5824, 106.666667, 12.888783, -1.696840
5825, 106.666667, 2.000000, -0.000000
5826, 106.666667, 4.398635, -0.000000
5827, 106.666667, 6.323541, -0.000000
5828, 106.666667, 8.102632, -0.000000
5829, 106.666667, 9.793187, -0.000000
5830, 106.666667, 11.420818, -0.000000
5831, 106.666667, 13.000000, -0.000000
5832, 113.333333, 2.000000, 0.000000
5833, 113.333333, 4.398635, 0.000000
5834, 113.333333, 6.323541, 0.000000
5835, 113.333333, 8.102632, 0.000000
5836, 113.333333, 9.793187, 0.000000
5837, 113.333333, 11.420818, 0.000000
5838, 113.333333, 13.000000, 0.000000
5839, 113.333333, 2.000000, 0.263305
5840, 113.333333, 4.374383, 0.575898
5841, 113.333333, 6.279828, 0.826755
5842, 113.333333, 8.040931, 1.058609
5843, 113.333333, 9.714393, 1.278924
5844, 113.333333, 11.325568, 1.491039
5845, 113.333333, 12.888783, 1.696840
5846, 113.333333, 2.000000, 0.535898
5847, 113.333333, 4.302043, 1.152729
5848, 113.333333, 6.149435, 1.647736
5849, 113.333333, 7.856882, 2.105245
5850, 113.333333, 9.479360, 2.539987
5851, 113.333333, 11.041447, 2.958547
5852, 113.333333, 12.557036, 3.364648
5853, 113.333333, 2.000000, 0.828427
5854, 113.333333, 4.182852, 1.732594
5855, 113.333333, 5.934593, 2.458189
5856, 113.333333, 7.553636, 3.128818
5857, 113.333333, 9.092108, 3.766074
5858, 113.333333, 10.573316, 4.379611
5859, 113.333333, 12.010434, 4.974885
5860, 113.333333, 2.000000, 1.154701
5861, 113.333333, 4.018850, 2.320284
5862, 113.333333, 5.638979, 3.255666
5863, 113.333333, 7.136380, 4.120191
5864, 113.333333, 8.559264, 4.941693
5865, 113.333333, 9.929186, 5.732618
5866, 113.333333, 11.258330, 6.500000
5867, 113.333333, 2.000000, 1.534654
5868, 113.333333, 3.812843, 2.925697
5869, 113.333333, 5.267651, 4.042011
5870, 113.333333, 6.612255, 5.073762
5871, 113.333333, 7.889945, 6.054167
5872, 113.333333, 9.120078, 6.998082
5873, 113.333333, 10.313593, 7.913899
5874, 113.333333, 2.000000, 2.000000
5875, 113.333333, 3.568356, 3.568356
5876, 113.333333, 4.826963, 4.826963
5877, 113.333333, 5.990227, 5.990227
5878, 113.333333, 7.095603, 7.095603
5879, 113.333333, 8.159835, 8.159835
5880, 113.333333, 9.192388, 9.192388
5881, 113.333333, 1.534654, 2.000000
5882, 113.333333, 2.925697, 3.812843
5883, 113.333333, 4.042011, 5.267651
5884, 113.333333, 5.073762, 6.612255
5885, 113.333333, 6.054167, 7.889945
5886, 113.333333, 6.998082, 9.120078
5887, 113.333333, 7.913899, 10.313593
5888, 113.333333, 1.154701, 2.000000
5889, 113.333333, 2.320284, 4.018850
5890, 113.333333, 3.255666, 5.638979
5891, 113.333333, 4.120191, 7.136380
5892, 113.333333, 4.941693, 8.559264
5893, 113.333333, 5.732618, 9.929186
5894, 113.333333, 6.500000, 11.258330
5895, 113.333333, 0.828427, 2.000000
5896, 113.333333, 1.732594, 4.182852
5897, 113.333333, 2.458189, 5.934593
5898, 113.333333, 3.128818, 7.553636
5899, 113.333333, 3.766074, 9.092108
5900, 113.333333, 4.379611, 10.573316
5901, 113.333333, 4.974885, 12.010434
5902, 113.333333, 0.535898, 2.000000
5903, 113.333333, 1.152729, 4.302043
5904, 113.333333, 1.647736, 6.149435
5905, 113.333333, 2.105245, 7.856882
5906, 113.333333, 2.539987, 9.479360
5907, 113.333333, 2.958547, 11.041447
5908, 113.333333, 3.364648, 12.557036
5909, 113.333333, 0.263305, 2.000000
5910, 113.333333, 0.575898, 4.374383
5911, 113.333333, 0.826755, 6.279828
5912, 113.333333, 1.058609, 8.040931
5913, 113.333333, 1.278924, 9.714393
5914, 113.333333, 1.491039, 11.325568
5915, 113.333333, 1.696840, 12.888783
5916, 113.333333, 0.000000, 2.000000
5917, 113.333333, 0.000000, 4.398635
5918, 113.333333, 0.000000, 6.323541
5919, 113.333333, 0.000000, 8.102632
5920, 113.333333, 0.000000, 9.793187
5921, 113.333333, 0.000000, 11.420818
5922, 113.333333, 0.000000, 13.000000
5923, 113.333333, -0.263305, 2.000000
5924, 113.333333, -0.575898, 4.374383
5925, 113.333333, -0.826755, 6.279828
5926, 113.333333, -1.058609, 8.040931
5927, 113.333333, -1.278924, 9.714393
5928, 113.333333, -1.491039, 11.325568
5929, 113.333333, -1.696840, 12.888783
5930, 113.333333, -0.535898, 2.000000
5931, 113.333333, -1.152729, 4.302043
5932, 113.333333, -1.647736, 6.149435
5933, 113.333333, -2.105245, 7.856882
5934, 113.333333, -2.539987, 9.479360
5935, 113.333333, -2.958547, 11.041447
5936, 113.333333, -3.364648, 12.557036
5937, 113.333333, -0.828427, 2.000000
5938, 113.333333, -1.732594, 4.182852
5939, 113.333333, -2.458189, 5.934593
5940, 113.333333, -3.128818, 7.553636
5941, 113.333333, -3.766074, 9.092108
5942, 113.333333, -4.379611, 10.573316
5943, 113.333333, -4.974885, 12.010434
5944, 113.333333, -1.154701, 2.000000
5945, 113.333333, -2.320284, 4.018850
5946, 113.333333, -3.255666, 5.638979
5947, 113.333333, -4.120191, 7.136380
5948, 113.333333, -4.941693, 8.559264
5949, 113.333333, -5.732618, 9.929186
5950, 113.333333, -6.500000, 11.258330
5951, 113.333333, -1.534654, 2.000000
5952, 113.333333, -2.925697, 3.812843
5953, 113.333333, -4.042011, 5.267651
5954, 113.333333, -5.073762, 6.612255
5955, 113.333333, -6.054167, 7.889945
5956, 113.333333, -6.998082, 9.120078
5957, 113.333333, -7.913899, 10.313593
5958, 113.333333, -2.000000, 2.000000
5959, 113.333333, -3.568356, 3.568356
5960, 113.333333, -4.826963, 4.826963
5961, 113.333333, -5.990227, 5.990227
5962, 113.333333, -7.095603, 7.095603
5963, 113.333333, -8.159835, 8.159835
5964, 113.333333, -9.192388, 9.192388
5965, 113.333333, -2.000000, 1.534654
5966, 113.333333, -3.812843, 2.925697
5967, 113.333333, -5.267651, 4.042011
5968, 113.333333, -6.612255, 5.073762
5969, 113.333333, -7.889945, 6.054167
5970, 113.333333, -9.120078, 6.998082
5971, 113.333333, -10.313593, 7.913899
5972, 113.333333, -2.000000, 1.154701
5973, 113.333333, -4.018850, 2.320284
5974, 113.333333, -5.638979, 3.255666
5975, 113.333333, -7.136380, 4.120191
5976, 113.333333, -8.559264, 4.941693
5977, 113.333333, -9.929186, 5.732618
5978, 113.333333, -11.258330, 6.500000
5979, 113.333333, -2.000000, 0.828427
5980, 113.333333, -4.182852, 1.732594
5981, 113.333333, -5.934593, 2.458189
5982, 113.333333, -7.553636, 3.128818
5983, 113.333333, -9.092108, 3.766074
5984, 113.333333, -10.573316, 4.379611
5985, 113.333333, -12.010434, 4.974885
5986, 113.333333, -2.000000, 0.535898
5987, 113.333333, -4.302043, 1.152729
5988, 113.333333, -6.149435, 1.647736
5989, 113.333333, -7.856882, 2.105245
5990, 113.333333, -9.479360, 2.539987
5991, 113.333333, -11.041447, 2.958547
5992, 113.333333, -12.557036, 3.364648
5993, 113.333333, -2.000000, 0.263305
5994, 113.333333, -4.374383, 0.575898
5995, 113.333333, -6.279828, 0.826755
5996, 113.333333, -8.040931, 1.058609
5997, 113.333333, -9.714393, 1.278924
5998, 113.333333, -11.325568, 1.491039
5999, 113.333333, -12.888783, 1.696840
6000, 113.333333, -2.000000, 0.000000
6001, 113.333333, -4.398635, 0.000000
6002, 113.333333, -6.323541, 0.000000
6003, 113.333333, -8.102632, 0.000000
6004, 113.333333, -9.793187, 0.000000
6005, 113.333333, -11.420818, 0.000000
6006, 113.333333, -13.000000, 0.000000
6007, 113.333333, -2.000000, -0.263305
6008, 113.333333, -4.374383, -0.575898
6009, 113.333333, -6.279828, -0.826755
6010, 113.333333, -8.040931, -1.058609
6011, 113.333333, -9.714393, -1.278924
6012, 113.333333, -11.325568, -1.491039
6013, 113.333333, -12.888783, -1.696840
6014, 113.333333, -2.000000, -0.535898
6015, 113.333333, -4.302043, -1.152729
6016, 113.333333, -6.149435, -1.647736
6017, 113.333333, -7.856882, -2.105245
6018, 113.333333, -9.479360, -2.539987
6019, 113.333333, -11.041447, -2.958547
6020, 113.333333, -12.557036, -3.364648
6021, 113.333333, -2.000000, -0.828427
6022, 113.333333, -4.182852, -1.732594
6023, 113.333333, -5.934593, -2.458189
6024, 113.333333, -7.553636, -3.128818
6025, 113.333333, -9.092108, -3.766074
6026, 113.333333, -10.573316, -4.379611
6027, 113.333333, -12.010434, -4.974885
6028, 113.333333, -2.000000, -1.154701
6029, 113.333333, -4.018850, -2.320284
6030, 113.333333, -5.638979, -3.255666
6031, 113.333333, -7.136380, -4.120191
6032, 113.333333, -8.559264, -4.941693
6033, 113.333333, -9.929186, -5.732618
6034, 113.333333, -11.258330, -6.500000
6035, 113.333333, -2.000000, -1.534654
6036, 113.333333, -3.812843, -2.925697
6037, 113.333333, -5.267651, -4.042011
6038, 113.333333, -6.612255, -5.073762
6039, 113.333333, -7.889945, -6.054167
6040, 113.333333, -9.120078, -6.998082
6041, 113.333333, -10.313593, -7.913899
6042, 113.333333, -2.000000, -2.000000
6043, 113.333333, -3.568356, -3.568356
6044, 113.333333, -4.826963, -4.826963
6045, 113.333333, -5.990227, -5.990227
6046, 113.333333, -7.095603, -7.095603
6047, 113.333333, -8.159835, -8.159835
6048, 113.333333, -9.192388, -9.192388
6049, 113.333333, -1.534654, -2.000000
6050, 113.333333, -2.925697, -3.812843
6051, 113.333333, -4.042011, -5.267651
6052, 113.333333, -5.073762, -6.612255
6053, 113.333333, -6.054167, -7.889945
6054, 113.333333, -6.998082, -9.120078
6055, 113.333333, -7.913899, -10.313593
6056, 113.333333, -1.154701, -2.000000
6057, 113.333333, -2.320284, -4.018850
6058, 113.333333, -3.255666, -5.638979
6059, 113.333333, -4.120191, -7.136380
6060, 113.333333, -4.941693, -8.559264
6061, 113.333333, -5.732618, -9.929186
6062, 113.333333, -6.500000, -11.258330
6063, 113.333333, -0.828427, -2.000000
6064, 113.333333, -1.732594, -4.182852
6065, 113.333333, -2.458189, -5.934593
6066, 113.333333, -3.128818, -7.553636
6067, 113.333333, -3.766074, -9.092108
6068, 113.333333, -4.379611, -10.573316
6069, 113.333333, -4.974885, -12.010434
6070, 113.333333, -0.535898, -2.000000
6071, 113.333333, -1.152729, -4.302043
6072, 113.333333, -1.647736, -6.149435
6073, 113.333333, -2.105245, -7.856882
6074, 113.333333, -2.539987, -9.479360
6075, 113.333333, -2.958547, -11.041447
6076, 113.333333, -3.364648, -12.557036
6077, 113.333333, -0.263305, -2.000000
6078, 113.333333, -0.575898, -4.374383
6079, 113.333333, -0.826755, -6.279828
6080, 113.333333, -1.058609, -8.040931
6081, 113.333333, -1.278924, -9.714393
6082, 113.333333, -1.491039, -11.325568
6083, 113.333333, -1.696840, -12.888783
6084, 113.333333, -0.000000, -2.000000
6085, 113.333333, -0.000000, -4.398635
6086, 113.333333, -0.000000, -6.323541
6087, 113.333333, -0.000000, -8.102632
6088, 113.333333, -0.000000, -9.793187
6089, 113.333333, -0.000000, -11.420818
6090, 113.333333, -0.000000, -13.000000
6091, 113.333333, 0.263305, -2.000000
6092, 113.333333, 0.575898, -4.374383
6093, 113.333333, 0.826755, -6.279828
6094, 113.333333, 1.058609, -8.040931
6095, 113.333333, 1.278924, -9.714393
6096, 113.333333, 1.491039, -11.325568
6097, 113.333333, 1.696840, -12.888783
6098, 113.333333, 0.535898, -2.000000
6099, 113.333333, 1.152729, -4.302043
6100, 113.333333, 1.647736, -6.149435
6101, 113.333333, 2.105245, -7.856882
6102, 113.333333, 2.539987, -9.479360
6103, 113.333333, 2.958547, -11.041447
6104, 113.333333, 3.364648, -12.557036
6105, 113.333333, 0.828427, -2.000000
6106, 113.333333, 1.732594, -4.182852
6107, 113.333333, 2.458189, -5.934593
6108, 113.333333, 3.128818, -7.553636
6109, 113.333333, 3.766074, -9.092108
6110, 113.333333, 4.379611, -10.573316
6111, 113.333333, 4.974885, -12.010434
6112, 113.333333, 1.154701, -2.000000
6113, 113.333333, 2.320284, -4.018850
6114, 113.333333, 3.255666, -5.638979
6115, 113.333333, 4.120191, -7.136380
6116, 113.333333, 4.941693, -8.559264
6117, 113.333333, 5.732618, -9.929186
6118, 113.333333, 6.500000, -11.258330
6119, 113.333333, 1.534654, -2.000000
6120, 113.333333, 2.925697, -3.812843
6121, 113.333333, 4.042011, -5.267651
6122, 113.333333, 5.073762, -6.612255
6123, 113.333333, 6.054167, -7.889945
6124, 113.333333, 6.998082, -9.120078
6125, 113.333333, 7.913899, -10.313593
6126, 113.333333, 2.000000, -2.000000
6127, 113.333333, 3.568356, -3.568356
6128, 113.333333, 4.826963, -4.826963
6129, 113.333333, 5.990227, -5.990227
6130, 113.333333, 7.095603, -7.095603
6131, 113.333333, 8.159835, -8.159835
6132, 113.333333, 9.192388, -9.192388
6133, 113.333333, 2.000000, -1.534654
6134, 113.333333, 3.812843, -2.925697
6135, 113.333333, 5.267651, -4.042011
6136, 113.333333, 6.612255, -5.073762
6137, 113.333333, 7.889945, -6.054167
6138, 113.333333, 9.120078, -6.998082
6139, 113.333333, 10.313593, -7.913899
6140, 113.333333, 2.000000, -1.154701
6141, 113.333333, 4.018850, -2.320284
6142, 113.333333, 5.638979, -3.255666
6143, 113.333333, 7.136380, -4.120191
6144, 113.333333, 8.559264, -4.941693
6145, 113.333333, 9.929186, -5.732618
6146, 113.333333, 11.258330, -6.500000
6147, 113.333333, 2.000000, -0.828427
6148, 113.333333, 4.182852, -1.732594
6149, 113.333333, 5.934593, -2.458189
6150, 113.333333, 7.553636, -3.128818
6151, 113.333333, 9.092108, -3.766074
6152, 113.333333, 10.573316, -4.379611
6153, 113.333333, 12.010434, -4.974885
6154, 113.333333, 2.000000, -0.535898
6155, 113.333333, 4.302043, -1.152729
6156, 113.333333, 6.149435, -1.647736
6157, 113.333333, 7.856882, -2.105245
6158, 113.333333, 9.479360, -2.539987
6159, 113.333333, 11.041447, -2.958547
6160, 113.333333, 12.557036, -3.364648
6161, 113.333333, 2.000000, -0.263305
6162, 113.333333, 4.374383, -0.575898
6163, 113.333333, 6.279828, -0.826755
6164, 113.333333, 8.040931, -1.058609
6165, 113.333333, 9.714393, -1.278924
6166, 113.333333, 11.325568, -1.491039
6167, 113.333333, 12.888783, -1.696840
6168, 113.333333, 2.000000, -0.000000
6169, 113.333333, 4.398635, -0.000000
6170, 113.333333, 6.323541, -0.000000
6171, 113.333333, 8.102632, -0.000000
6172, 113.333333, 9.793187, -0.000000
6173, 113.333333, 11.420818, -0.000000
6174, 113.333333, 13.000000, -0.000000
6175, 120.000000, 2.000000, 0.000000
6176, 120.000000, 4.398635, 0.000000
6177, 120.000000, 6.323541, 0.000000
6178, 120.000000, 8.102632, 0.000000
6179, 120.000000, 9.793187, 0.000000
6180, 120.000000, 11.420818, 0.000000
6181, 120.000000, 13.000000, 0.000000
6182, 120.000000, 2.000000, 0.263305
6183, 120.000000, 4.374383, 0.575898
6184, 120.000000, 6.279828, 0.826755
6185, 120.000000, 8.040931, 1.058609
6186, 120.000000, 9.714393, 1.278924
6187, 120.000000, 11.325568, 1.491039
6188, 120.000000, 12.888783, 1.696840
6189, 120.000000, 2.000000, 0.535898
6190, 120.000000, 4.302043, 1.152729
6191, 120.000000, 6.149435, 1.647736
6192, 120.000000, 7.856882, 2.105245
6193, 120.000000, 9.479360, 2.539987
6194, 120.000000, 11.041447, 2.958547
6195, 120.000000, 12.557036, 3.364648
6196, 120.000000, 2.000000, 0.828427
6197, 120.000000, 4.182852, 1.732594
6198, 120.000000, 5.934593, 2.458189
6199, 120.000000, 7.553636, 3.128818
6200, 120.000000, 9.092108, 3.766074
6201, 120.000000, 10.573316, 4.379611
6202, 120.000000, 12.010434, 4.974885
6203, 120.000000, 2.000000, 1.154701
6204, 120.000000, 4.018850, 2.320284
6205, 120.000000, 5.638979, 3.255666
6206, 120.000000, 7.136380, 4.120191
6207, 120.000000, 8.559264, 4.941693
6208, 120.000000, 9.929186, 5.732618
6209, 120.000000, 11.258330, 6.500000
6210, 120.000000, 2.000000, 1.534654
6211, 120.000000, 3.812843, 2.925697
6212, 120.000000, 5.267651, 4.042011
6213, 120.000000, 6.612255, 5.073762
6214, 120.000000, 7.889945, 6.054167
6215, 120.000000, 9.120078, 6.998082
6216, 120.000000, 10.313593, 7.913899
6217, 120.000000, 2.000000, 2.000000
6218, 120.000000, 3.568356, 3.568356
6219, 120.000000, 4.826963, 4.826963
6220, 120.000000, 5.990227, 5.990227
6221, 120.000000, 7.095603, 7.095603
6222, 120.000000, 8.159835, 8.159835
6223, 120.000000, 9.192388, 9.192388
6224, 120.000000, 1.534654, 2.000000
6225, 120.000000, 2.925697, 3.812843
6226, 120.000000, 4.042011, 5.267651
6227, 120.000000, 5.073762, 6.612255
6228, 120.000000, 6.054167, 7.889945
6229, 120.000000, 6.998082, 9.120078
6230, 120.000000, 7.913899, 10.313593
6231, 120.000000, 1.154701, 2.000000
6232, 120.000000, 2.320284, 4.018850
6233, 120.000000, 3.255666, 5.638979
6234, 120.000000, 4.120191, 7.136380
6235, 120.000000, 4.941693, 8.559264
6236, 120.000000, 5.732618, 9.929186
6237, 120.000000, 6.500000, 11.258330
6238, 120.000000, 0.828427, 2.000000
6239, 120.000000, 1.732594, 4.182852
6240, 120.000000, 2.458189, 5.934593
6241, 120.000000, 3.128818, 7.553636
6242, 120.000000, 3.766074, 9.092108
6243, 120.000000, 4.379611, 10.573316
6244, 120.000000, 4.974885, 12.010434
6245, 120.000000, 0.535898, 2.000000
6246, 120.000000, 1.152729, 4.302043
6247, 120.000000, 1.647736, 6.149435
6248, 120.000000, 2.105245, 7.856882
6249, 120.000000, 2.539987, 9.479360
6250, 120.000000, 2.958547, 11.041447
6251, 120.000000, 3.364648, 12.557036
6252, 120.000000, 0.263305, 2.000000
6253, 120.000000, 0.575898, 4.374383
6254, 120.000000, 0.826755, 6.279828
6255, 120.000000, 1.058609, 8.040931
6256, 120.000000, 1.278924, 9.714393
6257, 120.000000, 1.491039, 11.325568
6258, 120.000000, 1.696840, 12.888783
6259, 120.000000, 0.000000, 2.000000
6260, 120.000000, 0.000000, 4.398635
6261, 120.000000, 0.000000, 6.323541
6262, 120.000000, 0.000000, 8.102632
6263, 120.000000, 0.000000, 9.793187
6264, 120.000000, 0.000000, 11.420818
6265, 120.000000, 0.000000, 13.000000
6266, 120.000000, -0.263305, 2.000000
6267, 120.000000, -0.575898, 4.374383
6268, 120.000000, -0.826755, 6.279828
6269, 120.000000, -1.058609, 8.040931
6270, 120.000000, -1.278924, 9.714393
6271, 120.000000, -1.491039, 11.325568
6272, 120.000000, -1.696840, 12.888783
6273, 120.000000, -0.535898, 2.000000
6274, 120.000000, -1.152729, 4.302043
6275, 120.000000, -1.647736, 6.149435
6276, 120.000000, -2.105245, 7.856882
6277, 120.000000, -2.539987, 9.479360
6278, 120.000000, -2.958547, 11.041447
6279, 120.000000, -3.364648, 12.557036
6280, 120.000000, -0.828427, 2.000000
6281, 120.000000, -1.732594, 4.182852
6282, 120.000000, -2.458189, 5.934593
6283, 120.000000, -3.128818, 7.553636
6284, 120.000000, -3.766074, 9.092108
6285, 120.000000, -4.379611, 10.573316
6286, 120.000000, -4.974885, 12.010434
6287, 120.000000, -1.154701, 2.000000
6288, 120.000000, -2.320284, 4.018850
6289, 120.000000, -3.255666, 5.638979
6290, 120.000000, -4.120191, 7.136380
6291, 120.000000, -4.941693, 8.559264
6292, 120.000000, -5.732618, 9.929186
6293, 120.000000, -6.500000, 11.258330
6294, 120.000000, -1.534654, 2.000000
6295, 120.000000, -2.925697, 3.812843
6296, 120.000000, -4.042011, 5.267651
6297, 120.000000, -5.073762, 6.612255
6298, 120.000000, -6.054167, 7.889945
6299, 120.000000, -6.998082, 9.120078
6300, 120.000000, -7.913899, 10.313593
6301, 120.000000, -2.000000, 2.000000
6302, 120.000000, -3.568356, 3.568356
6303, 120.000000, -4.826963, 4.826963
6304, 120.000000, -5.990227, 5.990227
6305, 120.000000, -7.095603, 7.095603
6306, 120.000000, -8.159835, 8.159835
6307, 120.000000, -9.192388, 9.192388
6308, 120.000000, -2.000000, 1.534654
6309, 120.000000, -3.812843, 2.925697
6310, 120.000000, -5.267651, 4.042011
6311, 120.000000, -6.612255, 5.073762
6312, 120.000000, -7.889945, 6.054167
6313, 120.000000, -9.120078, 6.998082
6314, 120.000000, -10.313593, 7.913899
6315, 120.000000, -2.000000, 1.154701
6316, 120.000000, -4.018850, 2.320284
6317, 120.000000, -5.638979, 3.255666
6318, 120.000000, -7.136380, 4.120191
6319, 120.000000, -8.559264, 4.941693
6320, 120.000000, -9.929186, 5.732618
6321, 120.000000, -11.258330, 6.500000
6322, 120.000000, -2.000000, 0.828427
6323, 120.000000, -4.182852, 1.732594
6324, 120.000000, -5.934593, 2.458189
6325, 120.000000, -7.553636, 3.128818
6326, 120.000000, -9.092108, 3.766074
6327, 120.000000, -10.573316, 4.379611
6328, 120.000000, -12.010434, 4.974885
6329, 120.000000, -2.000000, 0.535898
6330, 120.000000, -4.302043, 1.152729
6331, 120.000000, -6.149435, 1.647736
6332, 120.000000, -7.856882, 2.105245
6333, 120.000000, -9.479360, 2.539987
6334, 120.000000, -11.041447, 2.958547
6335, 120.000000, -12.557036, 3.364648
6336, 120.000000, -2.000000, 0.263305
6337, 120.000000, -4.374383, 0.575898
6338, 120.000000, -6.279828, 0.826755
6339, 120.000000, -8.040931, 1.058609
6340, 120.000000, -9.714393, 1.278924
6341, 120.000000, -11.325568, 1.491039
6342, 120.000000, -12.888783, 1.696840
6343, 120.000000, -2.000000, 0.000000
6344, 120.000000, -4.398635, 0.000000
6345, 120.000000, -6.323541, 0.000000
6346, 120.000000, -8.102632, 0.000000
6347, 120.000000, -9.793187, 0.000000
6348, 120.000000, -11.420818, 0.000000
6349, 120.000000, -13.000000, 0.000000
6350, 120.000000, -2.000000, -0.263305
6351, 120.000000, -4.374383, -0.575898
6352, 120.000000, -6.279828, -0.826755
6353, 120.000000, -8.040931, -1.058609
6354, 120.000000, -9.714393, -1.278924
6355, 120.000000, -11.325568, -1.491039
6356, 120.000000, -12.888783, -1.696840
6357, 120.000000, -2.000000, -0.535898
6358, 120.000000, -4.302043, -1.152729
6359, 120.000000, -6.149435, -1.647736
6360, 120.000000, -7.856882, -2.105245
6361, 120.000000, -9.479360, -2.539987
6362, 120.000000, -11.041447, -2.958547
6363, 120.000000, -12.557036, -3.364648
6364, 120.000000, -2.000000, -0.828427
6365, 120.000000, -4.182852, -1.732594
6366, 120.000000, -5.934593, -2.458189
6367, 120.000000, -7.553636, -3.128818
6368, 120.000000, -9.092108, -3.766074
6369, 120.000000, -10.573316, -4.379611
6370, 120.000000, -12.010434, -4.974885
6371, 120.000000, -2.000000, -1.154701
6372, 120.000000, -4.018850, -2.320284
6373, 120.000000, -5.638979, -3.255666
6374, 120.000000, -7.136380, -4.120191
6375, 120.000000, -8.559264, -4.941693
6376, 120.000000, -9.929186, -5.732618
6377, 120.000000, -11.258330, -6.500000
6378, 120.000000, -2.000000, -1.534654
6379, 120.000000, -3.812843, -2.925697
6380, 120.000000, -5.267651, -4.042011
6381, 120.000000, -6.612255, -5.073762
6382, 120.000000, -7.889945, -6.054167
6383, 120.000000, -9.120078, -6.998082
6384, 120.000000, -10.313593, -7.913899
6385, 120.000000, -2.000000, -2.000000
6386, 120.000000, -3.568356, -3.568356
6387, 120.000000, -4.826963, -4.826963
6388, 120.000000, -5.990227, -5.990227
6389, 120.000000, -7.095603, -7.095603
6390, 120.000000, -8.159835, -8.159835
6391, 120.000000, -9.192388, -9.192388
6392, 120.000000, -1.534654, -2.000000
6393, 120.000000, -2.925697, -3.812843
6394, 120.000000, -4.042011, -5.267651
6395, 120.000000, -5.073762, -6.612255
6396, 120.000000, -6.054167, -7.889945
6397, 120.000000, -6.998082, -9.120078
6398, 120.000000, -7.913899, -10.313593
6399, 120.000000, -1.154701, -2.000000
6400, 120.000000, -2.320284, -4.018850
6401, 120.000000, -3.255666, -5.638979
6402, 120.000000, -4.120191, -7.136380
6403, 120.000000, -4.941693, -8.559264
6404, 120.000000, -5.732618, -9.929186
6405, 120.000000, -6.500000, -11.258330
6406, 120.000000, -0.828427, -2.000000
6407, 120.000000, -1.732594, -4.182852
6408, 120.000000, -2.458189, -5.934593
6409, 120.000000, -3.128818, -7.553636
6410, 120.000000, -3.766074, -9.092108
6411, 120.000000, -4.379611, -10.573316
6412, 120.000000, -4.974885, -12.010434
6413, 120.000000, -0.535898, -2.000000
6414, 120.000000, -1.152729, -4.302043
6415, 120.000000, -1.647736, -6.149435
6416, 120.000000, -2.105245, -7.856882
6417, 120.000000, -2.539987, -9.479360
6418, 120.000000, -2.958547, -11.041447
6419, 120.000000, -3.364648, -12.557036
6420, 120.000000, -0.263305, -2.000000
6421, 120.000000, -0.575898, -4.374383
6422, 120.000000, -0.826755, -6.279828
6423, 120.000000, -1.058609, -8.040931
6424, 120.000000, -1.278924, -9.714393
6425, 120.000000, -1.491039, -11.325568
6426, 120.000000, -1.696840, -12.888783
6427, 120.000000, -0.000000, -2.000000
6428, 120.000000, -0.000000, -4.398635
6429, 120.000000, -0.000000, -6.323541
6430, 120.000000, -0.000000, -8.102632
6431, 120.000000, -0.000000, -9.793187
6432, 120.000000, -0.000000, -11.420818
6433, 120.000000, -0.000000, -13.000000
6434, 120.000000, 0.263305, -2.000000
6435, 120.000000, 0.575898, -4.374383
6436, 120.000000, 0.826755, -6.279828
6437, 120.000000, 1.058609, -8.040931
6438, 120.000000, 1.278924, -9.714393
6439, 120.000000, 1.491039, -11.325568
6440, 120.000000, 1.696840, -12.888783
6441, 120.000000, 0.535898, -2.000000
6442, 120.000000, 1.152729, -4.302043
6443, 120.000000, 1.647736, -6.149435
6444, 120.000000, 2.105245, -7.856882
6445, 120.000000, 2.539987, -9.479360
6446, 120.000000, 2.958547, -11.041447
6447, 120.000000, 3.364648, -12.557036
6448, 120.000000, 0.828427, -2.000000
6449, 120.000000, 1.732594, -4.182852
6450, 120.000000, 2.458189, -5.934593
6451, 120.000000, 3.128818, -7.553636
6452, 120.000000, 3.766074, -9.092108
6453, 120.000000, 4.379611, -10.573316
6454, 120.000000, 4.974885, -12.010434
6455, 120.000000, 1.154701, -2.000000
6456, 120.000000, 2.320284, -4.018850
6457, 120.000000, 3.255666, -5.638979
6458, 120.000000, 4.120191, -7.136380
6459, 120.000000, 4.941693, -8.559264
6460, 120.000000, 5.732618, -9.929186
6461, 120.000000, 6.500000, -11.258330
6462, 120.000000, 1.534654, -2.000000
6463, 120.000000, 2.925697, -3.812843
6464, 120.000000, 4.042011, -5.267651
6465, 120.000000, 5.073762, -6.612255
6466, 120.000000, 6.054167, -7.889945
6467, 120.000000, 6.998082, -9.120078
6468, 120.000000, 7.913899, -10.313593
6469, 120.000000, 2.000000, -2.000000
6470, 120.000000, 3.568356, -3.568356
6471, 120.000000, 4.826963, -4.826963
6472, 120.000000, 5.990227, -5.990227
6473, 120.000000, 7.095603, -7.095603
6474, 120.000000, 8.159835, -8.159835
6475, 120.000000, 9.192388, -9.192388
6476, 120.000000, 2.000000, -1.534654
6477, 120.000000, 3.812843, -2.925697
6478, 120.000000, 5.267651, -4.042011
6479, 120.000000, 6.612255, -5.073762
6480, 120.000000, 7.889945, -6.054167
6481, 120.000000, 9.120078, -6.998082
6482, 120.000000, 10.313593, -7.913899
6483, 120.000000, 2.000000, -1.154701
6484, 120.000000, 4.018850, -2.320284
6485, 120.000000, 5.638979, -3.255666
6486, 120.000000, 7.136380, -4.120191
6487, 120.000000, 8.559264, -4.941693
6488, 120.000000, 9.929186, -5.732618
6489, 120.000000, 11.258330, -6.500000
6490, 120.000000, 2.000000, -0.828427
6491, 120.000000, 4.182852, -1.732594
6492, 120.000000, 5.934593, -2.458189
6493, 120.000000, 7.553636, -3.128818
6494, 120.000000, 9.092108, -3.766074
6495, 120.000000, 10.573316, -4.379611
6496, 120.000000, 12.010434, -4.974885
6497, 120.000000, 2.000000, -0.535898
6498, 120.000000, 4.302043, -1.152729
6499, 120.000000, 6.149435, -1.647736
6500, 120.000000, 7.856882, -2.105245
6501, 120.000000, 9.479360, -2.539987
6502, 120.000000, 11.041447, -2.958547
6503, 120.000000, 12.557036, -3.364648
6504, 120.000000, 2.000000, -0.263305
6505, 120.000000, 4.374383, -0.575898
6506, 120.000000, 6.279828, -0.826755
6507, 120.000000, 8.040931, -1.058609
6508, 120.000000, 9.714393, -1.278924
6509, 120.000000, 11.325568, -1.491039
6510, 120.000000, 12.888783, -1.696840
6511, 120.000000, 2.000000, -0.000000
6512, 120.000000, 4.398635, -0.000000
6513, 120.000000, 6.323541, -0.000000
6514, 120.000000, 8.102632, -0.000000
6515, 120.000000, 9.793187, -0.000000
6516, 120.000000, 11.420818, -0.000000
6517, 120.000000, 13.000000, -0.000000
6518, 126.666667, 2.000000, 0.000000
6519, 126.666667, 4.398635, 0.000000
6520, 126.666667, 6.323541, 0.000000
6521, 126.666667, 8.102632, 0.000000
6522, 126.666667, 9.793187, 0.000000
6523, 126.666667, 11.420818, 0.000000
6524, 126.666667, 13.000000, 0.000000
6525, 126.666667, 2.000000, 0.263305
6526, 126.666667, 4.374383, 0.575898
6527, 126.666667, 6.279828, 0.826755
6528, 126.666667, 8.040931, 1.058609
6529, 126.666667, 9.714393, 1.278924
6530, 126.666667, 11.325568, 1.491039
6531, 126.666667, 12.888783, 1.696840
6532, 126.666667, 2.000000, 0.535898
6533, 126.666667, 4.302043, 1.152729
6534, 126.666667, 6.149435, 1.647736
6535, 126.666667, 7.856882, 2.105245
6536, 126.666667, 9.479360, 2.539987
6537, 126.666667, 11.041447, 2.958547
6538, 126.666667, 12.557036, 3.364648
6539, 126.666667, 2.000000, 0.828427
6540, 126.666667, 4.182852, 1.732594
6541, 126.666667, 5.934593, 2.458189
6542, 126.666667, 7.553636, 3.128818
6543, 126.666667, 9.092108, 3.766074
6544, 126.666667, 10.573316, 4.379611
6545, 126.666667, 12.010434, 4.974885
6546, 126.666667, 2.000000, 1.154701
6547, 126.666667, 4.018850, 2.320284
6548, 126.666667, 5.638979, 3.255666
6549, 126.666667, 7.136380, 4.120191
6550, 126.666667, 8.559264, 4.941693
6551, 126.666667, 9.929186, 5.732618
6552, 126.666667, 11.258330, 6.500000
6553, 126.666667, 2.000000, 1.534654
6554, 126.666667, 3.812843, 2.925697
6555, 126.666667, 5.267651, 4.042011
6556, 126.666667, 6.612255, 5.073762
6557, 126.666667, 7.889945, 6.054167
6558, 126.666667, 9.120078, 6.998082
6559, 126.666667, 10.313593, 7.913899
6560, 126.666667, 2.000000, 2.000000
6561, 126.666667, 3.568356, 3.568356
6562, 126.666667, 4.826963, 4.826963
6563, 126.666667, 5.990227, 5.990227
6564, 126.666667, 7.095603, 7.095603
6565, 126.666667, 8.159835, 8.159835
6566, 126.666667, 9.192388, 9.192388
6567, 126.666667, 1.534654, 2.000000
6568, 126.666667, 2.925697, 3.812843
6569, 126.666667, 4.042011, 5.267651
6570, 126.666667, 5.073762, 6.612255
6571, 126.666667, 6.054167, 7.889945
6572, 126.666667, 6.998082, 9.120078
6573, 126.666667, 7.913899, 10.313593
6574, 126.666667, 1.154701, 2.000000
6575, 126.666667, 2.320284, 4.018850
6576, 126.666667, 3.255666, 5.638979
6577, 126.666667, 4.120191, 7.136380
6578, 126.666667, 4.941693, 8.559264
6579, 126.666667, 5.732618, 9.929186
6580, 126.666667, 6.500000, 11.258330
6581, 126.666667, 0.828427, 2.000000
6582, 126.666667, 1.732594, 4.182852
6583, 126.666667, 2.458189, 5.934593
6584, 126.666667, 3.128818, 7.553636
6585, 126.666667, 3.766074, 9.092108
6586, 126.666667, 4.379611, 10.573316
6587, 126.666667, 4.974885, 12.010434
6588, 126.666667, 0.535898, 2.000000
6589, 126.666667, 1.152729, 4.302043
6590, 126.666667, 1.647736, 6.149435
6591, 126.666667, 2.105245, 7.856882
6592, 126.666667, 2.539987, 9.479360
6593, 126.666667, 2.958547, 11.041447
6594, 126.666667, 3.364648, 12.557036
6595, 126.666667, 0.263305, 2.000000
6596, 126.666667, 0.575898, 4.374383
6597, 126.666667, 0.826755, 6.279828
6598, 126.666667, 1.058609, 8.040931
6599, 126.666667, 1.278924, 9.714393
6600, 126.666667, 1.491039, 11.325568
6601, 126.666667, 1.696840, 12.888783
6602, 126.666667, 0.000000, 2.000000
6603, 126.666667, 0.000000, 4.398635
6604, 126.666667, 0.000000, 6.323541
6605, 126.666667, 0.000000, 8.102632
6606, 126.666667, 0.000000, 9.793187
6607, 126.666667, 0.000000, 11.420818
6608, 126.666667, 0.000000, 13.000000
6609, 126.666667, -0.263305, 2.000000
6610, 126.666667, -0.575898, 4.374383
6611, 126.666667, -0.826755, 6.279828
6612, 126.666667, -1.058609, 8.040931
6613, 126.666667, -1.278924, 9.714393
6614, 126.666667, -1.491039, 11.325568
6615, 126.666667, -1.696840, 12.888783
6616, 126.666667, -0.535898, 2.000000
6617, 126.666667, -1.152729, 4.302043
6618, 126.666667, -1.647736, 6.149435
6619, 126.666667, -2.105245, 7.856882
6620, 126.666667, -2.539987, 9.479360
6621, 126.666667, -2.958547, 11.041447
6622, 126.666667, -3.364648, 12.557036
6623, 126.666667, -0.828427, 2.000000
6624, 126.666667, -1.732594, 4.182852
6625, 126.666667, -2.458189, 5.934593
6626, 126.666667, -3.128818, 7.553636
6627, 126.666667, -3.766074, 9.092108
6628, 126.666667, -4.379611, 10.573316
6629, 126.666667, -4.974885, 12.010434
6630, 126.666667, -1.154701, 2.000000
6631, 126.666667, -2.320284, 4.018850
6632, 126.666667, -3.255666, 5.638979
6633, 126.666667, -4.120191, 7.136380
6634, 126.666667, -4.941693, 8.559264
6635, 126.666667, -5.732618, 9.929186
6636, 126.666667, -6.500000, 11.258330
6637, 126.666667, -1.534654, 2.000000
6638, 126.666667, -2.925697, 3.812843
6639, 126.666667, -4.042011, 5.267651
6640, 126.666667, -5.073762, 6.612255
6641, 126.666667, -6.054167, 7.889945
6642, 126.666667, -6.998082, 9.120078
6643, 126.666667, -7.913899, 10.313593
6644, 126.666667, -2.000000, 2.000000
6645, 126.666667, -3.568356, 3.568356
6646, 126.666667, -4.826963, 4.826963
6647, 126.666667, -5.990227, 5.990227
6648, 126.666667, -7.095603, 7.095603
6649, 126.666667, -8.159835, 8.159835
6650, 126.666667, -9.192388, 9.192388
6651, 126.666667, -2.000000, 1.534654
6652, 126.666667, -3.812843, 2.925697
6653, 126.666667, -5.267651, 4.042011
6654, 126.666667, -6.612255, 5.073762
6655, 126.666667, -7.889945, 6.054167
6656, 126.666667, -9.120078, 6.998082
6657, 126.666667, -10.313593, 7.913899
6658, 126.666667, -2.000000, 1.154701
6659, 126.666667, -4.018850, 2.320284
6660, 126.666667, -5.638979, 3.255666
6661, 126.666667, -7.136380, 4.120191
6662, 126.666667, -8.559264, 4.941693
6663, 126.666667, -9.929186, 5.732618
6664, 126.666667, -11.258330, 6.500000
6665, 126.666667, -2.000000, 0.828427
6666, 126.666667, -4.182852, 1.732594
6667, 126.666667, -5.934593, 2.458189
6668, 126.666667, -7.553636, 3.128818
6669, 126.666667, -9.092108, 3.766074
6670, 126.666667, -10.573316, 4.379611
6671, 126.666667, -12.010434, 4.974885
6672, 126.666667, -2.000000, 0.535898
6673, 126.666667, -4.302043, 1.152729
6674, 126.666667, -6.149435, 1.647736
6675, 126.666667, -7.856882, 2.105245
6676, 126.666667, -9.479360, 2.539987
6677, 126.666667, -11.041447, 2.958547
6678, 126.666667, -12.557036, 3.364648
6679, 126.666667, -2.000000, 0.263305
6680, 126.666667, -4.374383, 0.575898
6681, 126.666667, -6.279828, 0.826755
6682, 126.666667, -8.040931, 1.058609
6683, 126.666667, -9.714393, 1.278924
6684, 126.666667, -11.325568, 1.491039
6685, 126.666667, -12.888783, 1.696840
6686, 126.666667, -2.000000, 0.000000
6687, 126.666667, -4.398635, 0.000000
6688, 126.666667, -6.323541, 0.000000
6689, 126.666667, -8.102632, 0.000000
6690, 126.666667, -9.793187, 0.000000
6691, 126.666667, -11.420818, 0.000000
6692, 126.666667, -13.000000, 0.000000
6693, 126.666667, -2.000000, -0.263305
6694, 126.666667, -4.374383, -0.575898
6695, 126.666667, -6.279828, -0.826755
6696, 126.666667, -8.040931, -1.058609
6697, 126.666667, -9.714393, -1.278924
6698, 126.666667, -11.325568, -1.491039
6699, 126.666667, -12.888783, -1.696840
6700, 126.666667, -2.000000, -0.535898
6701, 126.666667, -4.302043, -1.152729
6702, 126.666667, -6.149435, -1.647736
6703, 126.666667, -7.856882, -2.105245
6704, 126.666667, -9.479360, -2.539987
6705, 126.666667, -11.041447, -2.958547
6706, 126.666667, -12.557036, -3.364648
6707, 126.666667, -2.000000, -0.828427
6708, 126.666667, -4.182852, -1.732594
6709, 126.666667, -5.934593, -2.458189
6710, 126.666667, -7.553636, -3.128818
6711, 126.666667, -9.092108, -3.766074
6712, 126.666667, -10.573316, -4.379611
6713, 126.666667, -12.010434, -4.974885
6714, 126.666667, -2.000000, -1.154701
6715, 126.666667, -4.018850, -2.320284
6716, 126.666667, -5.638979, -3.255666
6717, 126.666667, -7.136380, -4.120191
6718, 126.666667, -8.559264, -4.941693
6719, 126.666667, -9.929186, -5.732618
6720, 126.666667, -11.258330, -6.500000
6721, 126.666667, -2.000000, -1.534654
6722, 126.666667, -3.812843, -2.925697
6723, 126.666667, -5.267651, -4.042011
6724, 126.666667, -6.612255, -5.073762
6725, 126.666667, -7.889945, -6.054167
6726, 126.666667, -9.120078, -6.998082
6727, 126.666667, -10.313593, -7.913899
6728, 126.666667, -2.000000, -2.000000
6729, 126.666667, -3.568356, -3.568356
6730, 126.666667, -4.826963, -4.826963
6731, 126.666667, -5.990227, -5.990227
6732, 126.666667, -7.095603, -7.095603
6733, 126.666667, -8.159835, -8.159835
6734, 126.666667, -9.192388, -9.192388
6735, 126.666667, -1.534654, -2.000000
6736, 126.666667, -2.925697, -3.812843
6737, 126.666667, -4.042011, -5.267651
6738, 126.666667, -5.073762, -6.612255
6739, 126.666667, -6.054167, -7.889945
6740, 126.666667, -6.998082, -9.120078
6741, 126.666667, -7.913899, -10.313593
6742, 126.666667, -1.154701, -2.000000
6743, 126.666667, -2.320284, -4.018850
6744, 126.666667, -3.255666, -5.638979
6745, 126.666667, -4.120191, -7.136380
6746, 126.666667, -4.941693, -8.559264
6747, 126.666667, -5.732618, -9.929186
6748, 126.666667, -6.500000, -11.258330
6749, 126.666667, -0.828427, -2.000000
6750, 126.666667, -1.732594, -4.182852
6751, 126.666667, -2.458189, -5.934593
6752, 126.666667, -3.128818, -7.553636
6753, 126.666667, -3.766074, -9.092108
6754, 126.666667, -4.379611, -10.573316
6755, 126.666667, -4.974885, -12.010434
6756, 126.666667, -0.535898, -2.000000
6757, 126.666667, -1.152729, -4.302043
6758, 126.666667, -1.647736, -6.149435
6759, 126.666667, -2.105245, -7.856882
6760, 126.666667, -2.539987, -9.479360
6761, 126.666667, -2.958547, -11.041447
6762, 126.666667, -3.364648, -12.557036
6763, 126.666667, -0.263305, -2.000000
6764, 126.666667, -0.575898, -4.374383
6765, 126.666667, -0.826755, -6.279828
6766, 126.666667, -1.058609, -8.040931
6767, 126.666667, -1.278924, -9.714393
6768, 126.666667, -1.491039, -11.325568
6769, 126.666667, -1.696840, -12.888783
6770, 126.666667, -0.000000, -2.000000
6771, 126.666667, -0.000000, -4.398635
6772, 126.666667, -0.000000, -6.323541
6773, 126.666667, -0.000000, -8.102632
6774, 126.666667, -0.000000, -9.793187
6775, 126.666667, -0.000000, -11.420818
6776, 126.666667, -0.000000, -13.000000
6777, 126.666667, 0.263305, -2.000000
6778, 126.666667, 0.575898, -4.374383
6779, 126.666667, 0.826755, -6.279828
6780, 126.666667, 1.058609, -8.040931
6781, 126.666667, 1.278924, -9.714393
6782, 126.666667, 1.491039, -11.325568
6783, 126.666667, 1.696840, -12.888783
6784, 126.666667, 0.535898, -2.000000
6785, 126.666667, 1.152729, -4.302043
6786, 126.666667, 1.647736, -6.149435
6787, 126.666667, 2.105245, -7.856882
6788, 126.666667, 2.539987, -9.479360
6789, 126.666667, 2.958547, -11.041447
6790, 126.666667, 3.364648, -12.557036
6791, 126.666667, 0.828427, -2.000000
6792, 126.666667, 1.732594, -4.182852
6793, 126.666667, 2.458189, -5.934593
6794, 126.666667, 3.128818, -7.553636
6795, 126.666667, 3.766074, -9.092108
6796, 126.666667, 4.379611, -10.573316
6797, 126.666667, 4.974885, -12.010434
6798, 126.666667, 1.154701, -2.000000
6799, 126.666667, 2.320284, -4.018850
6800, 126.666667, 3.255666, -5.638979
6801, 126.666667, 4.120191, -7.136380
6802, 126.666667, 4.941693, -8.559264
6803, 126.666667, 5.732618, -9.929186
6804, 126.666667, 6.500000, -11.258330
6805, 126.666667, 1.534654, -2.000000
6806, 126.666667, 2.925697, -3.812843
6807, 126.666667, 4.042011, -5.267651
6808, 126.666667, 5.073762, -6.612255
6809, 126.666667, 6.054167, -7.889945
6810, 126.666667, 6.998082, -9.120078
6811, 126.666667, 7.913899, -10.313593
6812, 126.666667, 2.000000, -2.000000
6813, 126.666667, 3.568356, -3.568356
6814, 126.666667, 4.826963, -4.826963
6815, 126.666667, 5.990227, -5.990227
6816, 126.666667, 7.095603, -7.095603
6817, 126.666667, 8.159835, -8.159835
6818, 126.666667, 9.192388, -9.192388
6819, 126.666667, 2.000000, -1.534654
6820, 126.666667, 3.812843, -2.925697
6821, 126.666667, 5.267651, -4.042011
6822, 126.666667, 6.612255, -5.073762
6823, 126.666667, 7.889945, -6.054167
6824, 126.666667, 9.120078, -6.998082
6825, 126.666667, 10.313593, -7.913899
6826, 126.666667, 2.000000, -1.154701
6827, 126.666667, 4.018850, -2.320284
6828, 126.666667, 5.638979, -3.255666
6829, 126.666667, 7.136380, -4.120191
6830, 126.666667, 8.559264, -4.941693
6831, 126.666667, 9.929186, -5.732618
6832, 126.666667, 11.258330, -6.500000
6833, 126.666667, 2.000000, -0.828427
6834, 126.666667, 4.182852, -1.732594
6835, 126.666667, 5.934593, -2.458189
6836, 126.666667, 7.553636, -3.128818
6837, 126.666667, 9.092108, -3.766074
6838, 126.666667, 10.573316, -4.379611
6839, 126.666667, 12.010434, -4.974885
6840, 126.666667, 2.000000, -0.535898
6841, 126.666667, 4.302043, -1.152729
6842, 126.666667, 6.149435, -1.647736
6843, 126.666667, 7.856882, -2.105245
6844, 126.666667, 9.479360, -2.539987
6845, 126.666667, 11.041447, -2.958547
6846, 126.666667, 12.557036, -3.364648
6847, 126.666667, 2.000000, -0.263305
6848, 126.666667, 4.374383, -0.575898
6849, 126.666667, 6.279828, -0.826755
6850, 126.666667, 8.040931, -1.058609
6851, 126.666667, 9.714393, -1.278924
6852, 126.666667, 11.325568, -1.491039
6853, 126.666667, 12.888783, -1.696840
6854, 126.666667, 2.000000, -0.000000
6855, 126.666667, 4.398635, -0.000000
6856, 126.666667, 6.323541, -0.000000
6857, 126.666667, 8.102632, -0.000000
6858, 126.666667, 9.793187, -0.000000
6859, 126.666667, 11.420818, -0.000000
6860, 126.666667, 13.000000, -0.000000
6861, 133.333333, 2.000000, 0.000000
6862, 133.333333, 4.398635, 0.000000
6863, 133.333333, 6.323541, 0.000000
6864, 133.333333, 8.102632, 0.000000
6865, 133.333333, 9.793187, 0.000000
6866, 133.333333, 11.420818, 0.000000
6867, 133.333333, 13.000000, 0.000000
6868, 133.333333, 2.000000, 0.263305
6869, 133.333333, 4.374383, 0.575898
6870, 133.333333, 6.279828, 0.826755
6871, 133.333333, 8.040931, 1.058609
6872, 133.333333, 9.714393, 1.278924
6873, 133.333333, 11.325568, 1.491039
6874, 133.333333, 12.888783, 1.696840
6875, 133.333333, 2.000000, 0.535898
6876, 133.333333, 4.302043, 1.152729
6877, 133.333333, 6.149435, 1.647736
6878, 133.333333, 7.856882, 2.105245
6879, 133.333333, 9.479360, 2.539987
6880, 133.333333, 11.041447, 2.958547
6881, 133.333333, 12.557036, 3.364648
6882, 133.333333, 2.000000, 0.828427
6883, 133.333333, 4.182852, 1.732594
6884, 133.333333, 5.934593, 2.458189
6885, 133.333333, 7.553636, 3.128818
6886, 133.333333, 9.092108, 3.766074
6887, 133.333333, 10.573316, 4.379611
6888, 133.333333, 12.010434, 4.974885
6889, 133.333333, 2.000000, 1.154701
6890, 133.333333, 4.018850, 2.320284
6891, 133.333333, 5.638979, 3.255666
6892, 133.333333, 7.136380, 4.120191
6893, 133.333333, 8.559264, 4.941693
6894, 133.333333, 9.929186, 5.732618
6895, 133.333333, 11.258330, 6.500000
6896, 133.333333, 2.000000, 1.534654
6897, 133.333333, 3.812843, 2.925697
6898, 133.333333, 5.267651, 4.042011
6899, 133.333333, 6.612255, 5.073762
6900, 133.333333, 7.889945, 6.054167
6901, 133.333333, 9.120078, 6.998082
6902, 133.333333, 10.313593, 7.913899
6903, 133.333333, 2.000000, 2.000000
6904, 133.333333, 3.568356, 3.568356
6905, 133.333333, 4.826963, 4.826963
6906, 133.333333, 5.990227, 5.990227
6907, 133.333333, 7.095603, 7.095603
6908, 133.333333, 8.159835, 8.159835
6909, 133.333333, 9.192388, 9.192388
6910, 133.333333, 1.534654, 2.000000
6911, 133.333333, 2.925697, 3.812843
6912, 133.333333, 4.042011, 5.267651
6913, 133.333333, 5.073762, 6.612255
6914, 133.333333, 6.054167, 7.889945
6915, 133.333333, 6.998082, 9.120078
6916, 133.333333, 7.913899, 10.313593
6917, 133.333333, 1.154701, 2.000000
6918, 133.333333, 2.320284, 4.018850
6919, 133.333333, 3.255666, 5.638979
6920, 133.333333, 4.120191, 7.136380
6921, 133.333333, 4.941693, 8.559264
6922, 133.333333, 5.732618, 9.929186
6923, 133.333333, 6.500000, 11.258330
6924, 133.333333, 0.828427, 2.000000
6925, 133.333333, 1.732594, 4.182852
6926, 133.333333, 2.458189, 5.934593
6927, 133.333333, 3.128818, 7.553636
6928, 133.333333, 3.766074, 9.092108
6929, 133.333333, 4.379611, 10.573316
6930, 133.333333, 4.974885, 12.010434
6931, 133.333333, 0.535898, 2.000000
6932, 133.333333, 1.152729, 4.302043
6933, 133.333333, 1.647736, 6.149435
6934, 133.333333, 2.105245, 7.856882
6935, 133.333333, 2.539987, 9.479360
6936, 133.333333, 2.958547, 11.041447
6937, 133.333333, 3.364648, 12.557036
6938, 133.333333, 0.263305, 2.000000
6939, 133.333333, 0.575898, 4.374383
6940, 133.333333, 0.826755, 6.279828
6941, 133.333333, 1.058609, 8.040931
6942, 133.333333, 1.278924, 9.714393
6943, 133.333333, 1.491039, 11.325568
6944, 133.333333, 1.696840, 12.888783
6945, 133.333333, 0.000000, 2.000000
6946, 133.333333, 0.000000, 4.398635
6947, 133.333333, 0.000000, 6.323541
6948, 133.333333, 0.000000, 8.102632
6949, 133.333333, 0.000000, 9.793187
6950, 133.333333, 0.000000, 11.420818
6951, 133.333333, 0.000000, 13.000000
6952, 133.333333, -0.263305, 2.000000
6953, 133.333333, -0.575898, 4.374383
6954, 133.333333, -0.826755, 6.279828
6955, 133.333333, -1.058609, 8.040931
6956, 133.333333, -1.278924, 9.714393
6957, 133.333333, -1.491039, 11.325568
6958, 133.333333, -1.696840, 12.888783
6959, 133.333333, -0.535898, 2.000000
6960, 133.333333, -1.152729, 4.302043
6961, 133.333333, -1.647736, 6.149435
6962, 133.333333, -2.105245, 7.856882
6963, 133.333333, -2.539987, 9.479360
6964, 133.333333, -2.958547, 11.041447
6965, 133.333333, -3.364648, 12.557036
6966, 133.333333, -0.828427, 2.000000
6967, 133.333333, -1.732594, 4.182852
6968, 133.333333, -2.458189, 5.934593
6969, 133.333333, -3.128818, 7.553636
6970, 133.333333, -3.766074, 9.092108
6971, 133.333333, -4.379611, 10.573316
6972, 133.333333, -4.974885, 12.010434
6973, 133.333333, -1.154701, 2.000000
6974, 133.333333, -2.320284, 4.018850
6975, 133.333333, -3.255666, 5.638979
6976, 133.333333, -4.120191, 7.136380
6977, 133.333333, -4.941693, 8.559264
6978, 133.333333, -5.732618, 9.929186
6979, 133.333333, -6.500000, 11.258330
6980, 133.333333, -1.534654, 2.000000
6981, 133.333333, -2.925697, 3.812843
6982, 133.333333, -4.042011, 5.267651
6983, 133.333333, -5.073762, 6.612255
6984, 133.333333, -6.054167, 7.889945
6985, 133.333333, -6.998082, 9.120078
6986, 133.333333, -7.913899, 10.313593
6987, 133.333333, -2.000000, 2.000000
6988, 133.333333, -3.568356, 3.568356
6989, 133.333333, -4.826963, 4.826963
6990, 133.333333, -5.990227, 5.990227
6991, 133.333333, -7.095603, 7.095603
6992, 133.333333, -8.159835, 8.159835
6993, 133.333333, -9.192388, 9.192388
6994, 133.333333, -2.000000, 1.534654
6995, 133.333333, -3.812843, 2.925697
6996, 133.333333, -5.267651, 4.042011
6997, 133.333333, -6.612255, 5.073762
6998, 133.333333, -7.889945, 6.054167
6999, 133.333333, -9.120078, 6.998082
7000, 133.333333, -10.313593, 7.913899
7001, 133.333333, -2.000000, 1.154701
7002, 133.333333, -4.018850, 2.320284
7003, 133.333333, -5.638979, 3.255666
7004, 133.333333, -7.136380, 4.120191
7005, 133.333333, -8.559264, 4.941693
7006, 133.333333, -9.929186, 5.732618
7007, 133.333333, -11.258330, 6.500000
7008, 133.333333, -2.000000, 0.828427
7009, 133.333333, -4.182852, 1.732594
7010, 133.333333, -5.934593, 2.458189
7011, 133.333333, -7.553636, 3.128818
7012, 133.333333, -9.092108, 3.766074
7013, 133.333333, -10.573316, 4.379611
7014, 133.333333, -12.010434, 4.974885
7015, 133.333333, -2.000000, 0.535898
7016, 133.333333, -4.302043, 1.152729
7017, 133.333333, -6.149435, 1.647736
7018, 133.333333, -7.856882, 2.105245
7019, 133.333333, -9.479360, 2.539987
7020, 133.333333, -11.041447, 2.958547
7021, 133.333333, -12.557036, 3.364648
7022, 133.333333, -2.000000, 0.263305
7023, 133.333333, -4.374383, 0.575898
7024, 133.333333, -6.279828, 0.826755
7025, 133.333333, -8.040931, 1.058609
7026, 133.333333, -9.714393, 1.278924
7027, 133.333333, -11.325568, 1.491039
7028, 133.333333, -12.888783, 1.696840
7029, 133.333333, -2.000000, 0.000000
7030, 133.333333, -4.398635, 0.000000
7031, 133.333333, -6.323541, 0.000000
7032, 133.333333, -8.102632, 0.000000
7033, 133.333333, -9.793187, 0.000000
7034, 133.333333, -11.420818, 0.000000
7035, 133.333333, -13.000000, 0.000000
7036, 133.333333, -2.000000, -0.263305
7037, 133.333333, -4.374383, -0.575898
7038, 133.333333, -6.279828, -0.826755
7039, 133.333333, -8.040931, -1.058609
7040, 133.333333, -9.714393, -1.278924
7041, 133.333333, -11.325568, -1.491039
7042, 133.333333, -12.888783, -1.696840
7043, 133.333333, -2.000000, -0.535898
7044, 133.333333, -4.302043, -1.152729
7045, 133.333333, -6.149435, -1.647736
7046, 133.333333, -7.856882, -2.105245
7047, 133.333333, -9.479360, -2.539987
7048, 133.333333, -11.041447, -2.958547
7049, 133.333333, -12.557036, -3.364648
7050, 133.333333, -2.000000, -0.828427
7051, 133.333333, -4.182852, -1.732594
7052, 133.333333, -5.934593, -2.458189
7053, 133.333333, -7.553636, -3.128818
7054, 133.333333, -9.092108, -3.766074
7055, 133.333333, -10.573316, -4.379611
7056, 133.333333, -12.010434, -4.974885
7057, 133.333333, -2.000000, -1.154701
7058, 133.333333, -4.018850, -2.320284
7059, 133.333333, -5.638979, -3.255666
7060, 133.333333, -7.136380, -4.120191
7061, 133.333333, -8.559264, -4.941693
7062, 133.333333, -9.929186, -5.732618
7063, 133.333333, -11.258330, -6.500000
7064, 133.333333, -2.000000, -1.534654
7065, 133.333333, -3.812843, -2.925697
7066, 133.333333, -5.267651, -4.042011
7067, 133.333333, -6.612255, -5.073762
7068, 133.333333, -7.889945, -6.054167
7069, 133.333333, -9.120078, -6.998082
7070, 133.333333, -10.313593, -7.913899
7071, 133.333333, -2.000000, -2.000000
7072, 133.333333, -3.568356, -3.568356
7073, 133.333333, -4.826963, -4.826963
7074, 133.333333, -5.990227, -5.990227
7075, 133.333333, -7.095603, -7.095603
7076, 133.333333, -8.159835, -8.159835
7077, 133.333333, -9.192388, -9.192388
7078, 133.333333, -1.534654, -2.000000
7079, 133.333333, -2.925697, -3.812843
7080, 133.333333, -4.042011, -5.267651
7081, 133.333333, -5.073762, -6.612255
7082, 133.333333, -6.054167, -7.889945
7083, 133.333333, -6.998082, -9.120078
7084, 133.333333, -7.913899, -10.313593
7085, 133.333333, -1.154701, -2.000000
7086, 133.333333, -2.320284, -4.018850
7087, 133.333333, -3.255666, -5.638979
7088, 133.333333, -4.120191, -7.136380
7089, 133.333333, -4.941693, -8.559264
7090, 133.333333, -5.732618, -9.929186
7091, 133.333333, -6.500000, -11.258330
7092, 133.333333, -0.828427, -2.000000
7093, 133.333333, -1.732594, -4.182852
7094, 133.333333, -2.458189, -5.934593
7095, 133.333333, -3.128818, -7.553636
7096, 133.333333, -3.766074, -9.092108
7097, 133.333333, -4.379611, -10.573316
7098, 133.333333, -4.974885, -12.010434
7099, 133.333333, -0.535898, -2.000000
7100, 133.333333, -1.152729, -4.302043
7101, 133.333333, -1.647736, -6.149435
7102, 133.333333, -2.105245, -7.856882
7103, 133.333333, -2.539987, -9.479360
7104, 133.333333, -2.958547, -11.041447
7105, 133.333333, -3.364648, -12.557036
7106, 133.333333, -0.263305, -2.000000
7107, 133.333333, -0.575898, -4.374383
7108, 133.333333, -0.826755, -6.279828
7109, 133.333333, -1.058609, -8.040931
7110, 133.333333, -1.278924, -9.714393
7111, 133.333333, -1.491039, -11.325568
7112, 133.333333, -1.696840, -12.888783
7113, 133.333333, -0.000000, -2.000000
7114, 133.333333, -0.000000, -4.398635
7115, 133.333333, -0.000000, -6.323541
7116, 133.333333, -0.000000, -8.102632
7117, 133.333333, -0.000000, -9.793187
7118, 133.333333, -0.000000, -11.420818
7119, 133.333333, -0.000000, -13.000000
7120, 133.333333, 0.263305, -2.000000
7121, 133.333333, 0.575898, -4.374383
7122, 133.333333, 0.826755, -6.279828
7123, 133.333333, 1.058609, -8.040931
7124, 133.333333, 1.278924, -9.714393
7125, 133.333333, 1.491039, -11.325568
7126, 133.333333, 1.696840, -12.888783
7127, 133.333333, 0.535898, -2.000000
7128, 133.333333, 1.152729, -4.302043
7129, 133.333333, 1.647736, -6.149435
7130, 133.333333, 2.105245, -7.856882
7131, 133.333333, 2.539987, -9.479360
7132, 133.333333, 2.958547, -11.041447
7133, 133.333333, 3.364648, -12.557036
7134, 133.333333, 0.828427, -2.000000
7135, 133.333333, 1.732594, -4.182852
7136, 133.333333, 2.458189, -5.934593
7137, 133.333333, 3.128818, -7.553636
7138, 133.333333, 3.766074, -9.092108
7139, 133.333333, 4.379611, -10.573316
7140, 133.333333, 4.974885, -12.010434
7141, 133.333333, 1.154701, -2.000000
7142, 133.333333, 2.320284, -4.018850
7143, 133.333333, 3.255666, -5.638979
7144, 133.333333, 4.120191, -7.136380
7145, 133.333333, 4.941693, -8.559264
7146, 133.333333, 5.732618, -9.929186
7147, 133.333333, 6.500000, -11.258330
7148, 133.333333, 1.534654, -2.000000
7149, 133.333333, 2.925697, -3.812843
7150, 133.333333, 4.042011, -5.267651
7151, 133.333333, 5.073762, -6.612255
7152, 133.333333, 6.054167, -7.889945
7153, 133.333333, 6.998082, -9.120078
7154, 133.333333, 7.913899, -10.313593
7155, 133.333333, 2.000000, -2.000000
7156, 133.333333, 3.568356, -3.568356
7157, 133.333333, 4.826963, -4.826963
7158, 133.333333, 5.990227, -5.990227
7159, 133.333333, 7.095603, -7.095603
7160, 133.333333, 8.159835, -8.159835
7161, 133.333333, 9.192388, -9.192388
7162, 133.333333, 2.000000, -1.534654
7163, 133.333333, 3.812843, -2.925697
7164, 133.333333, 5.267651, -4.042011
7165, 133.333333, 6.612255, -5.073762
7166, 133.333333, 7.889945, -6.054167
7167, 133.333333, 9.120078, -6.998082
7168, 133.333333, 10.313593, -7.913899
7169, 133.333333, 2.000000, -1.154701
7170, 133.333333, 4.018850, -2.320284
7171, 133.333333, 5.638979, -3.255666
7172, 133.333333, 7.136380, -4.120191
7173, 133.333333, 8.559264, -4.941693
7174, 133.333333, 9.929186, -5.732618
7175, 133.333333, 11.258330, -6.500000
7176, 133.333333, 2.000000, -0.828427
7177, 133.333333, 4.182852, -1.732594
7178, 133.333333, 5.934593, -2.458189
7179, 133.333333, 7.553636, -3.128818
7180, 133.333333, 9.092108, -3.766074
7181, 133.333333, 10.573316, -4.379611
7182, 133.333333, 12.010434, -4.974885
7183, 133.333333, 2.000000, -0.535898
7184, 133.333333, 4.302043, -1.152729
7185, 133.333333, 6.149435, -1.647736
7186, 133.333333, 7.856882, -2.105245
7187, 133.333333, 9.479360, -2.539987
7188, 133.333333, 11.041447, -2.958547
7189, 133.333333, 12.557036, -3.364648
7190, 133.333333, 2.000000, -0.263305
7191, 133.333333, 4.374383, -0.575898
7192, 133.333333, 6.279828, -0.826755
7193, 133.333333, 8.040931, -1.058609
7194, 133.333333, 9.714393, -1.278924
7195, 133.333333, 11.325568, -1.491039
7196, 133.333333, 12.888783, -1.696840
7197, 133.333333, 2.000000, -0.000000
7198, 133.333333, 4.398635, -0.000000
7199, 133.333333, 6.323541, -0.000000
7200, 133.333333, 8.102632, -0.000000
7201, 133.333333, 9.793187, -0.000000
7202, 133.333333, 11.420818, -0.000000
7203, 133.333333, 13.000000, -0.000000
7204, 140.000000, 2.000000, 0.000000
7205, 140.000000, 4.398635, 0.000000
7206, 140.000000, 6.323541, 0.000000
7207, 140.000000, 8.102632, 0.000000
7208, 140.000000, 9.793187, 0.000000
7209, 140.000000, 11.420818, 0.000000
7210, 140.000000, 13.000000, 0.000000
7211, 140.000000, 2.000000, 0.263305
7212, 140.000000, 4.374383, 0.575898
7213, 140.000000, 6.279828, 0.826755
7214, 140.000000, 8.040931, 1.058609
7215, 140.000000, 9.714393, 1.278924
7216, 140.000000, 11.325568, 1.491039
7217, 140.000000, 12.888783, 1.696840
7218, 140.000000, 2.000000, 0.535898
7219, 140.000000, 4.302043, 1.152729
7220, 140.000000, 6.149435, 1.647736
7221, 140.000000, 7.856882, 2.105245
7222, 140.000000, 9.479360, 2.539987
7223, 140.000000, 11.041447, 2.958547
7224, 140.000000, 12.557036, 3.364648
7225, 140.000000, 2.000000, 0.828427
7226, 140.000000, 4.182852, 1.732594
7227, 140.000000, 5.934593, 2.458189
7228, 140.000000, 7.553636, 3.128818
7229, 140.000000, 9.092108, 3.766074
7230, 140.000000, 10.573316, 4.379611
7231, 140.000000, 12.010434, 4.974885
7232, 140.000000, 2.000000, 1.154701
7233, 140.000000, 4.018850, 2.320284
7234, 140.000000, 5.638979, 3.255666
7235, 140.000000, 7.136380, 4.120191
7236, 140.000000, 8.559264, 4.941693
7237, 140.000000, 9.929186, 5.732618
7238, 140.000000, 11.258330, 6.500000
7239, 140.000000, 2.000000, 1.534654
7240, 140.000000, 3.812843, 2.925697
7241, 140.000000, 5.267651, 4.042011
7242, 140.000000, 6.612255, 5.073762
7243, 140.000000, 7.889945, 6.054167
7244, 140.000000, 9.120078, 6.998082
7245, 140.000000, 10.313593, 7.913899
7246, 140.000000, 2.000000, 2.000000
7247, 140.000000, 3.568356, 3.568356
7248, 140.000000, 4.826963, 4.826963
7249, 140.000000, 5.990227, 5.990227
7250, 140.000000, 7.095603, 7.095603
7251, 140.000000, 8.159835, 8.159835
7252, 140.000000, 9.192388, 9.192388
7253, 140.000000, 1.534654, 2.000000
7254, 140.000000, 2.925697, 3.812843
7255, 140.000000, 4.042011, 5.267651
7256, 140.000000, 5.073762, 6.612255
7257, 140.000000, 6.054167, 7.889945
7258, 140.000000, 6.998082, 9.120078
7259, 140.000000, 7.913899, 10.313593
7260, 140.000000, 1.154701, 2.000000
7261, 140.000000, 2.320284, 4.018850
7262, 140.000000, 3.255666, 5.638979
7263, 140.000000, 4.120191, 7.136380
7264, 140.000000, 4.941693, 8.559264
7265, 140.000000, 5.732618, 9.929186
7266, 140.000000, 6.500000, 11.258330
7267, 140.000000, 0.828427, 2.000000
7268, 140.000000, 1.732594, 4.182852
7269, 140.000000, 2.458189, 5.934593
7270, 140.000000, 3.128818, 7.553636
7271, 140.000000, 3.766074, 9.092108
7272, 140.000000, 4.379611, 10.573316
7273, 140.000000, 4.974885, 12.010434
7274, 140.000000, 0.535898, 2.000000
7275, 140.000000, 1.152729, 4.302043
7276, 140.000000, 1.647736, 6.149435
7277, 140.000000, 2.105245, 7.856882
7278, 140.000000, 2.539987, 9.479360
7279, 140.000000, 2.958547, 11.041447
7280, 140.000000, 3.364648, 12.557036
7281, 140.000000, 0.263305, 2.000000
7282, 140.000000, 0.575898, 4.374383
7283, 140.000000, 0.826755, 6.279828
7284, 140.000000, 1.058609, 8.040931
7285, 140.000000, 1.278924, 9.714393
7286, 140.000000, 1.491039, 11.325568
7287, 140.000000, 1.696840, 12.888783
7288, 140.000000, 0.000000, 2.000000
7289, 140.000000, 0.000000, 4.398635
7290, 140.000000, 0.000000, 6.323541
7291, 140.000000, 0.000000, 8.102632
7292, 140.000000, 0.000000, 9.793187
7293, 140.000000, 0.000000, 11.420818
7294, 140.000000, 0.000000, 13.000000
7295, 140.000000, -0.263305, 2.000000
7296, 140.000000, -0.575898, 4.374383
7297, 140.000000, -0.826755, 6.279828
7298, 140.000000, -1.058609, 8.040931
7299, 140.000000, -1.278924, 9.714393
7300, 140.000000, -1.491039, 11.325568
7301, 140.000000, -1.696840, 12.888783
7302, 140.000000, -0.535898, 2.000000
7303, 140.000000, -1.152729, 4.302043
7304, 140.000000, -1.647736, 6.149435
7305, 140.000000, -2.105245, 7.856882
7306, 140.000000, -2.539987, 9.479360
7307, 140.000000, -2.958547, 11.041447
7308, 140.000000, -3.364648, 12.557036
7309, 140.000000, -0.828427, 2.000000
7310, 140.000000, -1.732594, 4.182852
7311, 140.000000, -2.458189, 5.934593
7312, 140.000000, -3.128818, 7.553636
7313, 140.000000, -3.766074, 9.092108
7314, 140.000000, -4.379611, 10.573316
7315, 140.000000, -4.974885, 12.010434
7316, 140.000000, -1.154701, 2.000000
7317, 140.000000, -2.320284, 4.018850
7318, 140.000000, -3.255666, 5.638979
7319, 140.000000, -4.120191, 7.136380
7320, 140.000000, -4.941693, 8.559264
7321, 140.000000, -5.732618, 9.929186
7322, 140.000000, -6.500000, 11.258330
7323, 140.000000, -1.534654, 2.000000
7324, 140.000000, -2.925697, 3.812843
7325, 140.000000, -4.042011, 5.267651
7326, 140.000000, -5.073762, 6.612255
7327, 140.000000, -6.054167, 7.889945
7328, 140.000000, -6.998082, 9.120078
7329, 140.000000, -7.913899, 10.313593
7330, 140.000000, -2.000000, 2.000000
7331, 140.000000, -3.568356, 3.568356
7332, 140.000000, -4.826963, 4.826963
7333, 140.000000, -5.990227, 5.990227
7334, 140.000000, -7.095603, 7.095603
7335, 140.000000, -8.159835, 8.159835
7336, 140.000000, -9.192388, 9.192388
7337, 140.000000, -2.000000, 1.534654
7338, 140.000000, -3.812843, 2.925697
7339, 140.000000, -5.267651, 4.042011
7340, 140.000000, -6.612255, 5.073762
7341, 140.000000, -7.889945, 6.054167
7342, 140.000000, -9.120078, 6.998082
7343, 140.000000, -10.313593, 7.913899
7344, 140.000000, -2.000000, 1.154701
7345, 140.000000, -4.018850, 2.320284
7346, 140.000000, -5.638979, 3.255666
7347, 140.000000, -7.136380, 4.120191
7348, 140.000000, -8.559264, 4.941693
7349, 140.000000, -9.929186, 5.732618
7350, 140.000000, -11.258330, 6.500000
7351, 140.000000, -2.000000, 0.828427
7352, 140.000000, -4.182852, 1.732594
7353, 140.000000, -5.934593, 2.458189
7354, 140.000000, -7.553636, 3.128818
7355, 140.000000, -9.092108, 3.766074
7356, 140.000000, -10.573316, 4.379611
7357, 140.000000, -12.010434, 4.974885
7358, 140.000000, -2.000000, 0.535898
7359, 140.000000, -4.302043, 1.152729
7360, 140.000000, -6.149435, 1.647736
7361, 140.000000, -7.856882, 2.105245
7362, 140.000000, -9.479360, 2.539987
7363, 140.000000, -11.041447, 2.958547
7364, 140.000000, -12.557036, 3.364648
7365, 140.000000, -2.000000, 0.263305
7366, 140.000000, -4.374383, 0.575898
7367, 140.000000, -6.279828, 0.826755
7368, 140.000000, -8.040931, 1.058609
7369, 140.000000, -9.714393, 1.278924
7370, 140.000000, -11.325568, 1.491039
7371, 140.000000, -12.888783, 1.696840
7372, 140.000000, -2.000000, 0.000000
7373, 140.000000, -4.398635, 0.000000
7374, 140.000000, -6.323541, 0.000000
7375, 140.000000, -8.102632, 0.000000
7376, 140.000000, -9.793187, 0.000000
7377, 140.000000, -11.420818, 0.000000
7378, 140.000000, -13.000000, 0.000000
7379, 140.000000, -2.000000, -0.263305
7380, 140.000000, -4.374383, -0.575898
7381, 140.000000, -6.279828, -0.826755
7382, 140.000000, -8.040931, -1.058609
7383, 140.000000, -9.714393, -1.278924
7384, 140.000000, -11.325568, -1.491039
7385, 140.000000, -12.888783, -1.696840
7386, 140.000000, -2.000000, -0.535898
7387, 140.000000, -4.302043, -1.152729
7388, 140.000000, -6.149435, -1.647736
7389, 140.000000, -7.856882, -2.105245
7390, 140.000000, -9.479360, -2.539987
7391, 140.000000, -11.041447, -2.958547
7392, 140.000000, -12.557036, -3.364648
7393, 140.000000, -2.000000, -0.828427
7394, 140.000000, -4.182852, -1.732594
7395, 140.000000, -5.934593, -2.458189
7396, 140.000000, -7.553636, -3.128818
7397, 140.000000, -9.092108, -3.766074
7398, 140.000000, -10.573316, -4.379611
7399, 140.000000, -12.010434, -4.974885
7400, 140.000000, -2.000000, -1.154701
7401, 140.000000, -4.018850, -2.320284
7402, 140.000000, -5.638979, -3.255666
7403, 140.000000, -7.136380, -4.120191
7404, 140.000000, -8.559264, -4.941693
7405, 140.000000, -9.929186, -5.732618
7406, 140.000000, -11.258330, -6.500000
7407, 140.000000, -2.000000, -1.534654
7408, 140.000000, -3.812843, -2.925697
7409, 140.000000, -5.267651, -4.042011
7410, 140.000000, -6.612255, -5.073762
7411, 140.000000, -7.889945, -6.054167
7412, 140.000000, -9.120078, -6.998082
7413, 140.000000, -10.313593, -7.913899
7414, 140.000000, -2.000000, -2.000000
7415, 140.000000, -3.568356, -3.568356
7416, 140.000000, -4.826963, -4.826963
7417, 140.000000, -5.990227, -5.990227
7418, 140.000000, -7.095603, -7.095603
7419, 140.000000, -8.159835, -8.159835
7420, 140.000000, -9.192388, -9.192388
7421, 140.000000, -1.534654, -2.000000
7422, 140.000000, -2.925697, -3.812843
7423, 140.000000, -4.042011, -5.267651
7424, 140.000000, -5.073762, -6.612255
7425, 140.000000, -6.054167, -7.889945
7426, 140.000000, -6.998082, -9.120078
7427, 140.000000, -7.913899, -10.313593
7428, 140.000000, -1.154701, -2.000000
7429, 140.000000, -2.320284, -4.018850
7430, 140.000000, -3.255666, -5.638979
7431, 140.000000, -4.120191, -7.136380
7432, 140.000000, -4.941693, -8.559264
7433, 140.000000, -5.732618, -9.929186
7434, 140.000000, -6.500000, -11.258330
7435, 140.000000, -0.828427, -2.000000
7436, 140.000000, -1.732594, -4.182852
7437, 140.000000, -2.458189, -5.934593
7438, 140.000000, -3.128818, -7.553636
7439, 140.000000, -3.766074, -9.092108
7440, 140.000000, -4.379611, -10.573316
7441, 140.000000, -4.974885, -12.010434
7442, 140.000000, -0.535898, -2.000000
7443, 140.000000, -1.152729, -4.302043
7444, 140.000000, -1.647736, -6.149435
7445, 140.000000, -2.105245, -7.856882
7446, 140.000000, -2.539987, -9.479360
7447, 140.000000, -2.958547, -11.041447
7448, 140.000000, -3.364648, -12.557036
7449, 140.000000, -0.263305, -2.000000
7450, 140.000000, -0.575898, -4.374383
7451, 140.000000, -0.826755, -6.279828
7452, 140.000000, -1.058609, -8.040931
7453, 140.000000, -1.278924, -9.714393
7454, 140.000000, -1.491039, -11.325568
7455, 140.000000, -1.696840, -12.888783
7456, 140.000000, -0.000000, -2.000000
7457, 140.000000, -0.000000, -4.398635
7458, 140.000000, -0.000000, -6.323541
7459, 140.000000, -0.000000, -8.102632
7460, 140.000000, -0.000000, -9.793187
7461, 140.000000, -0.000000, -11.420818
7462, 140.000000, -0.000000, -13.000000
7463, 140.000000, 0.263305, -2.000000
7464, 140.000000, 0.575898, -4.374383
7465, 140.000000, 0.826755, -6.279828
7466, 140.000000, 1.058609, -8.040931
7467, 140.000000, 1.278924, -9.714393
7468, 140.000000, 1.491039, -11.325568
7469, 140.000000, 1.696840, -12.888783
7470, 140.000000, 0.535898, -2.000000
7471, 140.000000, 1.152729, -4.302043
7472, 140.000000, 1.647736, -6.149435
7473, 140.000000, 2.105245, -7.856882
7474, 140.000000, 2.539987, -9.479360
7475, 140.000000, 2.958547, -11.041447
7476, 140.000000, 3.364648, -12.557036
7477, 140.000000, 0.828427, -2.000000
7478, 140.000000, 1.732594, -4.182852
7479, 140.000000, 2.458189, -5.934593
7480, 140.000000, 3.128818, -7.553636
7481, 140.000000, 3.766074, -9.092108
7482, 140.000000, 4.379611, -10.573316
7483, 140.000000, 4.974885, -12.010434
7484, 140.000000, 1.154701, -2.000000
7485, 140.000000, 2.320284, -4.018850
7486, 140.000000, 3.255666, -5.638979
7487, 140.000000, 4.120191, -7.136380
7488, 140.000000, 4.941693, -8.559264
7489, 140.000000, 5.732618, -9.929186
7490, 140.000000, 6.500000, -11.258330
7491, 140.000000, 1.534654, -2.000000
7492, 140.000000, 2.925697, -3.812843
7493, 140.000000, 4.042011, -5.267651
7494, 140.000000, 5.073762, -6.612255
7495, 140.000000, 6.054167, -7.889945
7496, 140.000000, 6.998082, -9.120078
7497, 140.000000, 7.913899, -10.313593
7498, 140.000000, 2.000000, -2.000000
7499, 140.000000, 3.568356, -3.568356
7500, 140.000000, 4.826963, -4.826963
7501, 140.000000, 5.990227, -5.990227
7502, 140.000000, 7.095603, -7.095603
7503, 140.000000, 8.159835, -8.159835
7504, 140.000000, 9.192388, -9.192388
7505, 140.000000, 2.000000, -1.534654
7506, 140.000000, 3.812843, -2.925697
7507, 140.000000, 5.267651, -4.042011
7508, 140.000000, 6.612255, -5.073762
7509, 140.000000, 7.889945, -6.054167
7510, 140.000000, 9.120078, -6.998082
7511, 140.000000, 10.313593, -7.913899
7512, 140.000000, 2.000000, -1.154701
7513, 140.000000, 4.018850, -2.320284
7514, 140.000000, 5.638979, -3.255666
7515, 140.000000, 7.136380, -4.120191
7516, 140.000000, 8.559264, -4.941693
7517, 140.000000, 9.929186, -5.732618
7518, 140.000000, 11.258330, -6.500000
7519, 140.000000, 2.000000, -0.828427
7520, 140.000000, 4.182852, -1.732594
7521, 140.000000, 5.934593, -2.458189
7522, 140.000000, 7.553636, -3.128818
7523, 140.000000, 9.092108, -3.766074
7524, 140.000000, 10.573316, -4.379611
7525, 140.000000, 12.010434, -4.974885
7526, 140.000000, 2.000000, -0.535898
7527, 140.000000, 4.302043, -1.152729
7528, 140.000000, 6.149435, -1.647736
7529, 140.000000, 7.856882, -2.105245
7530, 140.000000, 9.479360, -2.539987
7531, 140.000000, 11.041447, -2.958547
7532, 140.000000, 12.557036, -3.364648
7533, 140.000000, 2.000000, -0.263305
7534, 140.000000, 4.374383, -0.575898
7535, 140.000000, 6.279828, -0.826755
7536, 140.000000, 8.040931, -1.058609
7537, 140.000000, 9.714393, -1.278924
7538, 140.000000, 11.325568, -1.491039
7539, 140.000000, 12.888783, -1.696840
7540, 140.000000, 2.000000, -0.000000
7541, 140.000000, 4.398635, -0.000000
7542, 140.000000, 6.323541, -0.000000
7543, 140.000000, 8.102632, -0.000000
7544, 140.000000, 9.793187, -0.000000
7545, 140.000000, 11.420818, -0.000000
7546, 140.000000, 13.000000, -0.000000
7547, 146.666667, 2.000000, 0.000000
7548, 146.666667, 4.398635, 0.000000
7549, 146.666667, 6.323541, 0.000000
7550, 146.666667, 8.102632, 0.000000
7551, 146.666667, 9.793187, 0.000000
7552, 146.666667, 11.420818, 0.000000
7553, 146.666667, 13.000000, 0.000000
7554, 146.666667, 2.000000, 0.263305
7555, 146.666667, 4.374383, 0.575898
7556, 146.666667, 6.279828, 0.826755
7557, 146.666667, 8.040931, 1.058609
7558, 146.666667, 9.714393, 1.278924
7559, 146.666667, 11.325568, 1.491039
7560, 146.666667, 12.888783, 1.696840
7561, 146.666667, 2.000000, 0.535898
7562, 146.666667, 4.302043, 1.152729
7563, 146.666667, 6.149435, 1.647736
7564, 146.666667, 7.856882, 2.105245
7565, 146.666667, 9.479360, 2.539987
7566, 146.666667, 11.041447, 2.958547
7567, 146.666667, 12.557036, 3.364648
7568, 146.666667, 2.000000, 0.828427
7569, 146.666667, 4.182852, 1.732594
7570, 146.666667, 5.934593, 2.458189
7571, 146.666667, 7.553636, 3.128818
7572, 146.666667, 9.092108, 3.766074
7573, 146.666667, 10.573316, 4.379611
7574, 146.666667, 12.010434, 4.974885
7575, 146.666667, 2.000000, 1.154701
7576, 146.666667, 4.018850, 2.320284
7577, 146.666667, 5.638979, 3.255666
7578, 146.666667, 7.136380, 4.120191
7579, 146.666667, 8.559264, 4.941693
7580, 146.666667, 9.929186, 5.732618
7581, 146.666667, 11.258330, 6.500000
7582, 146.666667, 2.000000, 1.534654
7583, 146.666667, 3.812843, 2.925697
7584, 146.666667, 5.267651, 4.042011
7585, 146.666667, 6.612255, 5.073762
7586, 146.666667, 7.889945, 6.054167
7587, 146.666667, 9.120078, 6.998082
7588, 146.666667, 10.313593, 7.913899
7589, 146.666667, 2.000000, 2.000000
7590, 146.666667, 3.568356, 3.568356
7591, 146.666667, 4.826963, 4.826963
7592, 146.666667, 5.990227, 5.990227
7593, 146.666667, 7.095603, 7.095603
7594, 146.666667, 8.159835, 8.159835
7595, 146.666667, 9.192388, 9.192388
7596, 146.666667, 1.534654, 2.000000
7597, 146.666667, 2.925697, 3.812843
7598, 146.666667, 4.042011, 5.267651
7599, 146.666667, 5.073762, 6.612255
7600, 146.666667, 6.054167, 7.889945
7601, 146.666667, 6.998082, 9.120078
7602, 146.666667, 7.913899, 10.313593
7603, 146.666667, 1.154701, 2.000000
7604, 146.666667, 2.320284, 4.018850
7605, 146.666667, 3.255666, 5.638979
7606, 146.666667, 4.120191, 7.136380
7607, 146.666667, 4.941693, 8.559264
7608, 146.666667, 5.732618, 9.929186
7609, 146.666667, 6.500000, 11.258330
7610, 146.666667, 0.828427, 2.000000
7611, 146.666667, 1.732594, 4.182852
7612, 146.666667, 2.458189, 5.934593
7613, 146.666667, 3.128818, 7.553636
7614, 146.666667, 3.766074, 9.092108
7615, 146.666667, 4.379611, 10.573316
7616, 146.666667, 4.974885, 12.010434
7617, 146.666667, 0.535898, 2.000000
7618, 146.666667, 1.152729, 4.302043
7619, 146.666667, 1.647736, 6.149435
7620, 146.666667, 2.105245, 7.856882
7621, 146.666667, 2.539987, 9.479360
7622, 146.666667, 2.958547, 11.041447
7623, 146.666667, 3.364648, 12.557036
7624, 146.666667, 0.263305, 2.000000
7625, 146.666667, 0.575898, 4.374383
7626, 146.666667, 0.826755, 6.279828
7627, 146.666667, 1.058609, 8.040931
7628, 146.666667, 1.278924, 9.714393
7629, 146.666667, 1.491039, 11.325568
7630, 146.666667, 1.696840, 12.888783
7631, 146.666667, 0.000000, 2.000000
7632, 146.666667, 0.000000, 4.398635
7633, 146.666667, 0.000000, 6.323541
7634, 146.666667, 0.000000, 8.102632
7635, 146.666667, 0.000000, 9.793187
7636, 146.666667, 0.000000, 11.420818
7637, 146.666667, 0.000000, 13.000000
7638, 146.666667, -0.263305, 2.000000
7639, 146.666667, -0.575898, 4.374383
7640, 146.666667, -0.826755, 6.279828
7641, 146.666667, -1.058609, 8.040931
7642, 146.666667, -1.278924, 9.714393
7643, 146.666667, -1.491039, 11.325568
7644, 146.666667, -1.696840, 12.888783
7645, 146.666667, -0.535898, 2.000000
7646, 146.666667, -1.152729, 4.302043
7647, 146.666667, -1.647736, 6.149435
7648, 146.666667, -2.105245, 7.856882
7649, 146.666667, -2.539987, 9.479360
7650, 146.666667, -2.958547, 11.041447
7651, 146.666667, -3.364648, 12.557036
7652, 146.666667, -0.828427, 2.000000
7653, 146.666667, -1.732594, 4.182852
7654, 146.666667, -2.458189, 5.934593
7655, 146.666667, -3.128818, 7.553636
7656, 146.666667, -3.766074, 9.092108
7657, 146.666667, -4.379611, 10.573316
7658, 146.666667, -4.974885, 12.010434
7659, 146.666667, -1.154701, 2.000000
7660, 146.666667, -2.320284, 4.018850
7661, 146.666667, -3.255666, 5.638979
7662, 146.666667, -4.120191, 7.136380
7663, 146.666667, -4.941693, 8.559264
7664, 146.666667, -5.732618, 9.929186
7665, 146.666667, -6.500000, 11.258330
7666, 146.666667, -1.534654, 2.000000
7667, 146.666667, -2.925697, 3.812843
7668, 146.666667, -4.042011, 5.267651
7669, 146.666667, -5.073762, 6.612255
7670, 146.666667, -6.054167, 7.889945
7671, 146.666667, -6.998082, 9.120078
7672, 146.666667, -7.913899, 10.313593
7673, 146.666667, -2.000000, 2.000000
7674, 146.666667, -3.568356, 3.568356
7675, 146.666667, -4.826963, 4.826963
7676, 146.666667, -5.990227, 5.990227
7677, 146.666667, -7.095603, 7.095603
7678, 146.666667, -8.159835, 8.159835
7679, 146.666667, -9.192388, 9.192388
7680, 146.666667, -2.000000, 1.534654
7681, 146.666667, -3.812843, 2.925697
7682, 146.666667, -5.267651, 4.042011
7683, 146.666667, -6.612255, 5.073762
7684, 146.666667, -7.889945, 6.054167
7685, 146.666667, -9.120078, 6.998082
7686, 146.666667, -10.313593, 7.913899
7687, 146.666667, -2.000000, 1.154701
7688, 146.666667, -4.018850, 2.320284
7689, 146.666667, -5.638979, 3.255666
7690, 146.666667, -7.136380, 4.120191
7691, 146.666667, -8.559264, 4.941693
7692, 146.666667, -9.929186, 5.732618
7693, 146.666667, -11.258330, 6.500000
7694, 146.666667, -2.000000, 0.828427
7695, 146.666667, -4.182852, 1.732594
7696, 146.666667, -5.934593, 2.458189
7697, 146.666667, -7.553636, 3.128818
7698, 146.666667, -9.092108, 3.766074
7699, 146.666667, -10.573316, 4.379611
7700, 146.666667, -12.010434, 4.974885
7701, 146.666667, -2.000000, 0.535898
7702, 146.666667, -4.302043, 1.152729
7703, 146.666667, -6.149435, 1.647736
7704, 146.666667, -7.856882, 2.105245
7705, 146.666667, -9.479360, 2.539987
7706, 146.666667, -11.041447, 2.958547
7707, 146.666667, -12.557036, 3.364648
7708, 146.666667, -2.000000, 0.263305
7709, 146.666667, -4.374383, 0.575898
7710, 146.666667, -6.279828, 0.826755
7711, 146.666667, -8.040931, 1.058609
7712, 146.666667, -9.714393, 1.278924
7713, 146.666667, -11.325568, 1.491039
7714, 146.666667, -12.888783, 1.696840
7715, 146.666667, -2.000000, 0.000000
7716, 146.666667, -4.398635, 0.000000
7717, 146.666667, -6.323541, 0.000000
7718, 146.666667, -8.102632, 0.000000
7719, 146.666667, -9.793187, 0.000000
7720, 146.666667, -11.420818, 0.000000
7721, 146.666667, -13.000000, 0.000000
7722, 146.666667, -2.000000, -0.263305
7723, 146.666667, -4.374383, -0.575898
7724, 146.666667, -6.279828, -0.826755
7725, 146.666667, -8.040931, -1.058609
7726, 146.666667, -9.714393, -1.278924
7727, 146.666667, -11.325568, -1.491039
7728, 146.666667, -12.888783, -1.696840
7729, 146.666667, -2.000000, -0.535898
7730, 146.666667, -4.302043, -1.152729
7731, 146.666667, -6.149435, -1.647736
7732, 146.666667, -7.856882, -2.105245
7733, 146.666667, -9.479360, -2.539987
7734, 146.666667, -11.041447, -2.958547
7735, 146.666667, -12.557036, -3.364648
7736, 146.666667, -2.000000, -0.828427
7737, 146.666667, -4.182852, -1.732594
7738, 146.666667, -5.934593, -2.458189
7739, 146.666667, -7.553636, -3.128818
7740, 146.666667, -9.092108, -3.766074
7741, 146.666667, -10.573316, -4.379611
7742, 146.666667, -12.010434, -4.974885
7743, 146.666667, -2.000000, -1.154701
7744, 146.666667, -4.018850, -2.320284
7745, 146.666667, -5.638979, -3.255666
7746, 146.666667, -7.136380, -4.120191
7747, 146.666667, -8.559264, -4.941693
7748, 146.666667, -9.929186, -5.732618
7749, 146.666667, -11.258330, -6.500000
7750, 146.666667, -2.000000, -1.534654
7751, 146.666667, -3.812843, -2.925697
7752, 146.666667, -5.267651, -4.042011
7753, 146.666667, -6.612255, -5.073762
7754, 146.666667, -7.889945, -6.054167
7755, 146.666667, -9.120078, -6.998082
7756, 146.666667, -10.313593, -7.913899
7757, 146.666667, -2.000000, -2.000000
7758, 146.666667, -3.568356, -3.568356
7759, 146.666667, -4.826963, -4.826963
7760, 146.666667, -5.990227, -5.990227
7761, 146.666667, -7.095603, -7.095603
7762, 146.666667, -8.159835, -8.159835
7763, 146.666667, -9.192388, -9.192388
7764, 146.666667, -1.534654, -2.000000
7765, 146.666667, -2.925697, -3.812843
7766, 146.666667, -4.042011, -5.267651
7767, 146.666667, -5.073762, -6.612255
7768, 146.666667, -6.054167, -7.889945
7769, 146.666667, -6.998082, -9.120078
7770, 146.666667, -7.913899, -10.313593
7771, 146.666667, -1.154701, -2.000000
7772, 146.666667, -2.320284, -4.018850
7773, 146.666667, -3.255666, -5.638979
7774, 146.666667, -4.120191, -7.136380
7775, 146.666667, -4.941693, -8.559264
7776, 146.666667, -5.732618, -9.929186
7777, 146.666667, -6.500000, -11.258330
7778, 146.666667, -0.828427, -2.000000
7779, 146.666667, -1.732594, -4.182852
7780, 146.666667, -2.458189, -5.934593
7781, 146.666667, -3.128818, -7.553636
7782, 146.666667, -3.766074, -9.092108
7783, 146.666667, -4.379611, -10.573316
7784, 146.666667, -4.974885, -12.010434
7785, 146.666667, -0.535898, -2.000000
7786, 146.666667, -1.152729, -4.302043
7787, 146.666667, -1.647736, -6.149435
7788, 146.666667, -2.105245, -7.856882
7789, 146.666667, -2.539987, -9.479360
7790, 146.666667, -2.958547, -11.041447
7791, 146.666667, -3.364648, -12.557036
7792, 146.666667, -0.263305, -2.000000
7793, 146.666667, -0.575898, -4.374383
7794, 146.666667, -0.826755, -6.279828
7795, 146.666667, -1.058609, -8.040931
7796, 146.666667, -1.278924, -9.714393
7797, 146.666667, -1.491039, -11.325568
7798, 146.666667, -1.696840, -12.888783
7799, 146.666667, -0.000000, -2.000000
7800, 146.666667, -0.000000, -4.398635
7801, 146.666667, -0.000000, -6.323541
7802, 146.666667, -0.000000, -8.102632
7803, 146.666667, -0.000000, -9.793187
7804, 146.666667, -0.000000, -11.420818
7805, 146.666667, -0.000000, -13.000000
7806, 146.666667, 0.263305, -2.000000
7807, 146.666667, 0.575898, -4.374383
7808, 146.666667, 0.826755, -6.279828
7809, 146.666667, 1.058609, -8.040931
7810, 146.666667, 1.278924, -9.714393
7811, 146.666667, 1.491039, -11.325568
7812, 146.666667, 1.696840, -12.888783
7813, 146.666667, 0.535898, -2.000000
7814, 146.666667, 1.152729, -4.302043
7815, 146.666667, 1.647736, -6.149435
7816, 146.666667, 2.105245, -7.856882
7817, 146.666667, 2.539987, -9.479360
7818, 146.666667, 2.958547, -11.041447
7819, 146.666667, 3.364648, -12.557036
7820, 146.666667, 0.828427, -2.000000
7821, 146.666667, 1.732594, -4.182852
7822, 146.666667, 2.458189, -5.934593
7823, 146.666667, 3.128818, -7.553636
7824, 146.666667, 3.766074, -9.092108
7825, 146.666667, 4.379611, -10.573316
7826, 146.666667, 4.974885, -12.010434
7827, 146.666667, 1.154701, -2.000000
7828, 146.666667, 2.320284, -4.018850
7829, 146.666667, 3.255666, -5.638979
7830, 146.666667, 4.120191, -7.136380
7831, 146.666667, 4.941693, -8.559264
7832, 146.666667, 5.732618, -9.929186
7833, 146.666667, 6.500000, -11.258330
7834, 146.666667, 1.534654, -2.000000
7835, 146.666667, 2.925697, -3.812843
7836, 146.666667, 4.042011, -5.267651
7837, 146.666667, 5.073762, -6.612255
7838, 146.666667, 6.054167, -7.889945
7839, 146.666667, 6.998082, -9.120078
7840, 146.666667, 7.913899, -10.313593
7841, 146.666667, 2.000000, -2.000000
7842, 146.666667, 3.568356, -3.568356
7843, 146.666667, 4.826963, -4.826963
7844, 146.666667, 5.990227, -5.990227
7845, 146.666667, 7.095603, -7.095603
7846, 146.666667, 8.159835, -8.159835
7847, 146.666667, 9.192388, -9.192388
7848, 146.666667, 2.000000, -1.534654
7849, 146.666667, 3.812843, -2.925697
7850, 146.666667, 5.267651, -4.042011
7851, 146.666667, 6.612255, -5.073762
7852, 146.666667, 7.889945, -6.054167
7853, 146.666667, 9.120078, -6.998082
7854, 146.666667, 10.313593, -7.913899
7855, 146.666667, 2.000000, -1.154701
7856, 146.666667, 4.018850, -2.320284
7857, 146.666667, 5.638979, -3.255666
7858, 146.666667, 7.136380, -4.120191
7859, 146.666667, 8.559264, -4.941693
7860, 146.666667, 9.929186, -5.732618
7861, 146.666667, 11.258330, -6.500000
7862, 146.666667, 2.000000, -0.828427
7863, 146.666667, 4.182852, -1.732594
7864, 146.666667, 5.934593, -2.458189
7865, 146.666667, 7.553636, -3.128818
7866, 146.666667, 9.092108, -3.766074
7867, 146.666667, 10.573316, -4.379611
7868, 146.666667, 12.010434, -4.974885
7869, 146.666667, 2.000000, -0.535898
7870, 146.666667, 4.302043, -1.152729
7871, 146.666667, 6.149435, -1.647736
7872, 146.666667, 7.856882, -2.105245
7873, 146.666667, 9.479360, -2.539987
7874, 146.666667, 11.041447, -2.958547
7875, 146.666667, 12.557036, -3.364648
7876, 146.666667, 2.000000, -0.263305
7877, 146.666667, 4.374383, -0.575898
7878, 146.666667, 6.279828, -0.826755
7879, 146.666667, 8.040931, -1.058609
7880, 146.666667, 9.714393, -1.278924
7881, 146.666667, 11.325568, -1.491039
7882, 146.666667, 12.888783, -1.696840
7883, 146.666667, 2.000000, -0.000000
7884, 146.666667, 4.398635, -0.000000
7885, 146.666667, 6.323541, -0.000000
7886, 146.666667, 8.102632, -0.000000
7887, 146.666667, 9.793187, -0.000000
7888, 146.666667, 11.420818, -0.000000
7889, 146.666667, 13.000000, -0.000000
7890, 153.333333, 2.000000, 0.000000
7891, 153.333333, 4.398635, 0.000000
7892, 153.333333, 6.323541, 0.000000
7893, 153.333333, 8.102632, 0.000000
7894, 153.333333, 9.793187, 0.000000
7895, 153.333333, 11.420818, 0.000000
7896, 153.333333, 13.000000, 0.000000
7897, 153.333333, 2.000000, 0.263305
7898, 153.333333, 4.374383, 0.575898
7899, 153.333333, 6.279828, 0.826755
7900, 153.333333, 8.040931, 1.058609
7901, 153.333333, 9.714393, 1.278924
7902, 153.333333, 11.325568, 1.491039
7903, 153.333333, 12.888783, 1.696840
7904, 153.333333, 2.000000, 0.535898
7905, 153.333333, 4.302043, 1.152729
7906, 153.333333, 6.149435, 1.647736
7907, 153.333333, 7.856882, 2.105245
7908, 153.333333, 9.479360, 2.539987
7909, 153.333333, 11.041447, 2.958547
7910, 153.333333, 12.557036, 3.364648
7911, 153.333333, 2.000000, 0.828427
7912, 153.333333, 4.182852, 1.732594
7913, 153.333333, 5.934593, 2.458189
7914, 153.333333, 7.553636, 3.128818
7915, 153.333333, 9.092108, 3.766074
7916, 153.333333, 10.573316, 4.379611
7917, 153.333333, 12.010434, 4.974885
7918, 153.333333, 2.000000, 1.154701
7919, 153.333333, 4.018850, 2.320284
7920, 153.333333, 5.638979, 3.255666
7921, 153.333333, 7.136380, 4.120191
7922, 153.333333, 8.559264, 4.941693
7923, 153.333333, 9.929186, 5.732618
7924, 153.333333, 11.258330, 6.500000
7925, 153.333333, 2.000000, 1.534654
7926, 153.333333, 3.812843, 2.925697
7927, 153.333333, 5.267651, 4.042011
7928, 153.333333, 6.612255, 5.073762
7929, 153.333333, 7.889945, 6.054167
7930, 153.333333, 9.120078, 6.998082
7931, 153.333333, 10.313593, 7.913899
7932, 153.333333, 2.000000, 2.000000
7933, 153.333333, 3.568356, 3.568356
7934, 153.333333, 4.826963, 4.826963
7935, 153.333333, 5.990227, 5.990227
7936, 153.333333, 7.095603, 7.095603
7937, 153.333333, 8.159835, 8.159835
7938, 153.333333, 9.192388, 9.192388
7939, 153.333333, 1.534654, 2.000000
7940, 153.333333, 2.925697, 3.812843
7941, 153.333333, 4.042011, 5.267651
7942, 153.333333, 5.073762, 6.612255
7943, 153.333333, 6.054167, 7.889945
7944, 153.333333, 6.998082, 9.120078
7945, 153.333333, 7.913899, 10.313593
7946, 153.333333, 1.154701, 2.000000
7947, 153.333333, 2.320284, 4.018850
7948, 153.333333, 3.255666, 5.638979
7949, 153.333333, 4.120191, 7.136380
7950, 153.333333, 4.941693, 8.559264
7951, 153.333333, 5.732618, 9.929186
7952, 153.333333, 6.500000, 11.258330
7953, 153.333333, 0.828427, 2.000000
7954, 153.333333, 1.732594, 4.182852
7955, 153.333333, 2.458189, 5.934593
7956, 153.333333, 3.128818, 7.553636
7957, 153.333333, 3.766074, 9.092108
7958, 153.333333, 4.379611, 10.573316
7959, 153.333333, 4.974885, 12.010434
7960, 153.333333, 0.535898, 2.000000
7961, 153.333333, 1.152729, 4.302043
7962, 153.333333, 1.647736, 6.149435
7963, 153.333333, 2.105245, 7.856882
7964, 153.333333, 2.539987, 9.479360
7965, 153.333333, 2.958547, 11.041447
7966, 153.333333, 3.364648, 12.557036
7967, 153.333333, 0.263305, 2.000000
7968, 153.333333, 0.575898, 4.374383
7969, 153.333333, 0.826755, 6.279828
7970, 153.333333, 1.058609, 8.040931
7971, 153.333333, 1.278924, 9.714393
7972, 153.333333, 1.491039, 11.325568
7973, 153.333333, 1.696840, 12.888783
7974, 153.333333, 0.000000, 2.000000
7975, 153.333333, 0.000000, 4.398635
7976, 153.333333, 0.000000, 6.323541
7977, 153.333333, 0.000000, 8.102632
7978, 153.333333, 0.000000, 9.793187
7979, 153.333333, 0.000000, 11.420818
7980, 153.333333, 0.000000, 13.000000
7981, 153.333333, -0.263305, 2.000000
7982, 153.333333, -0.575898, 4.374383
7983, 153.333333, -0.826755, 6.279828
7984, 153.333333, -1.058609, 8.040931
7985, 153.333333, -1.278924, 9.714393
7986, 153.333333, -1.491039, 11.325568
7987, 153.333333, -1.696840, 12.888783
7988, 153.333333, -0.535898, 2.000000
7989, 153.333333, -1.152729, 4.302043
7990, 153.333333, -1.647736, 6.149435
7991, 153.333333, -2.105245, 7.856882
7992, 153.333333, -2.539987, 9.479360
7993, 153.333333, -2.958547, 11.041447
7994, 153.333333, -3.364648, 12.557036
7995, 153.333333, -0.828427, 2.000000
7996, 153.333333, -1.732594, 4.182852
7997, 153.333333, -2.458189, 5.934593
7998, 153.333333, -3.128818, 7.553636
7999, 153.333333, -3.766074, 9.092108
8000, 153.333333, -4.379611, 10.573316
8001, 153.333333, -4.974885, 12.010434
8002, 153.333333, -1.154701, 2.000000
8003, 153.333333, -2.320284, 4.018850
8004, 153.333333, -3.255666, 5.638979
8005, 153.333333, -4.120191, 7.136380
8006, 153.333333, -4.941693, 8.559264
8007, 153.333333, -5.732618, 9.929186
8008, 153.333333, -6.500000, 11.258330
8009, 153.333333, -1.534654, 2.000000
8010, 153.333333, -2.925697, 3.812843
8011, 153.333333, -4.042011, 5.267651
8012, 153.333333, -5.073762, 6.612255
8013, 153.333333, -6.054167, 7.889945
8014, 153.333333, -6.998082, 9.120078
8015, 153.333333, -7.913899, 10.313593
8016, 153.333333, -2.000000, 2.000000
8017, 153.333333, -3.568356, 3.568356
8018, 153.333333, -4.826963, 4.826963
8019, 153.333333, -5.990227, 5.990227
8020, 153.333333, -7.095603, 7.095603
8021, 153.333333, -8.159835, 8.159835
8022, 153.333333, -9.192388, 9.192388
8023, 153.333333, -2.000000, 1.534654
8024, 153.333333, -3.812843, 2.925697
8025, 153.333333, -5.267651, 4.042011
8026, 153.333333, -6.612255, 5.073762
8027, 153.333333, -7.889945, 6.054167
8028, 153.333333, -9.120078, 6.998082
8029, 153.333333, -10.313593, 7.913899
8030, 153.333333, -2.000000, 1.154701
8031, 153.333333, -4.018850, 2.320284
8032, 153.333333, -5.638979, 3.255666
8033, 153.333333, -7.136380, 4.120191
8034, 153.333333, -8.559264, 4.941693
8035, 153.333333, -9.929186, 5.732618
8036, 153.333333, -11.258330, 6.500000
8037, 153.333333, -2.000000, 0.828427
8038, 153.333333, -4.182852, 1.732594
8039, 153.333333, -5.934593, 2.458189
8040, 153.333333, -7.553636, 3.128818
8041, 153.333333, -9.092108, 3.766074
8042, 153.333333, -10.573316, 4.379611
8043, 153.333333, -12.010434, 4.974885
8044, 153.333333, -2.000000, 0.535898
8045, 153.333333, -4.302043, 1.152729
8046, 153.333333, -6.149435, 1.647736
8047, 153.333333, -7.856882, 2.105245
8048, 153.333333, -9.479360, 2.539987
8049, 153.333333, -11.041447, 2.958547
8050, 153.333333, -12.557036, 3.364648
8051, 153.333333, -2.000000, 0.263305
8052, 153.333333, -4.374383, 0.575898
8053, 153.333333, -6.279828, 0.826755
8054, 153.333333, -8.040931, 1.058609
8055, 153.333333, -9.714393, 1.278924
8056, 153.333333, -11.325568, 1.491039
8057, 153.333333, -12.888783, 1.696840
8058, 153.333333, -2.000000, 0.000000
8059, 153.333333, -4.398635, 0.000000
8060, 153.333333, -6.323541, 0.000000
8061, 153.333333, -8.102632, 0.000000
8062, 153.333333, -9.793187, 0.000000
8063, 153.333333, -11.420818, 0.000000
8064, 153.333333, -13.000000, 0.000000
8065, 153.333333, -2.000000, -0.263305
8066, 153.333333, -4.374383, -0.575898
8067, 153.333333, -6.279828, -0.826755
8068, 153.333333, -8.040931, -1.058609
8069, 153.333333, -9.714393, -1.278924
8070, 153.333333, -11.325568, -1.491039
8071, 153.333333, -12.888783, -1.696840
8072, 153.333333, -2.000000, -0.535898
8073, 153.333333, -4.302043, -1.152729
8074, 153.333333, -6.149435, -1.647736
8075, 153.333333, -7.856882, -2.105245
8076, 153.333333, -9.479360, -2.539987
8077, 153.333333, -11.041447, -2.958547
8078, 153.333333, -12.557036, -3.364648
8079, 153.333333, -2.000000, -0.828427
8080, 153.333333, -4.182852, -1.732594
8081, 153.333333, -5.934593, -2.458189
8082, 153.333333, -7.553636, -3.128818
8083, 153.333333, -9.092108, -3.766074
8084, 153.333333, -10.573316, -4.379611
8085, 153.333333, -12.010434, -4.974885
8086, 153.333333, -2.000000, -1.154701
8087, 153.333333, -4.018850, -2.320284
8088, 153.333333, -5.638979, -3.255666
8089, 153.333333, -7.136380, -4.120191
8090, 153.333333, -8.559264, -4.941693
8091, 153.333333, -9.929186, -5.732618
8092, 153.333333, -11.258330, -6.500000
8093, 153.333333, -2.000000, -1.534654
8094, 153.333333, -3.812843, -2.925697
8095, 153.333333, -5.267651, -4.042011
8096, 153.333333, -6.612255, -5.073762
8097, 153.333333, -7.889945, -6.054167
8098, 153.333333, -9.120078, -6.998082
8099, 153.333333, -10.313593, -7.913899
8100, 153.333333, -2.000000, -2.000000
8101, 153.333333, -3.568356, -3.568356
8102, 153.333333, -4.826963, -4.826963
8103, 153.333333, -5.990227, -5.990227
8104, 153.333333, -7.095603, -7.095603
8105, 153.333333, -8.159835, -8.159835
8106, 153.333333, -9.192388, -9.192388
8107, 153.333333, -1.534654, -2.000000
8108, 153.333333, -2.925697, -3.812843
8109, 153.333333, -4.042011, -5.267651
8110, 153.333333, -5.073762, -6.612255
8111, 153.333333, -6.054167, -7.889945
8112, 153.333333, -6.998082, -9.120078
8113, 153.333333, -7.913899, -10.313593
8114, 153.333333, -1.154701, -2.000000
8115, 153.333333, -2.320284, -4.018850
8116, 153.333333, -3.255666, -5.638979
8117, 153.333333, -4.120191, -7.136380
8118, 153.333333, -4.941693, -8.559264
8119, 153.333333, -5.732618, -9.929186
8120, 153.333333, -6.500000, -11.258330
8121, 153.333333, -0.828427, -2.000000
8122, 153.333333, -1.732594, -4.182852
8123, 153.333333, -2.458189, -5.934593
8124, 153.333333, -3.128818, -7.553636
8125, 153.333333, -3.766074, -9.092108
8126, 153.333333, -4.379611, -10.573316
8127, 153.333333, -4.974885, -12.010434
8128, 153.333333, -0.535898, -2.000000
8129, 153.333333, -1.152729, -4.302043
8130, 153.333333, -1.647736, -6.149435
8131, 153.333333, -2.105245, -7.856882
8132, 153.333333, -2.539987, -9.479360
8133, 153.333333, -2.958547, -11.041447
8134, 153.333333, -3.364648, -12.557036
8135, 153.333333, -0.263305, -2.000000
8136, 153.333333, -0.575898, -4.374383
8137, 153.333333, -0.826755, -6.279828
8138, 153.333333, -1.058609, -8.040931
8139, 153.333333, -1.278924, -9.714393
8140, 153.333333, -1.491039, -11.325568
8141, 153.333333, -1.696840, -12.888783
8142, 153.333333, -0.000000, -2.000000
8143, 153.333333, -0.000000, -4.398635
8144, 153.333333, -0.000000, -6.323541
8145, 153.333333, -0.000000, -8.102632
8146, 153.333333, -0.000000, -9.793187
8147, 153.333333, -0.000000, -11.420818
8148, 153.333333, -0.000000, -13.000000
8149, 153.333333, 0.263305, -2.000000
8150, 153.333333, 0.575898, -4.374383
8151, 153.333333, 0.826755, -6.279828
8152, 153.333333, 1.058609, -8.040931
8153, 153.333333, 1.278924, -9.714393
8154, 153.333333, 1.491039, -11.325568
8155, 153.333333, 1.696840, -12.888783
8156, 153.333333, 0.535898, -2.000000
8157, 153.333333, 1.152729, -4.302043
8158, 153.333333, 1.647736, -6.149435
8159, 153.333333, 2.105245, -7.856882
8160, 153.333333, 2.539987, -9.479360
8161, 153.333333, 2.958547, -11.041447
8162, 153.333333, 3.364648, -12.557036
8163, 153.333333, 0.828427, -2.000000
8164, 153.333333, 1.732594, -4.182852
8165, 153.333333, 2.458189, -5.934593
8166, 153.333333, 3.128818, -7.553636
8167, 153.333333, 3.766074, -9.092108
8168, 153.333333, 4.379611, -10.573316
8169, 153.333333, 4.974885, -12.010434
8170, 153.333333, 1.154701, -2.000000
8171, 153.333333, 2.320284, -4.018850
8172, 153.333333, 3.255666, -5.638979
8173, 153.333333, 4.120191, -7.136380
8174, 153.333333, 4.941693, -8.559264
8175, 153.333333, 5.732618, -9.929186
8176, 153.333333, 6.500000, -11.258330
8177, 153.333333, 1.534654, -2.000000
8178, 153.333333, 2.925697, -3.812843
8179, 153.333333, 4.042011, -5.267651
8180, 153.333333, 5.073762, -6.612255
8181, 153.333333, 6.054167, -7.889945
8182, 153.333333, 6.998082, -9.120078
8183, 153.333333, 7.913899, -10.313593
8184, 153.333333, 2.000000, -2.000000
8185, 153.333333, 3.568356, -3.568356
8186, 153.333333, 4.826963, -4.826963
8187, 153.333333, 5.990227, -5.990227
8188, 153.333333, 7.095603, -7.095603
8189, 153.333333, 8.159835, -8.159835
8190, 153.333333, 9.192388, -9.192388
8191, 153.333333, 2.000000, -1.534654
8192, 153.333333, 3.812843, -2.925697
8193, 153.333333, 5.267651, -4.042011
8194, 153.333333, 6.612255, -5.073762
8195, 153.333333, 7.889945, -6.054167
8196, 153.333333, 9.120078, -6.998082
8197, 153.333333, 10.313593, -7.913899
8198, 153.333333, 2.000000, -1.154701
8199, 153.333333, 4.018850, -2.320284
8200, 153.333333, 5.638979, -3.255666
8201, 153.333333, 7.136380, -4.120191
8202, 153.333333, 8.559264, -4.941693
8203, 153.333333, 9.929186, -5.732618
8204, 153.333333, 11.258330, -6.500000
8205, 153.333333, 2.000000, -0.828427
8206, 153.333333, 4.182852, -1.732594
8207, 153.333333, 5.934593, -2.458189
8208, 153.333333, 7.553636, -3.128818
8209, 153.333333, 9.092108, -3.766074
8210, 153.333333, 10.573316, -4.379611
8211, 153.333333, 12.010434, -4.974885
8212, 153.333333, 2.000000, -0.535898
8213, 153.333333, 4.302043, -1.152729
8214, 153.333333, 6.149435, -1.647736
8215, 153.333333, 7.856882, -2.105245
8216, 153.333333, 9.479360, -2.539987
8217, 153.333333, 11.041447, -2.958547
8218, 153.333333, 12.557036, -3.364648
8219, 153.333333, 2.000000, -0.263305
8220, 153.333333, 4.374383, -0.575898
8221, 153.333333, 6.279828, -0.826755
8222, 153.333333, 8.040931, -1.058609
8223, 153.333333, 9.714393, -1.278924
8224, 153.333333, 11.325568, -1.491039
8225, 153.333333, 12.888783, -1.696840
8226, 153.333333, 2.000000, -0.000000
8227, 153.333333, 4.398635, -0.000000
8228, 153.333333, 6.323541, -0.000000
8229, 153.333333, 8.102632, -0.000000
8230, 153.333333, 9.793187, -0.000000
8231, 153.333333, 11.420818, -0.000000
8232, 153.333333, 13.000000, -0.000000
8233, 160.000000, 2.000000, 0.000000
8234, 160.000000, 4.398635, 0.000000
8235, 160.000000, 6.323541, 0.000000
8236, 160.000000, 8.102632, 0.000000
8237, 160.000000, 9.793187, 0.000000
8238, 160.000000, 11.420818, 0.000000
8239, 160.000000, 13.000000, 0.000000
8240, 160.000000, 2.000000, 0.263305
8241, 160.000000, 4.374383, 0.575898
8242, 160.000000, 6.279828, 0.826755
8243, 160.000000, 8.040931, 1.058609
8244, 160.000000, 9.714393, 1.278924
8245, 160.000000, 11.325568, 1.491039
8246, 160.000000, 12.888783, 1.696840
8247, 160.000000, 2.000000, 0.535898
8248, 160.000000, 4.302043, 1.152729
8249, 160.000000, 6.149435, 1.647736
8250, 160.000000, 7.856882, 2.105245
8251, 160.000000, 9.479360, 2.539987
8252, 160.000000, 11.041447, 2.958547
8253, 160.000000, 12.557036, 3.364648
8254, 160.000000, 2.000000, 0.828427
8255, 160.000000, 4.182852, 1.732594
8256, 160.000000, 5.934593, 2.458189
8257, 160.000000, 7.553636, 3.128818
8258, 160.000000, 9.092108, 3.766074
8259, 160.000000, 10.573316, 4.379611
8260, 160.000000, 12.010434, 4.974885
8261, 160.000000, 2.000000, 1.154701
8262, 160.000000, 4.018850, 2.320284
8263, 160.000000, 5.638979, 3.255666
8264, 160.000000, 7.136380, 4.120191
8265, 160.000000, 8.559264, 4.941693
8266, 160.000000, 9.929186, 5.732618
8267, 160.000000, 11.258330, 6.500000
8268, 160.000000, 2.000000, 1.534654
8269, 160.000000, 3.812843, 2.925697
8270, 160.000000, 5.267651, 4.042011
8271, 160.000000, 6.612255, 5.073762
8272, 160.000000, 7.889945, 6.054167
8273, 160.000000, 9.120078, 6.998082
8274, 160.000000, 10.313593, 7.913899
8275, 160.000000, 2.000000, 2.000000
8276, 160.000000, 3.568356, 3.568356
8277, 160.000000, 4.826963, 4.826963
8278, 160.000000, 5.990227, 5.990227
8279, 160.000000, 7.095603, 7.095603
8280, 160.000000, 8.159835, 8.159835
8281, 160.000000, 9.192388, 9.192388
8282, 160.000000, 1.534654, 2.000000
8283, 160.000000, 2.925697, 3.812843
8284, 160.000000, 4.042011, 5.267651
8285, 160.000000, 5.073762, 6.612255
8286, 160.000000, 6.054167, 7.889945
8287, 160.000000, 6.998082, 9.120078
8288, 160.000000, 7.913899, 10.313593
8289, 160.000000, 1.154701, 2.000000
8290, 160.000000, 2.320284, 4.018850
8291, 160.000000, 3.255666, 5.638979
8292, 160.000000, 4.120191, 7.136380
8293, 160.000000, 4.941693, 8.559264
8294, 160.000000, 5.732618, 9.929186
8295, 160.000000, 6.500000, 11.258330
8296, 160.000000, 0.828427, 2.000000
8297, 160.000000, 1.732594, 4.182852
8298, 160.000000, 2.458189, 5.934593
8299, 160.000000, 3.128818, 7.553636
8300, 160.000000, 3.766074, 9.092108
8301, 160.000000, 4.379611, 10.573316
8302, 160.000000, 4.974885, 12.010434
8303, 160.000000, 0.535898, 2.000000
8304, 160.000000, 1.152729, 4.302043
8305, 160.000000, 1.647736, 6.149435
8306, 160.000000, 2.105245, 7.856882
8307, 160.000000, 2.539987, 9.479360
8308, 160.000000, 2.958547, 11.041447
8309, 160.000000, 3.364648, 12.557036
8310, 160.000000, 0.263305, 2.000000
8311, 160.000000, 0.575898, 4.374383
8312, 160.000000, 0.826755, 6.279828
8313, 160.000000, 1.058609, 8.040931
8314, 160.000000, 1.278924, 9.714393
8315, 160.000000, 1.491039, 11.325568
8316, 160.000000, 1.696840, 12.888783
8317, 160.000000, 0.000000, 2.000000
8318, 160.000000, 0.000000, 4.398635
8319, 160.000000, 0.000000, 6.323541
8320, 160.000000, 0.000000, 8.102632
8321, 160.000000, 0.000000, 9.793187
8322, 160.000000, 0.000000, 11.420818
8323, 160.000000, 0.000000, 13.000000
8324, 160.000000, -0.263305, 2.000000
8325, 160.000000, -0.575898, 4.374383
8326, 160.000000, -0.826755, 6.279828
8327, 160.000000, -1.058609, 8.040931
8328, 160.000000, -1.278924, 9.714393
8329, 160.000000, -1.491039, 11.325568
8330, 160.000000, -1.696840, 12.888783
8331, 160.000000, -0.535898, 2.000000
8332, 160.000000, -1.152729, 4.302043
8333, 160.000000, -1.647736, 6.149435
8334, 160.000000, -2.105245, 7.856882
8335, 160.000000, -2.539987, 9.479360
8336, 160.000000, -2.958547, 11.041447
8337, 160.000000, -3.364648, 12.557036
8338, 160.000000, -0.828427, 2.000000
8339, 160.000000, -1.732594, 4.182852
8340, 160.000000, -2.458189, 5.934593
8341, 160.000000, -3.128818, 7.553636
8342, 160.000000, -3.766074, 9.092108
8343, 160.000000, -4.379611, 10.573316
8344, 160.000000, -4.974885, 12.010434
8345, 160.000000, -1.154701, 2.000000
8346, 160.000000, -2.320284, 4.018850
8347, 160.000000, -3.255666, 5.638979
8348, 160.000000, -4.120191, 7.136380
8349, 160.000000, -4.941693, 8.559264
8350, 160.000000, -5.732618, 9.929186
8351, 160.000000, -6.500000, 11.258330
8352, 160.000000, -1.534654, 2.000000
8353, 160.000000, -2.925697, 3.812843
8354, 160.000000, -4.042011, 5.267651
8355, 160.000000, -5.073762, 6.612255
8356, 160.000000, -6.054167, 7.889945
8357, 160.000000, -6.998082, 9.120078
8358, 160.000000, -7.913899, 10.313593
8359, 160.000000, -2.000000, 2.000000
8360, 160.000000, -3.568356, 3.568356
8361, 160.000000, -4.826963, 4.826963
8362, 160.000000, -5.990227, 5.990227
8363, 160.000000, -7.095603, 7.095603
8364, 160.000000, -8.159835, 8.159835
8365, 160.000000, -9.192388, 9.192388
8366, 160.000000, -2.000000, 1.534654
8367, 160.000000, -3.812843, 2.925697
8368, 160.000000, -5.267651, 4.042011
8369, 160.000000, -6.612255, 5.073762
8370, 160.000000, -7.889945, 6.054167
8371, 160.000000, -9.120078, 6.998082
8372, 160.000000, -10.313593, 7.913899
8373, 160.000000, -2.000000, 1.154701
8374, 160.000000, -4.018850, 2.320284
8375, 160.000000, -5.638979, 3.255666
8376, 160.000000, -7.136380, 4.120191
8377, 160.000000, -8.559264, 4.941693
8378, 160.000000, -9.929186, 5.732618
8379, 160.000000, -11.258330, 6.500000
8380, 160.000000, -2.000000, 0.828427
8381, 160.000000, -4.182852, 1.732594
8382, 160.000000, -5.934593, 2.458189
8383, 160.000000, -7.553636, 3.128818
8384, 160.000000, -9.092108, 3.766074
8385, 160.000000, -10.573316, 4.379611
8386, 160.000000, -12.010434, 4.974885
8387, 160.000000, -2.000000, 0.535898
8388, 160.000000, -4.302043, 1.152729
8389, 160.000000, -6.149435, 1.647736
8390, 160.000000, -7.856882, 2.105245
8391, 160.000000, -9.479360, 2.539987
8392, 160.000000, -11.041447, 2.958547
8393, 160.000000, -12.557036, 3.364648
8394, 160.000000, -2.000000, 0.263305
8395, 160.000000, -4.374383, 0.575898
8396, 160.000000, -6.279828, 0.826755
8397, 160.000000, -8.040931, 1.058609
8398, 160.000000, -9.714393, 1.278924
8399, 160.000000, -11.325568, 1.491039
8400, 160.000000, -12.888783, 1.696840
8401, 160.000000, -2.000000, 0.000000
8402, 160.000000, -4.398635, 0.000000
8403, 160.000000, -6.323541, 0.000000
8404, 160.000000, -8.102632, 0.000000
8405, 160.000000, -9.793187, 0.000000
8406, 160.000000, -11.420818, 0.000000
8407, 160.000000, -13.000000, 0.000000
8408, 160.000000, -2.000000, -0.263305
8409, 160.000000, -4.374383, -0.575898
8410, 160.000000, -6.279828, -0.826755
8411, 160.000000, -8.040931, -1.058609
8412, 160.000000, -9.714393, -1.278924
8413, 160.000000, -11.325568, -1.491039
8414, 160.000000, -12.888783, -1.696840
8415, 160.000000, -2.000000, -0.535898
8416, 160.000000, -4.302043, -1.152729
8417, 160.000000, -6.149435, -1.647736
8418, 160.000000, -7.856882, -2.105245
8419, 160.000000, -9.479360, -2.539987
8420, 160.000000, -11.041447, -2.958547
8421, 160.000000, -12.557036, -3.364648
8422, 160.000000, -2.000000, -0.828427
8423, 160.000000, -4.182852, -1.732594
8424, 160.000000, -5.934593, -2.458189
8425, 160.000000, -7.553636, -3.128818
8426, 160.000000, -9.092108, -3.766074
8427, 160.000000, -10.573316, -4.379611
8428, 160.000000, -12.010434, -4.974885
8429, 160.000000, -2.000000, -1.154701
8430, 160.000000, -4.018850, -2.320284
8431, 160.000000, -5.638979, -3.255666
8432, 160.000000, -7.136380, -4.120191
8433, 160.000000, -8.559264, -4.941693
8434, 160.000000, -9.929186, -5.732618
8435, 160.000000, -11.258330, -6.500000
8436, 160.000000, -2.000000, -1.534654
8437, 160.000000, -3.812843, -2.925697
8438, 160.000000, -5.267651, -4.042011
8439, 160.000000, -6.612255, -5.073762
8440, 160.000000, -7.889945, -6.054167
8441, 160.000000, -9.120078, -6.998082
8442, 160.000000, -10.313593, -7.913899
8443, 160.000000, -2.000000, -2.000000
8444, 160.000000, -3.568356, -3.568356
8445, 160.000000, -4.826963, -4.826963
8446, 160.000000, -5.990227, -5.990227
8447, 160.000000, -7.095603, -7.095603
8448, 160.000000, -8.159835, -8.159835
8449, 160.000000, -9.192388, -9.192388
8450, 160.000000, -1.534654, -2.000000
8451, 160.000000, -2.925697, -3.812843
8452, 160.000000, -4.042011, -5.267651
8453, 160.000000, -5.073762, -6.612255
8454, 160.000000, -6.054167, -7.889945
8455, 160.000000, -6.998082, -9.120078
8456, 160.000000, -7.913899, -10.313593
8457, 160.000000, -1.154701, -2.000000
8458, 160.000000, -2.320284, -4.018850
8459, 160.000000, -3.255666, -5.638979
8460, 160.000000, -4.120191, -7.136380
8461, 160.000000, -4.941693, -8.559264
8462, 160.000000, -5.732618, -9.929186
8463, 160.000000, -6.500000, -11.258330
8464, 160.000000, -0.828427, -2.000000
8465, 160.000000, -1.732594, -4.182852
8466, 160.000000, -2.458189, -5.934593
8467, 160.000000, -3.128818, -7.553636
8468, 160.000000, -3.766074, -9.092108
8469, 160.000000, -4.379611, -10.573316
8470, 160.000000, -4.974885, -12.010434
8471, 160.000000, -0.535898, -2.000000
8472, 160.000000, -1.152729, -4.302043
8473, 160.000000, -1.647736, -6.149435
8474, 160.000000, -2.105245, -7.856882
8475, 160.000000, -2.539987, -9.479360
8476, 160.000000, -2.958547, -11.041447
8477, 160.000000, -3.364648, -12.557036
8478, 160.000000, -0.263305, -2.000000
8479, 160.000000, -0.575898, -4.374383
8480, 160.000000, -0.826755, -6.279828
8481, 160.000000, -1.058609, -8.040931
8482, 160.000000, -1.278924, -9.714393
8483, 160.000000, -1.491039, -11.325568
8484, 160.000000, -1.696840, -12.888783
8485, 160.000000, -0.000000, -2.000000
8486, 160.000000, -0.000000, -4.398635
8487, 160.000000, -0.000000, -6.323541
8488, 160.000000, -0.000000, -8.102632
8489, 160.000000, -0.000000, -9.793187
8490, 160.000000, -0.000000, -11.420818
8491, 160.000000, -0.000000, -13.000000
8492, 160.000000, 0.263305, -2.000000
8493, 160.000000, 0.575898, -4.374383
8494, 160.000000, 0.826755, -6.279828
8495, 160.000000, 1.058609, -8.040931
8496, 160.000000, 1.278924, -9.714393
8497, 160.000000, 1.491039, -11.325568
8498, 160.000000, 1.696840, -12.888783
8499, 160.000000, 0.535898, -2.000000
8500, 160.000000, 1.152729, -4.302043
8501, 160.000000, 1.647736, -6.149435
8502, 160.000000, 2.105245, -7.856882
8503, 160.000000, 2.539987, -9.479360
8504, 160.000000, 2.958547, -11.041447
8505, 160.000000, 3.364648, -12.557036
8506, 160.000000, 0.828427, -2.000000
8507, 160.000000, 1.732594, -4.182852
8508, 160.000000, 2.458189, -5.934593
8509, 160.000000, 3.128818, -7.553636
8510, 160.000000, 3.766074, -9.092108
8511, 160.000000, 4.379611, -10.573316
8512, 160.000000, 4.974885, -12.010434
8513, 160.000000, 1.154701, -2.000000
8514, 160.000000, 2.320284, -4.018850
8515, 160.000000, 3.255666, -5.638979
8516, 160.000000, 4.120191, -7.136380
8517, 160.000000, 4.941693, -8.559264
8518, 160.000000, 5.732618, -9.929186
8519, 160.000000, 6.500000, -11.258330
8520, 160.000000, 1.534654, -2.000000
8521, 160.000000, 2.925697, -3.812843
8522, 160.000000, 4.042011, -5.267651
8523, 160.000000, 5.073762, -6.612255
8524, 160.000000, 6.054167, -7.889945
8525, 160.000000, 6.998082, -9.120078
8526, 160.000000, 7.913899, -10.313593
8527, 160.000000, 2.000000, -2.000000
8528, 160.000000, 3.568356, -3.568356
8529, 160.000000, 4.826963, -4.826963
8530, 160.000000, 5.990227, -5.990227
8531, 160.000000, 7.095603, -7.095603
8532, 160.000000, 8.159835, -8.159835
8533, 160.000000, 9.192388, -9.192388
8534, 160.000000, 2.000000, -1.534654
8535, 160.000000, 3.812843, -2.925697
8536, 160.000000, 5.267651, -4.042011
8537, 160.000000, 6.612255, -5.073762
8538, 160.000000, 7.889945, -6.054167
8539, 160.000000, 9.120078, -6.998082
8540, 160.000000, 10.313593, -7.913899
8541, 160.000000, 2.000000, -1.154701
8542, 160.000000, 4.018850, -2.320284
8543, 160.000000, 5.638979, -3.255666
8544, 160.000000, 7.136380, -4.120191
8545, 160.000000, 8.559264, -4.941693
8546, 160.000000, 9.929186, -5.732618
8547, 160.000000, 11.258330, -6.500000
8548, 160.000000, 2.000000, -0.828427
8549, 160.000000, 4.182852, -1.732594
8550, 160.000000, 5.934593, -2.458189
8551, 160.000000, 7.553636, -3.128818
8552, 160.000000, 9.092108, -3.766074
8553, 160.000000, 10.573316, -4.379611
8554, 160.000000, 12.010434, -4.974885
8555, 160.000000, 2.000000, -0.535898
8556, 160.000000, 4.302043, -1.152729
8557, 160.000000, 6.149435, -1.647736
8558, 160.000000, 7.856882, -2.105245
8559, 160.000000, 9.479360, -2.539987
8560, 160.000000, 11.041447, -2.958547
8561, 160.000000, 12.557036, -3.364648
8562, 160.000000, 2.000000, -0.263305
8563, 160.000000, 4.374383, -0.575898
8564, 160.000000, 6.279828, -0.826755
8565, 160.000000, 8.040931, -1.058609
8566, 160.000000, 9.714393, -1.278924
8567, 160.000000, 11.325568, -1.491039
8568, 160.000000, 12.888783, -1.696840
8569, 160.000000, 2.000000, -0.000000
8570, 160.000000, 4.398635, -0.000000
8571, 160.000000, 6.323541, -0.000000
8572, 160.000000, 8.102632, -0.000000
8573, 160.000000, 9.793187, -0.000000
8574, 160.000000, 11.420818, -0.000000
8575, 160.000000, 13.000000, -0.000000
*Element, Type=C3D8R
1, 1,2,9,8,344,345,352,351
2, 2,3,10,9,345,346,353,352
3, 3,4,11,10,346,347,354,353
4, 4,5,12,11,347,348,355,354
5, 5,6,13,12,348,349,356,355
6, 6,7,14,13,349,350,357,356
7, 8,9,16,15,351,352,359,358
8, 9,10,17,16,352,353,360,359
9, 10,11,18,17,353,354,361,360
10, 11,12,19,18,354,355,362,361
11, 12,13,20,19,355,356,363,362
12, 13,14,21,20,356,357,364,363
13, 15,16,23,22,358,359,366,365
14, 16,17,24,23,359,360,367,366
15, 17,18,25,24,360,361,368,367
16, 18,19,26,25,361,362,369,368
17, 19,20,27,26,362,363,370,369
18, 20,21,28,27,363,364,371,370
19, 22,23,30,29,365,366,373,372
20, 23,24,31,30,366,367,374,373
21, 24,25,32,31,367,368,375,374
22, 25,26,33,32,368,369,376,375
23, 26,27,34,33,369,370,377,376
24, 27,28,35,34,370,371,378,377
25, 29,30,37,36,372,373,380,379
26, 30,31,38,37,373,374,381,380
27, 31,32,39,38,374,375,382,381
28, 32,33,40,39,375,376,383,382
29, 33,34,41,40,376,377,384,383
30, 34,35,42,41,377,378,385,384
31, 36,37,44,43,379,380,387,386
32, 37,38,45,44,380,381,388,387
33, 38,39,46,45,381,382,389,388
34, 39,40,47,46,382,383,390,389
35, 40,41,48,47,383,384,391,390
36, 41,42,49,48,384,385,392,391
37, 43,44,51,50,386,387,394,393
38, 44,45,52,51,387,388,395,394
39, 45,46,53,52,388,389,396,395
40, 46,47,54,53,389,390,397,396
41, 47,48,55,54,390,391,398,397
42, 48,49,56,55,391,392,399,398
43, 50,51,58,57,393,394,401,400
44, 51,52,59,58,394,395,402,401
45, 52,53,60,59,395,396,403,402
46, 53,54,61,60,396,397,404,403
47, 54,55,62,61,397,398,405,404
48, 55,56,63,62,398,399,406,405
49, 57,58,65,64,400,401,408,407
50, 58,59,66,65,401,402,409,408
51, 59,60,67,66,402,403,410,409
52, 60,61,68,67,403,404,411,410
53, 61,62,69,68,404,405,412,411
54, 62,63,70,69,405,406,413,412
55, 64,65,72,71,407,408,415,414
56, 65,66,73,72,408,409,416,415
57, 66,67,74,73,409,410,417,416
58, 67,68,75,74,410,411,418,417
59, 68,69,76,75,411,412,419,418
60, 69,70,77,76,412,413,420,419
61, 71,72,79,78,414,415,422,421
62, 72,73,80,79,415,416,423,422
63, 73,74,81,80,416,417,424,423
64, 74,75,82,81,417,418,425,424
65, 75,76,83,82,418,419,426,425
66, 76,77,84,83,419,420,427,426
67, 78,79,86,85,421,422,429,428
68, 79,80,87,86,422,423,430,429
69, 80,81,88,87,423,424,431,430
70, 81,82,89,88,424,425,432,431
71, 82,83,90,89,425,426,433,432
72, 83,84,91,90,426,427,434,433
73, 85,86,93,92,428,429,436,435
74, 86,87,94,93,429,430,437,436
75, 87,88,95,94,430,431,438,437
76, 88,89,96,95,431,432,439,438
77, 89,90,97,96,432,433,440,439
78, 90,91,98,97,433,434,441,440
79, 92,93,100,99,435,436,443,442
80, 93,94,101,100,436,437,444,443
81, 94,95,102,101,437,438,445,444
82, 95,96,103,102,438,439,446,445
83, 96,97,104,103,439,440,447,446
84, 97,98,105,104,440,441,448,447
85, 99,100,107,106,442,443,450,449
86, 100,101,108,107,443,444,451,450
87, 101,102,109,108,444,445,452,451
88, 102,103,110,109,445,446,453,452
89, 103,104,111,110,446,447,454,453
90, 104,105,112,111,447,448,455,454
91, 106,107,114,113,449,450,457,456
92, 107,108,115,114,450,451,458,457
93, 108,109,116,115,451,452,459,458
94, 109,110,117,116,452,453,460,459
95, 110,111,118,117,453,454,461,460
96, 111,112,119,118,454,455,462,461
97, 113,114,121,120,456,457,464,463
98, 114,115,122,121,457,458,465,464
99, 115,116,123,122,458,459,466,465
100, 116,117,124,123,459,460,467,466
101, 117,118,125,124,460,461,468,467
102, 118,119,126,125,461,462,469,468
103, 120,121,128,127,463,464,471,470
104, 121,122,129,128,464,465,472,471
105, 122,123,130,129,465,466,473,472
106, 123,124,131,130,466,467,474,473
107, 124,125,132,131,467,468,475,474
108, 125,126,133,132,468,469,476,475
109, 127,128,135,134,470,471,478,477
110, 128,129,136,135,471,472,479,478
111, 129,130,137,136,472,473,480,479
112, 130,131,138,137,473,474,481,480
113, 131,132,139,138,474,475,482,481
114, 132,133,140,139,475,476,483,482
115, 134,135,142,141,477,478,485,484
116, 135,136,143,142,478,479,486,485
117, 136,137,144,143,479,480,487,486
118, 137,138,145,144,480,481,488,487
119, 138,139,146,145,481,482,489,488
120, 139,140,147,146,482,483,490,489
121, 141,142,149,148,484,485,492,491
122, 142,143,150,149,485,486,493,492
123, 143,144,151,150,486,487,494,493
124, 144,145,152,151,487,488,495,494
125, 145,146,153,152,488,489,496,495
126, 146,147,154,153,489,490,497,496
127, 148,149,156,155,491,492,499,498
128, 149,150,157,156,492,493,500,499
129, 150,151,158,157,493,494,501,500
130, 151,152,159,158,494,495,502,501
131, 152,153,160,159,495,496,503,502
132, 153,154,161,160,496,497,504,503
133, 155,156,163,162,498,499,506,505
134, 156,157,164,163,499,500,507,506
135, 157,158,165,164,500,501,508,507
136, 158,159,166,165,501,502,509,508
137, 159,160,167,166,502,503,510,509
138, 160,161,168,167,503,504,511,510
139, 162,163,170,169,505,506,513,512
140, 163,164,171,170,506,507,514,513
141, 164,165,172,171,507,508,515,514
142, 165,166,173,172,508,509,516,515
143, 166,167,174,173,509,510,517,516
144, 167,168,175,174,510,511,518,517
145, 169,170,177,176,512,513,520,519
146, 170,171,178,177,513,514,521,520
147, 171,172,179,178,514,515,522,521
148, 172,173,180,179,515,516,523,522
149, 173,174,181,180,516,517,524,523
150, 174,175,182,181,517,518,525,524
151, 176,177,184,183,519,520,527,526
152, 177,178,185,184,520,521,528,527
153, 178,179,186,185,521,522,529,528
154, 179,180,187,186,522,523,530,529
155, 180,181,188,187,523,524,531,530
156, 181,182,189,188,524,525,532,531
157, 183,184,191,190,526,527,534,533
158, 184,185,192,191,527,528,535,534
159, 185,186,193,192,528,529,536,535
160, 186,187,194,193,529,530,537,536
161, 187,188,195,194,530,531,538,537
162, 188,189,196,195,531,532,539,538
163, 190,191,198,197,533,534,541,540
164, 191,192,199,198,534,535,542,541
165, 192,193,200,199,535,536,543,542
166, 193,194,201,200,536,537,544,543
167, 194,195,202,201,537,538,545,544
168, 195,196,203,202,538,539,546,545
169, 197,198,205,204,540,541,548,547
170, 198,199,206,205,541,542,549,548
171, 199,200,207,206,542,543,550,549
172, 200,201,208,207,543,544,551,550
173, 201,202,209,208,544,545,552,551
174, 202,203,210,209,545,546,553,552
175, 204,205,212,211,547,548,555,554
176, 205,206,213,212,548,549,556,555
177, 206,207,214,213,549,550,557,556
178, 207,208,215,214,550,551,558,557
179, 208,209,216,215,551,552,559,558
180, 209,210,217,216,552,553,560,559
181, 211,212,219,218,554,555,562,561
182, 212,213,220,219,555,556,563,562
183, 213,214,221,220,556,557,564,563
184, 214,215,222,221,557,558,565,564
185, 215,216,223,222,558,559,566,565
186, 216,217,224,223,559,560,567,566
187, 218,219,226,225,561,562,569,568
188, 219,220,227,226,562,563,570,569
189, 220,221,228,227,563,564,571,570
190, 221,222,229,228,564,565,572,571
191, 222,223,230,229,565,566,573,572
192, 223,224,231,230,566,567,574,573
193, 225,226,233,232,568,569,576,575
194, 226,227,234,233,569,570,577,576
195, 227,228,235,234,570,571,578,577
196, 228,229,236,235,571,572,579,578
197, 229,230,237,236,572,573,580,579
198, 230,231,238,237,573,574,581,580
199, 232,233,240,239,575,576,583,582
200, 233,234,241,240,576,577,584,583
201, 234,235,242,241,577,578,585,584
202, 235,236,243,242,578,579,586,585
203, 236,237,244,243,579,580,587,586
204, 237,238,245,244,580,581,588,587
205, 239,240,247,246,582,583,590,589
206, 240,241,248,247,583,584,591,590
207, 241,242,249,248,584,585,592,591
208, 242,243,250,249,585,586,593,592
209, 243,244,251,250,586,587,594,593
210, 244,245,252,251,587,588,595,594
211, 246,247,254,253,589,590,597,596
212, 247,248,255,254,590,591,598,597
213, 248,249,256,255,591,592,599,598
214, 249,250,257,256,592,593,600,599
215, 250,251,258,257,593,594,601,600
216, 251,252,259,258,594,595,602,601
217, 253,254,261,260,596,597,604,603
218, 254,255,262,261,597,598,605,604
219, 255,256,263,262,598,599,606,605
220, 256,257,264,263,599,600,607,606
221, 257,258,265,264,600,601,608,607
222, 258,259,266,265,601,602,609,608
223, 260,261,268,267,603,604,611,610
224, 261,262,269,268,604,605,612,611
225, 262,263,270,269,605,606,613,612
226, 263,264,271,270,606,607,614,613
227, 264,265,272,271,607,608,615,614
228, 265,266,273,272,608,609,616,615
229, 267,268,275,274,610,611,618,617
230, 268,269,276,275,611,612,619,618
231, 269,270,277,276,612,613,620,619
232, 270,271,278,277,613,614,621,620
233, 271,272,279,278,614,615,622,621
234, 272,273,280,279,615,616,623,622
235, 274,275,282,281,617,618,625,624
236, 275,276,283,282,618,619,626,625
237, 276,277,284,283,619,620,627,626
238, 277,278,285,284,620,621,628,627
239, 278,279,286,285,621,622,629,628
240, 279,280,287,286,622,623,630,629
241, 281,282,289,288,624,625,632,631
242, 282,283,290,289,625,626,633,632
243, 283,284,291,290,626,627,634,633
244, 284,285,292,291,627,628,635,634
245, 285,286,293,292,628,629,636,635
246, 286,287,294,293,629,630,637,636
247, 288,289,296,295,631,632,639,638
248, 289,290,297,296,632,633,640,639
249, 290,291,298,297,633,634,641,640
250, 291,292,299,298,634,635,642,641
251, 292,293,300,299,635,636,643,642
252, 293,294,301,300,636,637,644,643
253, 295,296,303,302,638,639,646,645
254, 296,297,304,303,639,640,647,646
255, 297,298,305,304,640,641,648,647
256, 298,299,306,305,641,642,649,648
257, 299,300,307,306,642,643,650,649
258, 300,301,308,307,643,644,651,650
259, 302,303,310,309,645,646,653,652
260, 303,304,311,310,646,647,654,653
261, 304,305,312,311,647,648,655,654
262, 305,306,313,312,648,649,656,655
263, 306,307,314,313,649,650,657,656
264, 307,308,315,314,650,651,658,657
265, 309,310,317,316,652,653,660,659
266, 310,311,318,317,653,654,661,660
267, 311,312,319,318,654,655,662,661
268, 312,313,320,319,655,656,663,662
269, 313,314,321,320,656,657,664,663
270, 314,315,322,321,657,658,665,664
271, 316,317,324,323,659,660,667,666
272, 317,318,325,324,660,661,668,667
273, 318,319,326,325,661,662,669,668
274, 319,320,327,326,662,663,670,669
275, 320,321,328,327,663,664,671,670
276, 321,322,329,328,664,665,672,671
277, 323,324,331,330,666,667,674,673
278, 324,325,332,331,667,668,675,674
279, 325,326,333,332,668,669,676,675
280, 326,327,334,333,669,670,677,676
281, 327,328,335,334,670,671,678,677
282, 328,329,336,335,671,672,679,678
283, 330,331,338,337,673,674,681,680
284, 331,332,339,338,674,675,682,681
285, 332,333,340,339,675,676,683,682
286, 333,334,341,340,676,677,684,683
287, 334,335,342,341,677,678,685,684
288, 335,336,343,342,678,679,686,685
289, 344,345,352,351,687,688,695,694
290, 345,346,353,352,688,689,696,695
291, 346,347,354,353,689,690,697,696
292, 347,348,355,354,690,691,698,697
293, 348,349,356,355,691,692,699,698
294, 349,350,357,356,692,693,700,699
295, 351,352,359,358,694,695,702,701
296, 352,353,360,359,695,696,703,702
297, 353,354,361,360,696,697,704,703
298, 354,355,362,361,697,698,705,704
299, 355,356,363,362,698,699,706,705
300, 356,357,364,363,699,700,707,706
301, 358,359,366,365,701,702,709,708
302, 359,360,367,366,702,703,710,709
303, 360,361,368,367,703,704,711,710
304, 361,362,369,368,704,705,712,711
305, 362,363,370,369,705,706,713,712
306, 363,364,371,370,706,707,714,713
307, 365,366,373,372,708,709,716,715
308, 366,367,374,373,709,710,717,716
309, 367,368,375,374,710,711,718,717
310, 368,369,376,375,711,712,719,718
311, 369,370,377,376,712,713,720,719
312, 370,371,378,377,713,714,721,720
313, 372,373,380,379,715,716,723,722
314, 373,374,381,380,716,717,724,723
315, 374,375,382,381,717,718,725,724
316, 375,376,383,382,718,719,726,725
317, 376,377,384,383,719,720,727,726
318, 377,378,385,384,720,721,728,727
319, 379,380,387,386,722,723,730,729
320, 380,381,388,387,723,724,731,730
321, 381,382,389,388,724,725,732,731
322, 382,383,390,389,725,726,733,732
323, 383,384,391,390,726,727,734,733
324, 384,385,392,391,727,728,735,734
325, 386,387,394,393,729,730,737,736
326, 387,388,395,394,730,731,738,737
327, 388,389,396,395,731,732,739,738
328, 389,390,397,396,732,733,740,739
329, 390,391,398,397,733,734,741,740
330, 391,392,399,398,734,735,742,741
331, 393,394,401,400,736,737,744,743
332, 394,395,402,401,737,738,745,744
333, 395,396,403,402,738,739,746,745
334, 396,397,404,403,739,740,747,746
335, 397,398,405,404,740,741,748,747
336, 398,399,406,405,741,742,749,748
337, 400,401,408,407,743,744,751,750
338, 401,402,409,408,744,745,752,751
339, 402,403,410,409,745,746,753,752
340, 403,404,411,410,746,747,754,753
341, 404,405,412,411,747,748,755,754
342, 405,406,413,412,748,749,756,755
343, 407,408,415,414,750,751,758,757
344, 408,409,416,415,751,752,759,758
345, 409,410,417,416,752,753,760,759
346, 410,411,418,417,753,754,761,760
347, 411,412,419,418,754,755,762,761
348, 412,413,420,419,755,756,763,762
349, 414,415,422,421,757,758,765,764
350, 415,416,423,422,758,759,766,765
351, 416,417,424,423,759,760,767,766
352, 417,418,425,424,760,761,768,767
353, 418,419,426,425,761,762,769,768
354, 419,420,427,426,762,763,770,769
355, 421,422,429,428,764,765,772,771
356, 422,423,430,429,765,766,773,772
357, 423,424,431,430,766,767,774,773
358, 424,425,432,431,767,768,775,774
359, 425,426,433,432,768,769,776,775
360, 426,427,434,433,769,770,777,776
361, 428,429,436,435,771,772,779,778
362, 429,430,437,436,772,773,780,779
363, 430,431,438,437,773,774,781,780
364, 431,432,439,438,774,775,782,781
365, 432,433,440,439,775,776,783,782
366, 433,434,441,440,776,777,784,783
367, 435,436,443,442,778,779,786,785
368, 436,437,444,443,779,780,787,786
369, 437,438,445,444,780,781,788,787
370, 438,439,446,445,781,782,789,788
371, 439,440,447,446,782,783,790,789
372, 440,441,448,447,783,784,791,790
373, 442,443,450,449,785,786,793,792
374, 443,444,451,450,786,787,794,793
375, 444,445,452,451,787,788,795,794
376, 445,446,453,452,788,789,796,795
377, 446,447,454,453,789,790,797,796
378, 447,448,455,454,790,791,798,797
379, 449,450,457,456,792,793,800,799
380, 450,451,458,457,793,794,801,800
381, 451,452,459,458,794,795,802,801
382, 452,453,460,459,795,796,803,802
383, 453,454,461,460,796,797,804,803
384, 454,455,462,461,797,798,805,804
385, 456,457,464,463,799,800,807,806
386, 457,458,465,464,800,801,808,807
387, 458,459,466,465,801,802,809,808
388, 459,460,467,466,802,803,810,809
389, 460,461,468,467,803,804,811,810
390, 461,462,469,468,804,805,812,811
391, 463,464,471,470,806,807,814,813
392, 464,465,472,471,807,808,815,814
393, 465,466,473,472,808,809,816,815
394, 466,467,474,473,809,810,817,816
395, 467,468,475,474,810,811,818,817
396, 468,469,476,475,811,812,819,818
397, 470,471,478,477,813,814,821,820
398, 471,472,479,478,814,815,822,821
399, 472,473,480,479,815,816,823,822
400, 473,474,481,480,816,817,824,823
401, 474,475,482,481,817,818,825,824
402, 475,476,483,482,818,819,826,825
403, 477,478,485,484,820,821,828,827
404, 478,479,486,485,821,822,829,828
405, 479,480,487,486,822,823,830,829
406, 480,481,488,487,823,824,831,830
407, 481,482,489,488,824,825,832,831
408, 482,483,490,489,825,826,833,832
409, 484,485,492,491,827,828,835,834
410, 485,486,493,492,828,829,836,835
411, 486,487,494,493,829,830,837,836
412, 487,488,495,494,830,831,838,837
413, 488,489,496,495,831,832,839,838
414, 489,490,497,496,832,833,840,839
415, 491,492,499,498,834,835,842,841
416, 492,493,500,499,835,836,843,842
417, 493,494,501,500,836,837,844,843
418, 494,495,502,501,837,838,845,844
419, 495,496,503,502,838,839,846,845
420, 496,497,504,503,839,840,847,846
421, 498,499,506,505,841,842,849,848
422, 499,500,507,506,842,843,850,849
423, 500,501,508,507,843,844,851,850
424, 501,502,509,508,844,845,852,851
425, 502,503,510,509,845,846,853,852
426, 503,504,511,510,846,847,854,853
427, 505,506,513,512,848,849,856,855
428, 506,507,514,513,849,850,857,856
429, 507,508,515,514,850,851,858,857
430, 508,509,516,515,851,852,859,858
431, 509,510,517,516,852,853,860,859
432, 510,511,518,517,853,854,861,860
433, 512,513,520,519,855,856,863,862
434, 513,514,521,520,856,857,864,863
435, 514,515,522,521,857,858,865,864
436, 515,516,523,522,858,859,866,865
437, 516,517,524,523,859,860,867,866
438, 517,518,525,524,860,861,868,867
439, 519,520,527,526,862,863,870,869
440, 520,521,528,527,863,864,871,870
441, 521,522,529,528,864,865,872,871
442, 522,523,530,529,865,866,873,872
443, 523,524,531,530,866,867,874,873
444, 524,525,532,531,867,868,875,874
445, 526,527,534,533,869,870,877,876
446, 527,528,535,534,870,871,878,877
447, 528,529,536,535,871,872,879,878
448, 529,530,537,536,872,873,880,879
449, 530,531,538,537,873,874,881,880
450, 531,532,539,538,874,875,882,881
451, 533,534,541,540,876,877,884,883
452, 534,535,542,541,877,878,885,884
453, 535,536,543,542,878,879,886,885
454, 536,537,544,543,879,880,887,886
455, 537,538,545,544,880,881,888,887
456, 538,539,546,545,881,882,889,888
457, 540,541,548,547,883,884,891,890
458, 541,542,549,548,884,885,892,891
459, 542,543,550,549,885,886,893,892
460, 543,544,551,550,886,887,894,893
461, 544,545,552,551,887,888,895,894
462, 545,546,553,552,888,889,896,895
463, 547,548,555,554,890,891,898,897
464, 548,549,556,555,891,892,899,898
465, 549,550,557,556,892,893,900,899
466, 550,551,558,557,893,894,901,900
467, 551,552,559,558,894,895,902,901
468, 552,553,560,559,895,896,903,902
469, 554,555,562,561,897,898,905,904
470, 555,556,563,562,898,899,906,905
471, 556,557,564,563,899,900,907,906
472, 557,558,565,564,900,901,908,907
473, 558,559,566,565,901,902,909,908
474, 559,560,567,566,902,903,910,909
475, 561,562,569,568,904,905,912,911
476, 562,563,570,569,905,906,913,912
477, 563,564,571,570,906,907,914,913
478, 564,565,572,571,907,908,915,914
479, 565,566,573,572,908,909,916,915
480, 566,567,574,573,909,910,917,916
481, 568,569,576,575,911,912,919,918
482, 569,570,577,576,912,913,920,919
483, 570,571,578,577,913,914,921,920
484, 571,572,579,578,914,915,922,921
485, 572,573,580,579,915,916,923,922
486, 573,574,581,580,916,917,924,923
487, 575,576,583,582,918,919,926,925
488, 576,577,584,583,919,920,927,926
489, 577,578,585,584,920,921,928,927
490, 578,579,586,585,921,922,929,928
491, 579,580,587,586,922,923,930,929
492, 580,581,588,587,923,924,931,930
493, 582,583,590,589,925,926,933,932
494, 583,584,591,590,926,927,934,933
495, 584,585,592,591,927,928,935,934
496, 585,586,593,592,928,929,936,935
497, 586,587,594,593,929,930,937,936
498, 587,588,595,594,930,931,938,937
499, 589,590,597,596,932,933,940,939
500, 590,591,598,597,933,934,941,940
501, 591,592,599,598,934,935,942,941
502, 592,593,600,599,935,936,943,942
503, 593,594,601,600,936,937,944,943
504, 594,595,602,601,937,938,945,944
505, 596,597,604,603,939,940,947,946
506, 597,598,605,604,940,941,948,947
507, 598,599,606,605,941,942,949,948
508, 599,600,607,606,942,943,950,949
509, 600,601,608,607,943,944,951,950
510, 601,602,609,608,944,945,952,951
511, 603,604,611,610,946,947,954,953
512, 604,605,612,611,947,948,955,954
513, 605,606,613,612,948,949,956,955
514, 606,607,614,613,949,950,957,956
515, 607,608,615,614,950,951,958,957
516, 608,609,616,615,951,952,959,958
517, 610,611,618,617,953,954,961,960
518, 611,612,619,618,954,955,962,961
519, 612,613,620,619,955,956,963,962
520, 613,614,621,620,956,957,964,963
521, 614,615,622,621,957,958,965,964
522, 615,616,623,622,958,959,966,965
523, 617,618,625,624,960,961,968,967
524, 618,619,626,625,961,962,969,968
525, 619,620,627,626,962,963,970,969
526, 620,621,628,627,963,964,971,970
527, 621,622,629,628,964,965,972,971
528, 622,623,630,629,965,966,973,972
529, 624,625,632,631,967,968,975,974
530, 625,626,633,632,968,969,976,975
531, 626,627,634,633,969,970,977,976
532, 627,628,635,634,970,971,978,977
533, 628,629,636,635,971,972,979,978
534, 629,630,637,636,972,973,980,979
535, 631,632,639,638,974,975,982,981
536, 632,633,640,639,975,976,983,982
537, 633,634,641,640,976,977,984,983
538, 634,635,642,641,977,978,985,984
539, 635,636,643,642,978,979,986,985
540, 636,637,644,643,979,980,987,986
541, 638,639,646,645,981,982,989,988
542, 639,640,647,646,982,983,990,989
543, 640,641,648,647,983,984,991,990
544, 641,642,649,648,984,985,992,991
545, 642,643,650,649,985,986,993,992
546, 643,644,651,650,986,987,994,993
547, 645,646,653,652,988,989,996,995
548, 646,647,654,653,989,990,997,996
549, 647,648,655,654,990,991,998,997
550, 648,649,656,655,991,992,999,998
551, 649,650,657,656,992,993,1000,999
552, 650,651,658,657,993,994,1001,1000
553, 652,653,660,659,995,996,1003,1002
554, 653,654,661,660,996,997,1004,1003
555, 654,655,662,661,997,998,1005,1004
556, 655,656,663,662,998,999,1006,1005
557, 656,657,664,663,999,1000,1007,1006
558, 657,658,665,664,1000,1001,1008,1007
559, 659,660,667,666,1002,1003,1010,1009
560, 660,661,668,667,1003,1004,1011,1010
561, 661,662,669,668,1004,1005,1012,1011
562, 662,663,670,669,1005,1006,1013,1012
563, 663,664,671,670,1006,1007,1014,1013
564, 664,665,672,671,1007,1008,1015,1014
565, 666,667,674,673,1009,1010,1017,1016
566, 667,668,675,674,1010,1011,1018,1017
567, 668,669,676,675,1011,1012,1019,1018
568, 669,670,677,676,1012,1013,1020,1019
569, 670,671,678,677,1013,1014,1021,1020
570, 671,672,679,678,1014,1015,1022,1021
571, 673,674,681,680,1016,1017,1024,1023
572, 674,675,682,681,1017,1018,1025,1024
573, 675,676,683,682,1018,1019,1026,1025
574, 676,677,684,683,1019,1020,1027,1026
575, 677,678,685,684,1020,1021,1028,1027
576, 678,679,686,685,1021,1022,1029,1028
577, 687,688,695,694,1030,1031,1038,1037
578, 688,689,696,695,1031,1032,1039,1038
579, 689,690,697,696,1032,1033,1040,1039
580, 690,691,698,697,1033,1034,1041,1040
581, 691,692,699,698,1034,1035,1042,1041
582, 692,693,700,699,1035,1036,1043,1042
583, 694,695,702,701,1037,1038,1045,1044
584, 695,696,703,702,1038,1039,1046,1045
585, 696,697,704,703,1039,1040,1047,1046
586, 697,698,705,704,1040,1041,1048,1047
587, 698,699,706,705,1041,1042,1049,1048
588, 699,700,707,706,1042,1043,1050,1049
589, 701,702,709,708,1044,1045,1052,1051
590, 702,703,710,709,1045,1046,1053,1052
591, 703,704,711,710,1046,1047,1054,1053
592, 704,705,712,711,1047,1048,1055,1054
593, 705,706,713,712,1048,1049,1056,1055
594, 706,707,714,713,1049,1050,1057,1056
595, 708,709,716,715,1051,1052,1059,1058
596, 709,710,717,716,1052,1053,1060,1059
597, 710,711,718,717,1053,1054,1061,1060
598, 711,712,719,718,1054,1055,1062,1061
599, 712,713,720,719,1055,1056,1063,1062
600, 713,714,721,720,1056,1057,1064,1063
601, 715,716,723,722,1058,1059,1066,1065
602, 716,717,724,723,1059,1060,1067,1066
603, 717,718,725,724,1060,1061,1068,1067
604, 718,719,726,725,1061,1062,1069,1068
605, 719,720,727,726,1062,1063,1070,1069
606, 720,721,728,727,1063,1064,1071,1070
607, 722,723,730,729,1065,1066,1073,1072
608, 723,724,731,730,1066,1067,1074,1073
609, 724,725,732,731,1067,1068,1075,1074
610, 725,726,733,732,1068,1069,1076,1075
611, 726,727,734,733,1069,1070,1077,1076
612, 727,728,735,734,1070,1071,1078,1077
613, 729,730,737,736,1072,1073,1080,1079
614, 730,731,738,737,1073,1074,1081,1080
615, 731,732,739,738,1074,1075,1082,1081
616, 732,733,740,739,1075,1076,1083,1082
617, 733,734,741,740,1076,1077,1084,1083
618, 734,735,742,741,1077,1078,1085,1084
619, 736,737,744,743,1079,1080,1087,1086
620, 737,738,745,744,1080,1081,1088,1087
621, 738,739,746,745,1081,1082,1089,1088
622, 739,740,747,746,1082,1083,1090,1089
623, 740,741,748,747,1083,1084,1091,1090
624, 741,742,749,748,1084,1085,1092,1091
625, 743,744,751,750,1086,1087,1094,1093
626, 744,745,752,751,1087,1088,1095,1094
627, 745,746,753,752,1088,1089,1096,1095
628, 746,747,754,753,1089,1090,1097,1096
629, 747,748,755,754,1090,1091,1098,1097
630, 748,749,756,755,1091,1092,1099,1098
631, 750,751,758,757,1093,1094,1101,1100
632, 751,752,759,758,1094,1095,1102,1101
633, 752,753,760,759,1095,1096,1103,1102
634, 753,754,761,760,1096,1097,1104,1103
635, 754,755,762,761,1097,1098,1105,1104
636, 755,756,763,762,1098,1099,1106,1105
637, 757,758,765,764,1100,1101,1108,1107
638, 758,759,766,765,1101,1102,1109,1108
639, 759,760,767,766,1102,1103,1110,1109
640, 760,761,768,767,1103,1104,1111,1110
641, 761,762,769,768,1104,1105,1112,1111
642, 762,763,770,769,1105,1106,1113,1112
643, 764,765,772,771,1107,1108,1115,1114
644, 765,766,773,772,1108,1109,1116,1115
645, 766,767,774,773,1109,1110,1117,1116
646, 767,768,775,774,1110,1111,1118,1117
647, 768,769,776,775,1111,1112,1119,1118
648, 769,770,777,776,1112,1113,1120,1119
649, 771,772,779,778,1114,1115,1122,1121
650, 772,773,780,779,1115,1116,1123,1122
651, 773,774,781,780,1116,1117,1124,1123
652, 774,775,782,781,1117,1118,1125,1124
653, 775,776,783,782,1118,1119,1126,1125
654, 776,777,784,783,1119,1120,1127,1126
655, 778,779,786,785,1121,1122,1129,1128
656, 779,780,787,786,1122,1123,1130,1129
657, 780,781,788,787,1123,1124,1131,1130
658, 781,782,789,788,1124,1125,1132,1131
659, 782,783,790,789,1125,1126,1133,1132
660, 783,784,791,790,1126,1127,1134,1133
661, 785,786,793,792,1128,1129,1136,1135
662, 786,787,794,793,1129,1130,1137,1136
663, 787,788,795,794,1130,1131,1138,1137
664, 788,789,796,795,1131,1132,1139,1138
665, 789,790,797,796,1132,1133,1140,1139
666, 790,791,798,797,1133,1134,1141,1140
667, 792,793,800,799,1135,1136,1143,1142
668, 793,794,801,800,1136,1137,1144,1143
669, 794,795,802,801,1137,1138,1145,1144
670, 795,796,803,802,1138,1139,1146,1145
671, 796,797,804,803,1139,1140,1147,1146
672, 797,798,805,804,1140,1141,1148,1147
673, 799,800,807,806,1142,1143,1150,1149
674, 800,801,808,807,1143,1144,1151,1150
675, 801,802,809,808,1144,1145,1152,1151
676, 802,803,810,809,1145,1146,1153,1152
677, 803,804,811,810,1146,1147,1154,1153
678, 804,805,812,811,1147,1148,1155,1154
679, 806,807,814,813,1149,1150,1157,1156
680, 807,808,815,814,1150,1151,1158,1157
681, 808,809,816,815,1151,1152,1159,1158
682, 809,810,817,816,1152,1153,1160,1159
683, 810,811,818,817,1153,1154,1161,1160
684, 811,812,819,818,1154,1155,1162,1161
685, 813,814,821,820,1156,1157,1164,1163
686, 814,815,822,821,1157,1158,1165,1164
687, 815,816,823,822,1158,1159,1166,1165
688, 816,817,824,823,1159,1160,1167,1166
689, 817,818,825,824,1160,1161,1168,1167
690, 818,819,826,825,1161,1162,1169,1168
691, 820,821,828,827,1163,1164,1171,1170
692, 821,822,829,828,1164,1165,1172,1171
693, 822,823,830,829,1165,1166,1173,1172
694, 823,824,831,830,1166,1167,1174,1173
695, 824,825,832,831,1167,1168,1175,1174
696, 825,826,833,832,1168,1169,1176,1175
697, 827,828,835,834,1170,1171,1178,1177
698, 828,829,836,835,1171,1172,1179,1178
699, 829,830,837,836,1172,1173,1180,1179
700, 830,831,838,837,1173,1174,1181,1180
701, 831,832,839,838,1174,1175,1182,1181
702, 832,833,840,839,1175,1176,1183,1182
703, 834,835,842,841,1177,1178,1185,1184
704, 835,836,843,842,1178,1179,1186,1185
705, 836,837,844,843,1179,1180,1187,1186
706, 837,838,845,844,1180,1181,1188,1187
707, 838,839,846,845,1181,1182,1189,1188
708, 839,840,847,846,1182,1183,1190,1189
709, 841,842,849,848,1184,1185,1192,1191
710, 842,843,850,849,1185,1186,1193,1192
711, 843,844,851,850,1186,1187,1194,1193
712, 844,845,852,851,1187,1188,1195,1194
713, 845,846,853,852,1188,1189,1196,1195
714, 846,847,854,853,1189,1190,1197,1196
715, 848,849,856,855,1191,1192,1199,1198
716, 849,850,857,856,1192,1193,1200,1199
717, 850,851,858,857,1193,1194,1201,1200
718, 851,852,859,858,1194,1195,1202,1201
719, 852,853,860,859,1195,1196,1203,1202
720, 853,854,861,860,1196,1197,1204,1203
721, 855,856,863,862,1198,1199,1206,1205
722, 856,857,864,863,1199,1200,1207,1206
723, 857,858,865,864,1200,1201,1208,1207
724, 858,859,866,865,1201,1202,1209,1208
725, 859,860,867,866,1202,1203,1210,1209
726, 860,861,868,867,1203,1204,1211,1210
727, 862,863,870,869,1205,1206,1213,1212
728, 863,864,871,870,1206,1207,1214,1213
729, 864,865,872,871,1207,1208,1215,1214
730, 865,866,873,872,1208,1209,1216,1215
731, 866,867,874,873,1209,1210,1217,1216
732, 867,868,875,874,1210,1211,1218,1217
733, 869,870,877,876,1212,1213,1220,1219
734, 870,871,878,877,1213,1214,1221,1220
735, 871,872,879,878,1214,1215,1222,1221
736, 872,873,880,879,1215,1216,1223,1222
737, 873,874,881,880,1216,1217,1224,1223
738, 874,875,882,881,1217,1218,1225,1224
739, 876,877,884,883,1219,1220,1227,1226
740, 877,878,885,884,1220,1221,1228,1227
741, 878,879,886,885,1221,1222,1229,1228
742, 879,880,887,886,1222,1223,1230,1229
743, 880,881,888,887,1223,1224,1231,1230
744, 881,882,889,888,1224,1225,1232,1231
745, 883,884,891,890,1226,1227,1234,1233
746, 884,885,892,891,1227,1228,1235,1234
747, 885,886,893,892,1228,1229,1236,1235
748, 886,887,894,893,1229,1230,1237,1236
749, 887,888,895,894,1230,1231,1238,1237
750, 888,889,896,895,1231,1232,1239,1238
751, 890,891,898,897,1233,1234,1241,1240
752, 891,892,899,898,1234,1235,1242,1241
753, 892,893,900,899,1235,1236,1243,1242
754, 893,894,901,900,1236,1237,1244,1243
755, 894,895,902,901,1237,1238,1245,1244
756, 895,896,903,902,1238,1239,1246,1245
757, 897,898,905,904,1240,1241,1248,1247
758, 898,899,906,905,1241,1242,1249,1248
759, 899,900,907,906,1242,1243,1250,1249
760, 900,901,908,907,1243,1244,1251,1250
761, 901,902,909,908,1244,1245,1252,1251
762, 902,903,910,909,1245,1246,1253,1252
763, 904,905,912,911,1247,1248,1255,1254
764, 905,906,913,912,1248,1249,1256,1255
765, 906,907,914,913,1249,1250,1257,1256
766, 907,908,915,914,1250,1251,1258,1257
767, 908,909,916,915,1251,1252,1259,1258
768, 909,910,917,916,1252,1253,1260,1259
769, 911,912,919,918,1254,1255,1262,1261
770, 912,913,920,919,1255,1256,1263,1262
771, 913,914,921,920,1256,1257,1264,1263
772, 914,915,922,921,1257,1258,1265,1264
773, 915,916,923,922,1258,1259,1266,1265
774, 916,917,924,923,1259,1260,1267,1266
775, 918,919,926,925,1261,1262,1269,1268
776, 919,920,927,926,1262,1263,1270,1269
777, 920,921,928,927,1263,1264,1271,1270
778, 921,922,929,928,1264,1265,1272,1271
779, 922,923,930,929,1265,1266,1273,1272
780, 923,924,931,930,1266,1267,1274,1273
781, 925,926,933,932,1268,1269,1276,1275
782, 926,927,934,933,1269,1270,1277,1276
783, 927,928,935,934,1270,1271,1278,1277
784, 928,929,936,935,1271,1272,1279,1278
785, 929,930,937,936,1272,1273,1280,1279
786, 930,931,938,937,1273,1274,1281,1280
787, 932,933,940,939,1275,1276,1283,1282
788, 933,934,941,940,1276,1277,1284,1283
789, 934,935,942,941,1277,1278,1285,1284
790, 935,936,943,942,1278,1279,1286,1285
791, 936,937,944,943,1279,1280,1287,1286
792, 937,938,945,944,1280,1281,1288,1287
793, 939,940,947,946,1282,1283,1290,1289
794, 940,941,948,947,1283,1284,1291,1290
795, 941,942,949,948,1284,1285,1292,1291
796, 942,943,950,949,1285,1286,1293,1292
797, 943,944,951,950,1286,1287,1294,1293
798, 944,945,952,951,1287,1288,1295,1294
799, 946,947,954,953,1289,1290,1297,1296
800, 947,948,955,954,1290,1291,1298,1297
801, 948,949,956,955,1291,1292,1299,1298
802, 949,950,957,956,1292,1293,1300,1299
803, 950,951,958,957,1293,1294,1301,1300
804, 951,952,959,958,1294,1295,1302,1301
805, 953,954,961,960,1296,1297,1304,1303
806, 954,955,962,961,1297,1298,1305,1304
807, 955,956,963,962,1298,1299,1306,1305
808, 956,957,964,963,1299,1300,1307,1306
809, 957,958,965,964,1300,1301,1308,1307
810, 958,959,966,965,1301,1302,1309,1308
811, 960,961,968,967,1303,1304,1311,1310
812, 961,962,969,968,1304,1305,1312,1311
813, 962,963,970,969,1305,1306,1313,1312
814, 963,964,971,970,1306,1307,1314,1313
815, 964,965,972,971,1307,1308,1315,1314
816, 965,966,973,972,1308,1309,1316,1315
817, 967,968,975,974,1310,1311,1318,1317
818, 968,969,976,975,1311,1312,1319,1318
819, 969,970,977,976,1312,1313,1320,1319
820, 970,971,978,977,1313,1314,1321,1320
821, 971,972,979,978,1314,1315,1322,1321
822, 972,973,980,979,1315,1316,1323,1322
823, 974,975,982,981,1317,1318,1325,1324
824, 975,976,983,982,1318,1319,1326,1325
825, 976,977,984,983,1319,1320,1327,1326
826, 977,978,985,984,1320,1321,1328,1327
827, 978,979,986,985,1321,1322,1329,1328
828, 979,980,987,986,1322,1323,1330,1329
829, 981,982,989,988,1324,1325,1332,1331
830, 982,983,990,989,1325,1326,1333,1332
831, 983,984,991,990,1326,1327,1334,1333
832, 984,985,992,991,1327,1328,1335,1334
833, 985,986,993,992,1328,1329,1336,1335
834, 986,987,994,993,1329,1330,1337,1336
835, 988,989,996,995,1331,1332,1339,1338
836, 989,990,997,996,1332,1333,1340,1339
837, 990,991,998,997,1333,1334,1341,1340
838, 991,992,999,998,1334,1335,1342,1341
839, 992,993,1000,999,1335,1336,1343,1342
840, 993,994,1001,1000,1336,1337,1344,1343
841, 995,996,1003,1002,1338,1339,1346,1345
842, 996,997,1004,1003,1339,1340,1347,1346
843, 997,998,1005,1004,1340,1341,1348,1347
844, 998,999,1006,1005,1341,1342,1349,1348
845, 999,1000,1007,1006,1342,1343,1350,1349
846, 1000,1001,1008,1007,1343,1344,1351,1350
847, 1002,1003,1010,1009,1345,1346,1353,1352
848, 1003,1004,1011,1010,1346,1347,1354,1353
849, 1004,1005,1012,1011,1347,1348,1355,1354
850, 1005,1006,1013,1012,1348,1349,1356,1355
851, 1006,1007,1014,1013,1349,1350,1357,1356
852, 1007,1008,1015,1014,1350,1351,1358,1357
853, 1009,1010,1017,1016,1352,1353,1360,1359
854, 1010,1011,1018,1017,1353,1354,1361,1360
855, 1011,1012,1019,1018,1354,1355,1362,1361
856, 1012,1013,1020,1019,1355,1356,1363,1362
857, 1013,1014,1021,1020,1356,1357,1364,1363
858, 1014,1015,1022,1021,1357,1358,1365,1364
859, 1016,1017,1024,1023,1359,1360,1367,1366
860, 1017,1018,1025,1024,1360,1361,1368,1367
861, 1018,1019,1026,1025,1361,1362,1369,1368
862, 1019,1020,1027,1026,1362,1363,1370,1369
863, 1020,1021,1028,1027,1363,1364,1371,1370
864, 1021,1022,1029,1028,1364,1365,1372,1371
865, 1030,1031,1038,1037,1373,1374,1381,1380
866, 1031,1032,1039,1038,1374,1375,1382,1381
867, 1032,1033,1040,1039,1375,1376,1383,1382
868, 1033,1034,1041,1040,1376,1377,1384,1383
869, 1034,1035,1042,1041,1377,1378,1385,1384
870, 1035,1036,1043,1042,1378,1379,1386,1385
871, 1037,1038,1045,1044,1380,1381,1388,1387
872, 1038,1039,1046,1045,1381,1382,1389,1388
873, 1039,1040,1047,1046,1382,1383,1390,1389
874, 1040,1041,1048,1047,1383,1384,1391,1390
875, 1041,1042,1049,1048,1384,1385,1392,1391
876, 1042,1043,1050,1049,1385,1386,1393,1392
877, 1044,1045,1052,1051,1387,1388,1395,1394
878, 1045,1046,1053,1052,1388,1389,1396,1395
879, 1046,1047,1054,1053,1389,1390,1397,1396
880, 1047,1048,1055,1054,1390,1391,1398,1397
881, 1048,1049,1056,1055,1391,1392,1399,1398
882, 1049,1050,1057,1056,1392,1393,1400,1399
883, 1051,1052,1059,1058,1394,1395,1402,1401
884, 1052,1053,1060,1059,1395,1396,1403,1402
885, 1053,1054,1061,1060,1396,1397,1404,1403
886, 1054,1055,1062,1061,1397,1398,1405,1404
887, 1055,1056,1063,1062,1398,1399,1406,1405
888, 1056,1057,1064,1063,1399,1400,1407,1406
889, 1058,1059,1066,1065,1401,1402,1409,1408
890, 1059,1060,1067,1066,1402,1403,1410,1409
891, 1060,1061,1068,1067,1403,1404,1411,1410
892, 1061,1062,1069,1068,1404,1405,1412,1411
893, 1062,1063,1070,1069,1405,1406,1413,1412
894, 1063,1064,1071,1070,1406,1407,1414,1413
895, 1065,1066,1073,1072,1408,1409,1416,1415
896, 1066,1067,1074,1073,1409,1410,1417,1416
897, 1067,1068,1075,1074,1410,1411,1418,1417
898, 1068,1069,1076,1075,1411,1412,1419,1418
899, 1069,1070,1077,1076,1412,1413,1420,1419
900, 1070,1071,1078,1077,1413,1414,1421,1420
901, 1072,1073,1080,1079,1415,1416,1423,1422
902, 1073,1074,1081,1080,1416,1417,1424,1423
903, 1074,1075,1082,1081,1417,1418,1425,1424
904, 1075,1076,1083,1082,1418,1419,1426,1425
905, 1076,1077,1084,1083,1419,1420,1427,1426
906, 1077,1078,1085,1084,1420,1421,1428,1427
907, 1079,1080,1087,1086,1422,1423,1430,1429
908, 1080,1081,1088,1087,1423,1424,1431,1430
909, 1081,1082,1089,1088,1424,1425,1432,1431
910, 1082,1083,1090,1089,1425,1426,1433,1432
911, 1083,1084,1091,1090,1426,1427,1434,1433
912, 1084,1085,1092,1091,1427,1428,1435,1434
913, 1086,1087,1094,1093,1429,1430,1437,1436
914, 1087,1088,1095,1094,1430,1431,1438,1437
915, 1088,1089,1096,1095,1431,1432,1439,1438
916, 1089,1090,1097,1096,1432,1433,1440,1439
917, 1090,1091,1098,1097,1433,1434,1441,1440
918, 1091,1092,1099,1098,1434,1435,1442,1441
919, 1093,1094,1101,1100,1436,1437,1444,1443
920, 1094,1095,1102,1101,1437,1438,1445,1444
921, 1095,1096,1103,1102,1438,1439,1446,1445
922, 1096,1097,1104,1103,1439,1440,1447,1446
923, 1097,1098,1105,1104,1440,1441,1448,1447
924, 1098,1099,1106,1105,1441,1442,1449,1448
925, 1100,1101,1108,1107,1443,1444,1451,1450
926, 1101,1102,1109,1108,1444,1445,1452,1451
927, 1102,1103,1110,1109,1445,1446,1453,1452
928, 1103,1104,1111,1110,1446,1447,1454,1453
929, 1104,1105,1112,1111,1447,1448,1455,1454
930, 1105,1106,1113,1112,1448,1449,1456,1455
931, 1107,1108,1115,1114,1450,1451,1458,1457
932, 1108,1109,1116,1115,1451,1452,1459,1458
933, 1109,1110,1117,1116,1452,1453,1460,1459
934, 1110,1111,1118,1117,1453,1454,1461,1460
935, 1111,1112,1119,1118,1454,1455,1462,1461
936, 1112,1113,1120,1119,1455,1456,1463,1462
937, 1114,1115,1122,1121,1457,1458,1465,1464
938, 1115,1116,1123,1122,1458,1459,1466,1465
939, 1116,1117,1124,1123,1459,1460,1467,1466
940, 1117,1118,1125,1124,1460,1461,1468,1467
941, 1118,1119,1126,1125,1461,1462,1469,1468
942, 1119,1120,1127,1126,1462,1463,1470,1469
943, 1121,1122,1129,1128,1464,1465,1472,1471
944, 1122,1123,1130,1129,1465,1466,1473,1472
945, 1123,1124,1131,1130,1466,1467,1474,1473
946, 1124,1125,1132,1131,1467,1468,1475,1474
947, 1125,1126,1133,1132,1468,1469,1476,1475
948, 1126,1127,1134,1133,1469,1470,1477,1476
949, 1128,1129,1136,1135,1471,1472,1479,1478
950, 1129,1130,1137,1136,1472,1473,1480,1479
951, 1130,1131,1138,1137,1473,1474,1481,1480
952, 1131,1132,1139,1138,1474,1475,1482,1481
953, 1132,1133,1140,1139,1475,1476,1483,1482
954, 1133,1134,1141,1140,1476,1477,1484,1483
955, 1135,1136,1143,1142,1478,1479,1486,1485
956, 1136,1137,1144,1143,1479,1480,1487,1486
957, 1137,1138,1145,1144,1480,1481,1488,1487
958, 1138,1139,1146,1145,1481,1482,1489,1488
959, 1139,1140,1147,1146,1482,1483,1490,1489
960, 1140,1141,1148,1147,1483,1484,1491,1490
961, 1142,1143,1150,1149,1485,1486,1493,1492
962, 1143,1144,1151,1150,1486,1487,1494,1493
963, 1144,1145,1152,1151,1487,1488,1495,1494
964, 1145,1146,1153,1152,1488,1489,1496,1495
965, 1146,1147,1154,1153,1489,1490,1497,1496
966, 1147,1148,1155,1154,1490,1491,1498,1497
967, 1149,1150,1157,1156,1492,1493,1500,1499
968, 1150,1151,1158,1157,1493,1494,1501,1500
969, 1151,1152,1159,1158,1494,1495,1502,1501
970, 1152,1153,1160,1159,1495,1496,1503,1502
971, 1153,1154,1161,1160,1496,1497,1504,1503
972, 1154,1155,1162,1161,1497,1498,1505,1504
973, 1156,1157,1164,1163,1499,1500,1507,1506
974, 1157,1158,1165,1164,1500,1501,1508,1507
975, 1158,1159,1166,1165,1501,1502,1509,1508
976, 1159,1160,1167,1166,1502,1503,1510,1509
977, 1160,1161,1168,1167,1503,1504,1511,1510
978, 1161,1162,1169,1168,1504,1505,1512,1511
979, 1163,1164,1171,1170,1506,1507,1514,1513
980, 1164,1165,1172,1171,1507,1508,1515,1514
981, 1165,1166,1173,1172,1508,1509,1516,1515
982, 1166,1167,1174,1173,1509,1510,1517,1516
983, 1167,1168,1175,1174,1510,1511,1518,1517
984, 1168,1169,1176,1175,1511,1512,1519,1518
985, 1170,1171,1178,1177,1513,1514,1521,1520
986, 1171,1172,1179,1178,1514,1515,1522,1521
987, 1172,1173,1180,1179,1515,1516,1523,1522
988, 1173,1174,1181,1180,1516,1517,1524,1523
989, 1174,1175,1182,1181,1517,1518,1525,1524
990, 1175,1176,1183,1182,1518,1519,1526,1525
991, 1177,1178,1185,1184,1520,1521,1528,1527
992, 1178,1179,1186,1185,1521,1522,1529,1528
993, 1179,1180,1187,1186,1522,1523,1530,1529
994, 1180,1181,1188,1187,1523,1524,1531,1530
995, 1181,1182,1189,1188,1524,1525,1532,1531
996, 1182,1183,1190,1189,1525,1526,1533,1532
997, 1184,1185,1192,1191,1527,1528,1535,1534
998, 1185,1186,1193,1192,1528,1529,1536,1535
999, 1186,1187,1194,1193,1529,1530,1537,1536
1000, 1187,1188,1195,1194,1530,1531,1538,1537
1001, 1188,1189,1196,1195,1531,1532,1539,1538
1002, 1189,1190,1197,1196,1532,1533,1540,1539
1003, 1191,1192,1199,1198,1534,1535,1542,1541
1004, 1192,1193,1200,1199,1535,1536,1543,1542
1005, 1193,1194,1201,1200,1536,1537,1544,1543
1006, 1194,1195,1202,1201,1537,1538,1545,1544
1007, 1195,1196,1203,1202,1538,1539,1546,1545
1008, 1196,1197,1204,1203,1539,1540,1547,1546
1009, 1198,1199,1206,1205,1541,1542,1549,1548
1010, 1199,1200,1207,1206,1542,1543,1550,1549
1011, 1200,1201,1208,1207,1543,1544,1551,1550
1012, 1201,1202,1209,1208,1544,1545,1552,1551
1013, 1202,1203,1210,1209,1545,1546,1553,1552
1014, 1203,1204,1211,1210,1546,1547,1554,1553
1015, 1205,1206,1213,1212,1548,1549,1556,1555
1016, 1206,1207,1214,1213,1549,1550,1557,1556
1017, 1207,1208,1215,1214,1550,1551,1558,1557
1018, 1208,1209,1216,1215,1551,1552,1559,1558
1019, 1209,1210,1217,1216,1552,1553,1560,1559
1020, 1210,1211,1218,1217,1553,1554,1561,1560
1021, 1212,1213,1220,1219,1555,1556,1563,1562
1022, 1213,1214,1221,1220,1556,1557,1564,1563
1023, 1214,1215,1222,1221,1557,1558,1565,1564
1024, 1215,1216,1223,1222,1558,1559,1566,1565
1025, 1216,1217,1224,1223,1559,1560,1567,1566
1026, 1217,1218,1225,1224,1560,1561,1568,1567
1027, 1219,1220,1227,1226,1562,1563,1570,1569
1028, 1220,1221,1228,1227,1563,1564,1571,1570
1029, 1221,1222,1229,1228,1564,1565,1572,1571
1030, 1222,1223,1230,1229,1565,1566,1573,1572
1031, 1223,1224,1231,1230,1566,1567,1574,1573
1032, 1224,1225,1232,1231,1567,1568,1575,1574
1033, 1226,1227,1234,1233,1569,1570,1577,1576
1034, 1227,1228,1235,1234,1570,1571,1578,1577
1035, 1228,1229,1236,1235,1571,1572,1579,1578
1036, 1229,1230,1237,1236,1572,1573,1580,1579
1037, 1230,1231,1238,1237,1573,1574,1581,1580
1038, 1231,1232,1239,1238,1574,1575,1582,1581
1039, 1233,1234,1241,1240,1576,1577,1584,1583
1040, 1234,1235,1242,1241,1577,1578,1585,1584
1041, 1235,1236,1243,1242,1578,1579,1586,1585
1042, 1236,1237,1244,1243,1579,1580,1587,1586
1043, 1237,1238,1245,1244,1580,1581,1588,1587
1044, 1238,1239,1246,1245,1581,1582,1589,1588
1045, 1240,1241,1248,1247,1583,1584,1591,1590
1046, 1241,1242,1249,1248,1584,1585,1592,1591
1047, 1242,1243,1250,1249,1585,1586,1593,1592
1048, 1243,1244,1251,1250,1586,1587,1594,1593
1049, 1244,1245,1252,1251,1587,1588,1595,1594
1050, 1245,1246,1253,1252,1588,1589,1596,1595
1051, 1247,1248,1255,1254,1590,1591,1598,1597
1052, 1248,1249,1256,1255,1591,1592,1599,1598
1053, 1249,1250,1257,1256,1592,1593,1600,1599
1054, 1250,1251,1258,1257,1593,1594,1601,1600
1055, 1251,1252,1259,1258,1594,1595,1602,1601
1056, 1252,1253,1260,1259,1595,1596,1603,1602
1057, 1254,1255,1262,1261,1597,1598,1605,1604
1058, 1255,1256,1263,1262,1598,1599,1606,1605
1059, 1256,1257,1264,1263,1599,1600,1607,1606
1060, 1257,1258,1265,1264,1600,1601,1608,1607
1061, 1258,1259,1266,1265,1601,1602,1609,1608
1062, 1259,1260,1267,1266,1602,1603,1610,1609
1063, 1261,1262,1269,1268,1604,1605,1612,1611
1064, 1262,1263,1270,1269,1605,1606,1613,1612
1065, 1263,1264,1271,1270,1606,1607,1614,1613
1066, 1264,1265,1272,1271,1607,1608,1615,1614
1067, 1265,1266,1273,1272,1608,1609,1616,1615
1068, 1266,1267,1274,1273,1609,1610,1617,1616
1069, 1268,1269,1276,1275,1611,1612,1619,1618
1070, 1269,1270,1277,1276,1612,1613,1620,1619
1071, 1270,1271,1278,1277,1613,1614,1621,1620
1072, 1271,1272,1279,1278,1614,1615,1622,1621
1073, 1272,1273,1280,1279,1615,1616,1623,1622
1074, 1273,1274,1281,1280,1616,1617,1624,1623
1075, 1275,1276,1283,1282,1618,1619,1626,1625
1076, 1276,1277,1284,1283,1619,1620,1627,1626
1077, 1277,1278,1285,1284,1620,1621,1628,1627
1078, 1278,1279,1286,1285,1621,1622,1629,1628
1079, 1279,1280,1287,1286,1622,1623,1630,1629
1080, 1280,1281,1288,1287,1623,1624,1631,1630
1081, 1282,1283,1290,1289,1625,1626,1633,1632
1082, 1283,1284,1291,1290,1626,1627,1634,1633
1083, 1284,1285,1292,1291,1627,1628,1635,1634
1084, 1285,1286,1293,1292,1628,1629,1636,1635
1085, 1286,1287,1294,1293,1629,1630,1637,1636
1086, 1287,1288,1295,1294,1630,1631,1638,1637
1087, 1289,1290,1297,1296,1632,1633,1640,1639
1088, 1290,1291,1298,1297,1633,1634,1641,1640
1089, 1291,1292,1299,1298,1634,1635,1642,1641
1090, 1292,1293,1300,1299,1635,1636,1643,1642
1091, 1293,1294,1301,1300,1636,1637,1644,1643
1092, 1294,1295,1302,1301,1637,1638,1645,1644
1093, 1296,1297,1304,1303,1639,1640,1647,1646
1094, 1297,1298,1305,1304,1640,1641,1648,1647
1095, 1298,1299,1306,1305,1641,1642,1649,1648
1096, 1299,1300,1307,1306,1642,1643,1650,1649
1097, 1300,1301,1308,1307,1643,1644,1651,1650
1098, 1301,1302,1309,1308,1644,1645,1652,1651
1099, 1303,1304,1311,1310,1646,1647,1654,1653
1100, 1304,1305,1312,1311,1647,1648,1655,1654
1101, 1305,1306,1313,1312,1648,1649,1656,1655
1102, 1306,1307,1314,1313,1649,1650,1657,1656
1103, 1307,1308,1315,1314,1650,1651,1658,1657
1104, 1308,1309,1316,1315,1651,1652,1659,1658
1105, 1310,1311,1318,1317,1653,1654,1661,1660
1106, 1311,1312,1319,1318,1654,1655,1662,1661
1107, 1312,1313,1320,1319,1655,1656,1663,1662
1108, 1313,1314,1321,1320,1656,1657,1664,1663
1109, 1314,1315,1322,1321,1657,1658,1665,1664
1110, 1315,1316,1323,1322,1658,1659,1666,1665
1111, 1317,1318,1325,1324,1660,1661,1668,1667
1112, 1318,1319,1326,1325,1661,1662,1669,1668
1113, 1319,1320,1327,1326,1662,1663,1670,1669
1114, 1320,1321,1328,1327,1663,1664,1671,1670
1115, 1321,1322,1329,1328,1664,1665,1672,1671
1116, 1322,1323,1330,1329,1665,1666,1673,1672
1117, 1324,1325,1332,1331,1667,1668,1675,1674
1118, 1325,1326,1333,1332,1668,1669,1676,1675
1119, 1326,1327,1334,1333,1669,1670,1677,1676
1120, 1327,1328,1335,1334,1670,1671,1678,1677
1121, 1328,1329,1336,1335,1671,1672,1679,1678
1122, 1329,1330,1337,1336,1672,1673,1680,1679
1123, 1331,1332,1339,1338,1674,1675,1682,1681
1124, 1332,1333,1340,1339,1675,1676,1683,1682
1125, 1333,1334,1341,1340,1676,1677,1684,1683
1126, 1334,1335,1342,1341,1677,1678,1685,1684
1127, 1335,1336,1343,1342,1678,1679,1686,1685
1128, 1336,1337,1344,1343,1679,1680,1687,1686
1129, 1338,1339,1346,1345,1681,1682,1689,1688
1130, 1339,1340,1347,1346,1682,1683,1690,1689
1131, 1340,1341,1348,1347,1683,1684,1691,1690
1132, 1341,1342,1349,1348,1684,1685,1692,1691
1133, 1342,1343,1350,1349,1685,1686,1693,1692
1134, 1343,1344,1351,1350,1686,1687,1694,1693
1135, 1345,1346,1353,1352,1688,1689,1696,1695
1136, 1346,1347,1354,1353,1689,1690,1697,1696
1137, 1347,1348,1355,1354,1690,1691,1698,1697
1138, 1348,1349,1356,1355,1691,1692,1699,1698
1139, 1349,1350,1357,1356,1692,1693,1700,1699
1140, 1350,1351,1358,1357,1693,1694,1701,1700
1141, 1352,1353,1360,1359,1695,1696,1703,1702
1142, 1353,1354,1361,1360,1696,1697,1704,1703
1143, 1354,1355,1362,1361,1697,1698,1705,1704
1144, 1355,1356,1363,1362,1698,1699,1706,1705
1145, 1356,1357,1364,1363,1699,1700,1707,1706
1146, 1357,1358,1365,1364,1700,1701,1708,1707
1147, 1359,1360,1367,1366,1702,1703,1710,1709
1148, 1360,1361,1368,1367,1703,1704,1711,1710
1149, 1361,1362,1369,1368,1704,1705,1712,1711
1150, 1362,1363,1370,1369,1705,1706,1713,1712
1151, 1363,1364,1371,1370,1706,1707,1714,1713
1152, 1364,1365,1372,1371,1707,1708,1715,1714
1153, 1373,1374,1381,1380,1716,1717,1724,1723
1154, 1374,1375,1382,1381,1717,1718,1725,1724
1155, 1375,1376,1383,1382,1718,1719,1726,1725
1156, 1376,1377,1384,1383,1719,1720,1727,1726
1157, 1377,1378,1385,1384,1720,1721,1728,1727
1158, 1378,1379,1386,1385,1721,1722,1729,1728
1159, 1380,1381,1388,1387,1723,1724,1731,1730
1160, 1381,1382,1389,1388,1724,1725,1732,1731
1161, 1382,1383,1390,1389,1725,1726,1733,1732
1162, 1383,1384,1391,1390,1726,1727,1734,1733
1163, 1384,1385,1392,1391,1727,1728,1735,1734
1164, 1385,1386,1393,1392,1728,1729,1736,1735
1165, 1387,1388,1395,1394,1730,1731,1738,1737
1166, 1388,1389,1396,1395,1731,1732,1739,1738
1167, 1389,1390,1397,1396,1732,1733,1740,1739
1168, 1390,1391,1398,1397,1733,1734,1741,1740
1169, 1391,1392,1399,1398,1734,1735,1742,1741
1170, 1392,1393,1400,1399,1735,1736,1743,1742
1171, 1394,1395,1402,1401,1737,1738,1745,1744
1172, 1395,1396,1403,1402,1738,1739,1746,1745
1173, 1396,1397,1404,1403,1739,1740,1747,1746
1174, 1397,1398,1405,1404,1740,1741,1748,1747
1175, 1398,1399,1406,1405,1741,1742,1749,1748
1176, 1399,1400,1407,1406,1742,1743,1750,1749
1177, 1401,1402,1409,1408,1744,1745,1752,1751
1178, 1402,1403,1410,1409,1745,1746,1753,1752
1179, 1403,1404,1411,1410,1746,1747,1754,1753
1180, 1404,1405,1412,1411,1747,1748,1755,1754
1181, 1405,1406,1413,1412,1748,1749,1756,1755
1182, 1406,1407,1414,1413,1749,1750,1757,1756
1183, 1408,1409,1416,1415,1751,1752,1759,1758
1184, 1409,1410,1417,1416,1752,1753,1760,1759
1185, 1410,1411,1418,1417,1753,1754,1761,1760
1186, 1411,1412,1419,1418,1754,1755,1762,1761
1187, 1412,1413,1420,1419,1755,1756,1763,1762
1188, 1413,1414,1421,1420,1756,1757,1764,1763
1189, 1415,1416,1423,1422,1758,1759,1766,1765
1190, 1416,1417,1424,1423,1759,1760,1767,1766
1191, 1417,1418,1425,1424,1760,1761,1768,1767
1192, 1418,1419,1426,1425,1761,1762,1769,1768
1193, 1419,1420,1427,1426,1762,1763,1770,1769
1194, 1420,1421,1428,1427,1763,1764,1771,1770
1195, 1422,1423,1430,1429,1765,1766,1773,1772
1196, 1423,1424,1431,1430,1766,1767,1774,1773
1197, 1424,1425,1432,1431,1767,1768,1775,1774
1198, 1425,1426,1433,1432,1768,1769,1776,1775
1199, 1426,1427,1434,1433,1769,1770,1777,1776
1200, 1427,1428,1435,1434,1770,1771,1778,1777
1201, 1429,1430,1437,1436,1772,1773,1780,1779
1202, 1430,1431,1438,1437,1773,1774,1781,1780
1203, 1431,1432,1439,1438,1774,1775,1782,1781
1204, 1432,1433,1440,1439,1775,1776,1783,1782
1205, 1433,1434,1441,1440,1776,1777,1784,1783
1206, 1434,1435,1442,1441,1777,1778,1785,1784
1207, 1436,1437,1444,1443,1779,1780,1787,1786
1208, 1437,1438,1445,1444,1780,1781,1788,1787
1209, 1438,1439,1446,1445,1781,1782,1789,1788
1210, 1439,1440,1447,1446,1782,1783,1790,1789
1211, 1440,1441,1448,1447,1783,1784,1791,1790
1212, 1441,1442,1449,1448,1784,1785,1792,1791
1213, 1443,1444,1451,1450,1786,1787,1794,1793
1214, 1444,1445,1452,1451,1787,1788,1795,1794
1215, 1445,1446,1453,1452,1788,1789,1796,1795
1216, 1446,1447,1454,1453,1789,1790,1797,1796
1217, 1447,1448,1455,1454,1790,1791,1798,1797
1218, 1448,1449,1456,1455,1791,1792,1799,1798
1219, 1450,1451,1458,1457,1793,1794,1801,1800
1220, 1451,1452,1459,1458,1794,1795,1802,1801
1221, 1452,1453,1460,1459,1795,1796,1803,1802
1222, 1453,1454,1461,1460,1796,1797,1804,1803
1223, 1454,1455,1462,1461,1797,1798,1805,1804
1224, 1455,1456,1463,1462,1798,1799,1806,1805
1225, 1457,1458,1465,1464,1800,1801,1808,1807
1226, 1458,1459,1466,1465,1801,1802,1809,1808
1227, 1459,1460,1467,1466,1802,1803,1810,1809
1228, 1460,1461,1468,1467,1803,1804,1811,1810
1229, 1461,1462,1469,1468,1804,1805,1812,1811
1230, 1462,1463,1470,1469,1805,1806,1813,1812
1231, 1464,1465,1472,1471,1807,1808,1815,1814
1232, 1465,1466,1473,1472,1808,1809,1816,1815
1233, 1466,1467,1474,1473,1809,1810,1817,1816
1234, 1467,1468,1475,1474,1810,1811,1818,1817
1235, 1468,1469,1476,1475,1811,1812,1819,1818
1236, 1469,1470,1477,1476,1812,1813,1820,1819
1237, 1471,1472,1479,1478,1814,1815,1822,1821
1238, 1472,1473,1480,1479,1815,1816,1823,1822
1239, 1473,1474,1481,1480,1816,1817,1824,1823
1240, 1474,1475,1482,1481,1817,1818,1825,1824
1241, 1475,1476,1483,1482,1818,1819,1826,1825
1242, 1476,1477,1484,1483,1819,1820,1827,1826
1243, 1478,1479,1486,1485,1821,1822,1829,1828
1244, 1479,1480,1487,1486,1822,1823,1830,1829
1245, 1480,1481,1488,1487,1823,1824,1831,1830
1246, 1481,1482,1489,1488,1824,1825,1832,1831
1247, 1482,1483,1490,1489,1825,1826,1833,1832
1248, 1483,1484,1491,1490,1826,1827,1834,1833
1249, 1485,1486,1493,1492,1828,1829,1836,1835
1250, 1486,1487,1494,1493,1829,1830,1837,1836
1251, 1487,1488,1495,1494,1830,1831,1838,1837
1252, 1488,1489,1496,1495,1831,1832,1839,1838
1253, 1489,1490,1497,1496,1832,1833,1840,1839
1254, 1490,1491,1498,1497,1833,1834,1841,1840
1255, 1492,1493,1500,1499,1835,1836,1843,1842
1256, 1493,1494,1501,1500,1836,1837,1844,1843
1257, 1494,1495,1502,1501,1837,1838,1845,1844
1258, 1495,1496,1503,1502,1838,1839,1846,1845
1259, 1496,1497,1504,1503,1839,1840,1847,1846
1260, 1497,1498,1505,1504,1840,1841,1848,1847
1261, 1499,1500,1507,1506,1842,1843,1850,1849
1262, 1500,1501,1508,1507,1843,1844,1851,1850
1263, 1501,1502,1509,1508,1844,1845,1852,1851
1264, 1502,1503,1510,1509,1845,1846,1853,1852
1265, 1503,1504,1511,1510,1846,1847,1854,1853
1266, 1504,1505,1512,1511,1847,1848,1855,1854
1267, 1506,1507,1514,1513,1849,1850,1857,1856
1268, 1507,1508,1515,1514,1850,1851,1858,1857
1269, 1508,1509,1516,1515,1851,1852,1859,1858
1270, 1509,1510,1517,1516,1852,1853,1860,1859
1271, 1510,1511,1518,1517,1853,1854,1861,1860
1272, 1511,1512,1519,1518,1854,1855,1862,1861
1273, 1513,1514,1521,1520,1856,1857,1864,1863
1274, 1514,1515,1522,1521,1857,1858,1865,1864
1275, 1515,1516,1523,1522,1858,1859,1866,1865
1276, 1516,1517,1524,1523,1859,1860,1867,1866
1277, 1517,1518,1525,1524,1860,1861,1868,1867
1278, 1518,1519,1526,1525,1861,1862,1869,1868
1279, 1520,1521,1528,1527,1863,1864,1871,1870
1280, 1521,1522,1529,1528,1864,1865,1872,1871
1281, 1522,1523,1530,1529,1865,1866,1873,1872
1282, 1523,1524,1531,1530,1866,1867,1874,1873
1283, 1524,1525,1532,1531,1867,1868,1875,1874
1284, 1525,1526,1533,1532,1868,1869,1876,1875
1285, 1527,1528,1535,1534,1870,1871,1878,1877
1286, 1528,1529,1536,1535,1871,1872,1879,1878
1287, 1529,1530,1537,1536,1872,1873,1880,1879
1288, 1530,1531,1538,1537,1873,1874,1881,1880
1289, 1531,1532,1539,1538,1874,1875,1882,1881
1290, 1532,1533,1540,1539,1875,1876,1883,1882
1291, 1534,1535,1542,1541,1877,1878,1885,1884
1292, 1535,1536,1543,1542,1878,1879,1886,1885
1293, 1536,1537,1544,1543,1879,1880,1887,1886
1294, 1537,1538,1545,1544,1880,1881,1888,1887
1295, 1538,1539,1546,1545,1881,1882,1889,1888
1296, 1539,1540,1547,1546,1882,1883,1890,1889
1297, 1541,1542,1549,1548,1884,1885,1892,1891
1298, 1542,1543,1550,1549,1885,1886,1893,1892
1299, 1543,1544,1551,1550,1886,1887,1894,1893
1300, 1544,1545,1552,1551,1887,1888,1895,1894
1301, 1545,1546,1553,1552,1888,1889,1896,1895
1302, 1546,1547,1554,1553,1889,1890,1897,1896
1303, 1548,1549,1556,1555,1891,1892,1899,1898
1304, 1549,1550,1557,1556,1892,1893,1900,1899
1305, 1550,1551,1558,1557,1893,1894,1901,1900
1306, 1551,1552,1559,1558,1894,1895,1902,1901
1307, 1552,1553,1560,1559,1895,1896,1903,1902
1308, 1553,1554,1561,1560,1896,1897,1904,1903
1309, 1555,1556,1563,1562,1898,1899,1906,1905
1310, 1556,1557,1564,1563,1899,1900,1907,1906
1311, 1557,1558,1565,1564,1900,1901,1908,1907
1312, 1558,1559,1566,1565,1901,1902,1909,1908
1313, 1559,1560,1567,1566,1902,1903,1910,1909
1314, 1560,1561,1568,1567,1903,1904,1911,1910
1315, 1562,1563,1570,1569,1905,1906,1913,1912
1316, 1563,1564,1571,1570,1906,1907,1914,1913
1317, 1564,1565,1572,1571,1907,1908,1915,1914
1318, 1565,1566,1573,1572,1908,1909,1916,1915
1319, 1566,1567,1574,1573,1909,1910,1917,1916
1320, 1567,1568,1575,1574,1910,1911,1918,1917
1321, 1569,1570,1577,1576,1912,1913,1920,1919
1322, 1570,1571,1578,1577,1913,1914,1921,1920
1323, 1571,1572,1579,1578,1914,1915,1922,1921
1324, 1572,1573,1580,1579,1915,1916,1923,1922
1325, 1573,1574,1581,1580,1916,1917,1924,1923
1326, 1574,1575,1582,1581,1917,1918,1925,1924
1327, 1576,1577,1584,1583,1919,1920,1927,1926
1328, 1577,1578,1585,1584,1920,1921,1928,1927
1329, 1578,1579,1586,1585,1921,1922,1929,1928
1330, 1579,1580,1587,1586,1922,1923,1930,1929
1331, 1580,1581,1588,1587,1923,1924,1931,1930
1332, 1581,1582,1589,1588,1924,1925,1932,1931
1333, 1583,1584,1591,1590,1926,1927,1934,1933
1334, 1584,1585,1592,1591,1927,1928,1935,1934
1335, 1585,1586,1593,1592,1928,1929,1936,1935
1336, 1586,1587,1594,1593,1929,1930,1937,1936
1337, 1587,1588,1595,1594,1930,1931,1938,1937
1338, 1588,1589,1596,1595,1931,1932,1939,1938
1339, 1590,1591,1598,1597,1933,1934,1941,1940
1340, 1591,1592,1599,1598,1934,1935,1942,1941
1341, 1592,1593,1600,1599,1935,1936,1943,1942
1342, 1593,1594,1601,1600,1936,1937,1944,1943
1343, 1594,1595,1602,1601,1937,1938,1945,1944
1344, 1595,1596,1603,1602,1938,1939,1946,1945
1345, 1597,1598,1605,1604,1940,1941,1948,1947
1346, 1598,1599,1606,1605,1941,1942,1949,1948
1347, 1599,1600,1607,1606,1942,1943,1950,1949
1348, 1600,1601,1608,1607,1943,1944,1951,1950
1349, 1601,1602,1609,1608,1944,1945,1952,1951
1350, 1602,1603,1610,1609,1945,1946,1953,1952
1351, 1604,1605,1612,1611,1947,1948,1955,1954
1352, 1605,1606,1613,1612,1948,1949,1956,1955
1353, 1606,1607,1614,1613,1949,1950,1957,1956
1354, 1607,1608,1615,1614,1950,1951,1958,1957
1355, 1608,1609,1616,1615,1951,1952,1959,1958
1356, 1609,1610,1617,1616,1952,1953,1960,1959
1357, 1611,1612,1619,1618,1954,1955,1962,1961
1358, 1612,1613,1620,1619,1955,1956,1963,1962
1359, 1613,1614,1621,1620,1956,1957,1964,1963
1360, 1614,1615,1622,1621,1957,1958,1965,1964
1361, 1615,1616,1623,1622,1958,1959,1966,1965
1362, 1616,1617,1624,1623,1959,1960,1967,1966
1363, 1618,1619,1626,1625,1961,1962,1969,1968
1364, 1619,1620,1627,1626,1962,1963,1970,1969
1365, 1620,1621,1628,1627,1963,1964,1971,1970
1366, 1621,1622,1629,1628,1964,1965,1972,1971
1367, 1622,1623,1630,1629,1965,1966,1973,1972
1368, 1623,1624,1631,1630,1966,1967,1974,1973
1369, 1625,1626,1633,1632,1968,1969,1976,1975
1370, 1626,1627,1634,1633,1969,1970,1977,1976
1371, 1627,1628,1635,1634,1970,1971,1978,1977
1372, 1628,1629,1636,1635,1971,1972,1979,1978
1373, 1629,1630,1637,1636,1972,1973,1980,1979
1374, 1630,1631,1638,1637,1973,1974,1981,1980
1375, 1632,1633,1640,1639,1975,1976,1983,1982
1376, 1633,1634,1641,1640,1976,1977,1984,1983
1377, 1634,1635,1642,1641,1977,1978,1985,1984
1378, 1635,1636,1643,1642,1978,1979,1986,1985
1379, 1636,1637,1644,1643,1979,1980,1987,1986
1380, 1637,1638,1645,1644,1980,1981,1988,1987
1381, 1639,1640,1647,1646,1982,1983,1990,1989
1382, 1640,1641,1648,1647,1983,1984,1991,1990
1383, 1641,1642,1649,1648,1984,1985,1992,1991
1384, 1642,1643,1650,1649,1985,1986,1993,1992
1385, 1643,1644,1651,1650,1986,1987,1994,1993
1386, 1644,1645,1652,1651,1987,1988,1995,1994
1387, 1646,1647,1654,1653,1989,1990,1997,1996
1388, 1647,1648,1655,1654,1990,1991,1998,1997
1389, 1648,1649,1656,1655,1991,1992,1999,1998
1390, 1649,1650,1657,1656,1992,1993,2000,1999
1391, 1650,1651,1658,1657,1993,1994,2001,2000
1392, 1651,1652,1659,1658,1994,1995,2002,2001
1393, 1653,1654,1661,1660,1996,1997,2004,2003
1394, 1654,1655,1662,1661,1997,1998,2005,2004
1395, 1655,1656,1663,1662,1998,1999,2006,2005
1396, 1656,1657,1664,1663,1999,2000,2007,2006
1397, 1657,1658,1665,1664,2000,2001,2008,2007
1398, 1658,1659,1666,1665,2001,2002,2009,2008
1399, 1660,1661,1668,1667,2003,2004,2011,2010
1400, 1661,1662,1669,1668,2004,2005,2012,2011
1401, 1662,1663,1670,1669,2005,2006,2013,2012
1402, 1663,1664,1671,1670,2006,2007,2014,2013
1403, 1664,1665,1672,1671,2007,2008,2015,2014
1404, 1665,1666,1673,1672,2008,2009,2016,2015
1405, 1667,1668,1675,1674,2010,2011,2018,2017
1406, 1668,1669,1676,1675,2011,2012,2019,2018
1407, 1669,1670,1677,1676,2012,2013,2020,2019
1408, 1670,1671,1678,1677,2013,2014,2021,2020
1409, 1671,1672,1679,1678,2014,2015,2022,2021
1410, 1672,1673,1680,1679,2015,2016,2023,2022
1411, 1674,1675,1682,1681,2017,2018,2025,2024
1412, 1675,1676,1683,1682,2018,2019,2026,2025
1413, 1676,1677,1684,1683,2019,2020,2027,2026
1414, 1677,1678,1685,1684,2020,2021,2028,2027
1415, 1678,1679,1686,1685,2021,2022,2029,2028
1416, 1679,1680,1687,1686,2022,2023,2030,2029
1417, 1681,1682,1689,1688,2024,2025,2032,2031
1418, 1682,1683,1690,1689,2025,2026,2033,2032
1419, 1683,1684,1691,1690,2026,2027,2034,2033
1420, 1684,1685,1692,1691,2027,2028,2035,2034
1421, 1685,1686,1693,1692,2028,2029,2036,2035
1422, 1686,1687,1694,1693,2029,2030,2037,2036
1423, 1688,1689,1696,1695,2031,2032,2039,2038
1424, 1689,1690,1697,1696,2032,2033,2040,2039
1425, 1690,1691,1698,1697,2033,2034,2041,2040
1426, 1691,1692,1699,1698,2034,2035,2042,2041
1427, 1692,1693,1700,1699,2035,2036,2043,2042
1428, 1693,1694,1701,1700,2036,2037,2044,2043
1429, 1695,1696,1703,1702,2038,2039,2046,2045
1430, 1696,1697,1704,1703,2039,2040,2047,2046
1431, 1697,1698,1705,1704,2040,2041,2048,2047
1432, 1698,1699,1706,1705,2041,2042,2049,2048
1433, 1699,1700,1707,1706,2042,2043,2050,2049
1434, 1700,1701,1708,1707,2043,2044,2051,2050
1435, 1702,1703,1710,1709,2045,2046,2053,2052
1436, 1703,1704,1711,1710,2046,2047,2054,2053
1437, 1704,1705,1712,1711,2047,2048,2055,2054
1438, 1705,1706,1713,1712,2048,2049,2056,2055
1439, 1706,1707,1714,1713,2049,2050,2057,2056
1440, 1707,1708,1715,1714,2050,2051,2058,2057
1441, 1716,1717,1724,1723,2059,2060,2067,2066
1442, 1717,1718,1725,1724,2060,2061,2068,2067
1443, 1718,1719,1726,1725,2061,2062,2069,2068
1444, 1719,1720,1727,1726,2062,2063,2070,2069
1445, 1720,1721,1728,1727,2063,2064,2071,2070
1446, 1721,1722,1729,1728,2064,2065,2072,2071
1447, 1723,1724,1731,1730,2066,2067,2074,2073
1448, 1724,1725,1732,1731,2067,2068,2075,2074
1449, 1725,1726,1733,1732,2068,2069,2076,2075
1450, 1726,1727,1734,1733,2069,2070,2077,2076
1451, 1727,1728,1735,1734,2070,2071,2078,2077
1452, 1728,1729,1736,1735,2071,2072,2079,2078
1453, 1730,1731,1738,1737,2073,2074,2081,2080
1454, 1731,1732,1739,1738,2074,2075,2082,2081
1455, 1732,1733,1740,1739,2075,2076,2083,2082
1456, 1733,1734,1741,1740,2076,2077,2084,2083
1457, 1734,1735,1742,1741,2077,2078,2085,2084
1458, 1735,1736,1743,1742,2078,2079,2086,2085
1459, 1737,1738,1745,1744,2080,2081,2088,2087
1460, 1738,1739,1746,1745,2081,2082,2089,2088
1461, 1739,1740,1747,1746,2082,2083,2090,2089
1462, 1740,1741,1748,1747,2083,2084,2091,2090
1463, 1741,1742,1749,1748,2084,2085,2092,2091
1464, 1742,1743,1750,1749,2085,2086,2093,2092
1465, 1744,1745,1752,1751,2087,2088,2095,2094
1466, 1745,1746,1753,1752,2088,2089,2096,2095
1467, 1746,1747,1754,1753,2089,2090,2097,2096
1468, 1747,1748,1755,1754,2090,2091,2098,2097
1469, 1748,1749,1756,1755,2091,2092,2099,2098
1470, 1749,1750,1757,1756,2092,2093,2100,2099
1471, 1751,1752,1759,1758,2094,2095,2102,2101
1472, 1752,1753,1760,1759,2095,2096,2103,2102
1473, 1753,1754,1761,1760,2096,2097,2104,2103
1474, 1754,1755,1762,1761,2097,2098,2105,2104
1475, 1755,1756,1763,1762,2098,2099,2106,2105
1476, 1756,1757,1764,1763,2099,2100,2107,2106
1477, 1758,1759,1766,1765,2101,2102,2109,2108
1478, 1759,1760,1767,1766,2102,2103,2110,2109
1479, 1760,1761,1768,1767,2103,2104,2111,2110
1480, 1761,1762,1769,1768,2104,2105,2112,2111
1481, 1762,1763,1770,1769,2105,2106,2113,2112
1482, 1763,1764,1771,1770,2106,2107,2114,2113
1483, 1765,1766,1773,1772,2108,2109,2116,2115
1484, 1766,1767,1774,1773,2109,2110,2117,2116
1485, 1767,1768,1775,1774,2110,2111,2118,2117
1486, 1768,1769,1776,1775,2111,2112,2119,2118
1487, 1769,1770,1777,1776,2112,2113,2120,2119
1488, 1770,1771,1778,1777,2113,2114,2121,2120
1489, 1772,1773,1780,1779,2115,2116,2123,2122
1490, 1773,1774,1781,1780,2116,2117,2124,2123
1491, 1774,1775,1782,1781,2117,2118,2125,2124
1492, 1775,1776,1783,1782,2118,2119,2126,2125
1493, 1776,1777,1784,1783,2119,2120,2127,2126
1494, 1777,1778,1785,1784,2120,2121,2128,2127
1495, 1779,1780,1787,1786,2122,2123,2130,2129
1496, 1780,1781,1788,1787,2123,2124,2131,2130
1497, 1781,1782,1789,1788,2124,2125,2132,2131
1498, 1782,1783,1790,1789,2125,2126,2133,2132
1499, 1783,1784,1791,1790,2126,2127,2134,2133
1500, 1784,1785,1792,1791,2127,2128,2135,2134
1501, 1786,1787,1794,1793,2129,2130,2137,2136
1502, 1787,1788,1795,1794,2130,2131,2138,2137
1503, 1788,1789,1796,1795,2131,2132,2139,2138
1504, 1789,1790,1797,1796,2132,2133,2140,2139
1505, 1790,1791,1798,1797,2133,2134,2141,2140
1506, 1791,1792,1799,1798,2134,2135,2142,2141
1507, 1793,1794,1801,1800,2136,2137,2144,2143
1508, 1794,1795,1802,1801,2137,2138,2145,2144
1509, 1795,1796,1803,1802,2138,2139,2146,2145
1510, 1796,1797,1804,1803,2139,2140,2147,2146
1511, 1797,1798,1805,1804,2140,2141,2148,2147
1512, 1798,1799,1806,1805,2141,2142,2149,2148
1513, 1800,1801,1808,1807,2143,2144,2151,2150
1514, 1801,1802,1809,1808,2144,2145,2152,2151
1515, 1802,1803,1810,1809,2145,2146,2153,2152
1516, 1803,1804,1811,1810,2146,2147,2154,2153
1517, 1804,1805,1812,1811,2147,2148,2155,2154
1518, 1805,1806,1813,1812,2148,2149,2156,2155
1519, 1807,1808,1815,1814,2150,2151,2158,2157
1520, 1808,1809,1816,1815,2151,2152,2159,2158
1521, 1809,1810,1817,1816,2152,2153,2160,2159
1522, 1810,1811,1818,1817,2153,2154,2161,2160
1523, 1811,1812,1819,1818,2154,2155,2162,2161
1524, 1812,1813,1820,1819,2155,2156,2163,2162
1525, 1814,1815,1822,1821,2157,2158,2165,2164
1526, 1815,1816,1823,1822,2158,2159,2166,2165
1527, 1816,1817,1824,1823,2159,2160,2167,2166
1528, 1817,1818,1825,1824,2160,2161,2168,2167
1529, 1818,1819,1826,1825,2161,2162,2169,2168
1530, 1819,1820,1827,1826,2162,2163,2170,2169
1531, 1821,1822,1829,1828,2164,2165,2172,2171
1532, 1822,1823,1830,1829,2165,2166,2173,2172
1533, 1823,1824,1831,1830,2166,2167,2174,2173
1534, 1824,1825,1832,1831,2167,2168,2175,2174
1535, 1825,1826,1833,1832,2168,2169,2176,2175
1536, 1826,1827,1834,1833,2169,2170,2177,2176
1537, 1828,1829,1836,1835,2171,2172,2179,2178
1538, 1829,1830,1837,1836,2172,2173,2180,2179
1539, 1830,1831,1838,1837,2173,2174,2181,2180
1540, 1831,1832,1839,1838,2174,2175,2182,2181
1541, 1832,1833,1840,1839,2175,2176,2183,2182
1542, 1833,1834,1841,1840,2176,2177,2184,2183
1543, 1835,1836,1843,1842,2178,2179,2186,2185
1544, 1836,1837,1844,1843,2179,2180,2187,2186
1545, 1837,1838,1845,1844,2180,2181,2188,2187
1546, 1838,1839,1846,1845,2181,2182,2189,2188
1547, 1839,1840,1847,1846,2182,2183,2190,2189
1548, 1840,1841,1848,1847,2183,2184,2191,2190
1549, 1842,1843,1850,1849,2185,2186,2193,2192
1550, 1843,1844,1851,1850,2186,2187,2194,2193
1551, 1844,1845,1852,1851,2187,2188,2195,2194
1552, 1845,1846,1853,1852,2188,2189,2196,2195
1553, 1846,1847,1854,1853,2189,2190,2197,2196
1554, 1847,1848,1855,1854,2190,2191,2198,2197
1555, 1849,1850,1857,1856,2192,2193,2200,2199
1556, 1850,1851,1858,1857,2193,2194,2201,2200
1557, 1851,1852,1859,1858,2194,2195,2202,2201
1558, 1852,1853,1860,1859,2195,2196,2203,2202
1559, 1853,1854,1861,1860,2196,2197,2204,2203
1560, 1854,1855,1862,1861,2197,2198,2205,2204
1561, 1856,1857,1864,1863,2199,2200,2207,2206
1562, 1857,1858,1865,1864,2200,2201,2208,2207
1563, 1858,1859,1866,1865,2201,2202,2209,2208
1564, 1859,1860,1867,1866,2202,2203,2210,2209
1565, 1860,1861,1868,1867,2203,2204,2211,2210
1566, 1861,1862,1869,1868,2204,2205,2212,2211
1567, 1863,1864,1871,1870,2206,2207,2214,2213
1568, 1864,1865,1872,1871,2207,2208,2215,2214
1569, 1865,1866,1873,1872,2208,2209,2216,2215
1570, 1866,1867,1874,1873,2209,2210,2217,2216
1571, 1867,1868,1875,1874,2210,2211,2218,2217
1572, 1868,1869,1876,1875,2211,2212,2219,2218
1573, 1870,1871,1878,1877,2213,2214,2221,2220
1574, 1871,1872,1879,1878,2214,2215,2222,2221
1575, 1872,1873,1880,1879,2215,2216,2223,2222
1576, 1873,1874,1881,1880,2216,2217,2224,2223
1577, 1874,1875,1882,1881,2217,2218,2225,2224
1578, 1875,1876,1883,1882,2218,2219,2226,2225
1579, 1877,1878,1885,1884,2220,2221,2228,2227
1580, 1878,1879,1886,1885,2221,2222,2229,2228
1581, 1879,1880,1887,1886,2222,2223,2230,2229
1582, 1880,1881,1888,1887,2223,2224,2231,2230
1583, 1881,1882,1889,1888,2224,2225,2232,2231
1584, 1882,1883,1890,1889,2225,2226,2233,2232
1585, 1884,1885,1892,1891,2227,2228,2235,2234
1586, 1885,1886,1893,1892,2228,2229,2236,2235
1587, 1886,1887,1894,1893,2229,2230,2237,2236
1588, 1887,1888,1895,1894,2230,2231,2238,2237
1589, 1888,1889,1896,1895,2231,2232,2239,2238
1590, 1889,1890,1897,1896,2232,2233,2240,2239
1591, 1891,1892,1899,1898,2234,2235,2242,2241
1592, 1892,1893,1900,1899,2235,2236,2243,2242
1593, 1893,1894,1901,1900,2236,2237,2244,2243
1594, 1894,1895,1902,1901,2237,2238,2245,2244
1595, 1895,1896,1903,1902,2238,2239,2246,2245
1596, 1896,1897,1904,1903,2239,2240,2247,2246
1597, 1898,1899,1906,1905,2241,2242,2249,2248
1598, 1899,1900,1907,1906,2242,2243,2250,2249
1599, 1900,1901,1908,1907,2243,2244,2251,2250
1600, 1901,1902,1909,1908,2244,2245,2252,2251
1601, 1902,1903,1910,1909,2245,2246,2253,2252
1602, 1903,1904,1911,1910,2246,2247,2254,2253
1603, 1905,1906,1913,1912,2248,2249,2256,2255
1604, 1906,1907,1914,1913,2249,2250,2257,2256
1605, 1907,1908,1915,1914,2250,2251,2258,2257
1606, 1908,1909,1916,1915,2251,2252,2259,2258
1607, 1909,1910,1917,1916,2252,2253,2260,2259
1608, 1910,1911,1918,1917,2253,2254,2261,2260
1609, 1912,1913,1920,1919,2255,2256,2263,2262
1610, 1913,1914,1921,1920,2256,2257,2264,2263
1611, 1914,1915,1922,1921,2257,2258,2265,2264
1612, 1915,1916,1923,1922,2258,2259,2266,2265
1613, 1916,1917,1924,1923,2259,2260,2267,2266
1614, 1917,1918,1925,1924,2260,2261,2268,2267
1615, 1919,1920,1927,1926,2262,2263,2270,2269
1616, 1920,1921,1928,1927,2263,2264,2271,2270
1617, 1921,1922,1929,1928,2264,2265,2272,2271
1618, 1922,1923,1930,1929,2265,2266,2273,2272
1619, 1923,1924,1931,1930,2266,2267,2274,2273
1620, 1924,1925,1932,1931,2267,2268,2275,2274
1621, 1926,1927,1934,1933,2269,2270,2277,2276
1622, 1927,1928,1935,1934,2270,2271,2278,2277
1623, 1928,1929,1936,1935,2271,2272,2279,2278
1624, 1929,1930,1937,1936,2272,2273,2280,2279
1625, 1930,1931,1938,1937,2273,2274,2281,2280
1626, 1931,1932,1939,1938,2274,2275,2282,2281
1627, 1933,1934,1941,1940,2276,2277,2284,2283
1628, 1934,1935,1942,1941,2277,2278,2285,2284
1629, 1935,1936,1943,1942,2278,2279,2286,2285
1630, 1936,1937,1944,1943,2279,2280,2287,2286
1631, 1937,1938,1945,1944,2280,2281,2288,2287
1632, 1938,1939,1946,1945,2281,2282,2289,2288
1633, 1940,1941,1948,1947,2283,2284,2291,2290
1634, 1941,1942,1949,1948,2284,2285,2292,2291
1635, 1942,1943,1950,1949,2285,2286,2293,2292
1636, 1943,1944,1951,1950,2286,2287,2294,2293
1637, 1944,1945,1952,1951,2287,2288,2295,2294
1638, 1945,1946,1953,1952,2288,2289,2296,2295
1639, 1947,1948,1955,1954,2290,2291,2298,2297
1640, 1948,1949,1956,1955,2291,2292,2299,2298
1641, 1949,1950,1957,1956,2292,2293,2300,2299
1642, 1950,1951,1958,1957,2293,2294,2301,2300
1643, 1951,1952,1959,1958,2294,2295,2302,2301
1644, 1952,1953,1960,1959,2295,2296,2303,2302
1645, 1954,1955,1962,1961,2297,2298,2305,2304
1646, 1955,1956,1963,1962,2298,2299,2306,2305
1647, 1956,1957,1964,1963,2299,2300,2307,2306
1648, 1957,1958,1965,1964,2300,2301,2308,2307
1649, 1958,1959,1966,1965,2301,2302,2309,2308
1650, 1959,1960,1967,1966,2302,2303,2310,2309
1651, 1961,1962,1969,1968,2304,2305,2312,2311
1652, 1962,1963,1970,1969,2305,2306,2313,2312
1653, 1963,1964,1971,1970,2306,2307,2314,2313
1654, 1964,1965,1972,1971,2307,2308,2315,2314
1655, 1965,1966,1973,1972,2308,2309,2316,2315
1656, 1966,1967,1974,1973,2309,2310,2317,2316
1657, 1968,1969,1976,1975,2311,2312,2319,2318
1658, 1969,1970,1977,1976,2312,2313,2320,2319
1659, 1970,1971,1978,1977,2313,2314,2321,2320
1660, 1971,1972,1979,1978,2314,2315,2322,2321
1661, 1972,1973,1980,1979,2315,2316,2323,2322
1662, 1973,1974,1981,1980,2316,2317,2324,2323
1663, 1975,1976,1983,1982,2318,2319,2326,2325
1664, 1976,1977,1984,1983,2319,2320,2327,2326
1665, 1977,1978,1985,1984,2320,2321,2328,2327
1666, 1978,1979,1986,1985,2321,2322,2329,2328
1667, 1979,1980,1987,1986,2322,2323,2330,2329
1668, 1980,1981,1988,1987,2323,2324,2331,2330
1669, 1982,1983,1990,1989,2325,2326,2333,2332
1670, 1983,1984,1991,1990,2326,2327,2334,2333
1671, 1984,1985,1992,1991,2327,2328,2335,2334
1672, 1985,1986,1993,1992,2328,2329,2336,2335
1673, 1986,1987,1994,1993,2329,2330,2337,2336
1674, 1987,1988,1995,1994,2330,2331,2338,2337
1675, 1989,1990,1997,1996,2332,2333,2340,2339
1676, 1990,1991,1998,1997,2333,2334,2341,2340
1677, 1991,1992,1999,1998,2334,2335,2342,2341
1678, 1992,1993,2000,1999,2335,2336,2343,2342
1679, 1993,1994,2001,2000,2336,2337,2344,2343
1680, 1994,1995,2002,2001,2337,2338,2345,2344
1681, 1996,1997,2004,2003,2339,2340,2347,2346
1682, 1997,1998,2005,2004,2340,2341,2348,2347
1683, 1998,1999,2006,2005,2341,2342,2349,2348
1684, 1999,2000,2007,2006,2342,2343,2350,2349
1685, 2000,2001,2008,2007,2343,2344,2351,2350
1686, 2001,2002,2009,2008,2344,2345,2352,2351
1687, 2003,2004,2011,2010,2346,2347,2354,2353
1688, 2004,2005,2012,2011,2347,2348,2355,2354
1689, 2005,2006,2013,2012,2348,2349,2356,2355
1690, 2006,2007,2014,2013,2349,2350,2357,2356
1691, 2007,2008,2015,2014,2350,2351,2358,2357
1692, 2008,2009,2016,2015,2351,2352,2359,2358
1693, 2010,2011,2018,2017,2353,2354,2361,2360
1694, 2011,2012,2019,2018,2354,2355,2362,2361
1695, 2012,2013,2020,2019,2355,2356,2363,2362
1696, 2013,2014,2021,2020,2356,2357,2364,2363
1697, 2014,2015,2022,2021,2357,2358,2365,2364
1698, 2015,2016,2023,2022,2358,2359,2366,2365
1699, 2017,2018,2025,2024,2360,2361,2368,2367
1700, 2018,2019,2026,2025,2361,2362,2369,2368
1701, 2019,2020,2027,2026,2362,2363,2370,2369
1702, 2020,2021,2028,2027,2363,2364,2371,2370
1703, 2021,2022,2029,2028,2364,2365,2372,2371
1704, 2022,2023,2030,2029,2365,2366,2373,2372
1705, 2024,2025,2032,2031,2367,2368,2375,2374
1706, 2025,2026,2033,2032,2368,2369,2376,2375
1707, 2026,2027,2034,2033,2369,2370,2377,2376
1708, 2027,2028,2035,2034,2370,2371,2378,2377
1709, 2028,2029,2036,2035,2371,2372,2379,2378
1710, 2029,2030,2037,2036,2372,2373,2380,2379
1711, 2031,2032,2039,2038,2374,2375,2382,2381
1712, 2032,2033,2040,2039,2375,2376,2383,2382
1713, 2033,2034,2041,2040,2376,2377,2384,2383
1714, 2034,2035,2042,2041,2377,2378,2385,2384
1715, 2035,2036,2043,2042,2378,2379,2386,2385
1716, 2036,2037,2044,2043,2379,2380,2387,2386
1717, 2038,2039,2046,2045,2381,2382,2389,2388
1718, 2039,2040,2047,2046,2382,2383,2390,2389
1719, 2040,2041,2048,2047,2383,2384,2391,2390
1720, 2041,2042,2049,2048,2384,2385,2392,2391
1721, 2042,2043,2050,2049,2385,2386,2393,2392
1722, 2043,2044,2051,2050,2386,2387,2394,2393
1723, 2045,2046,2053,2052,2388,2389,2396,2395
1724, 2046,2047,2054,2053,2389,2390,2397,2396
1725, 2047,2048,2055,2054,2390,2391,2398,2397
1726, 2048,2049,2056,2055,2391,2392,2399,2398
1727, 2049,2050,2057,2056,2392,2393,2400,2399
1728, 2050,2051,2058,2057,2393,2394,2401,2400
1729, 2059,2060,2067,2066,2402,2403,2410,2409
1730, 2060,2061,2068,2067,2403,2404,2411,2410
1731, 2061,2062,2069,2068,2404,2405,2412,2411
1732, 2062,2063,2070,2069,2405,2406,2413,2412
1733, 2063,2064,2071,2070,2406,2407,2414,2413
1734, 2064,2065,2072,2071,2407,2408,2415,2414
1735, 2066,2067,2074,2073,2409,2410,2417,2416
1736, 2067,2068,2075,2074,2410,2411,2418,2417
1737, 2068,2069,2076,2075,2411,2412,2419,2418
1738, 2069,2070,2077,2076,2412,2413,2420,2419
1739, 2070,2071,2078,2077,2413,2414,2421,2420
1740, 2071,2072,2079,2078,2414,2415,2422,2421
1741, 2073,2074,2081,2080,2416,2417,2424,2423
1742, 2074,2075,2082,2081,2417,2418,2425,2424
1743, 2075,2076,2083,2082,2418,2419,2426,2425
1744, 2076,2077,2084,2083,2419,2420,2427,2426
1745, 2077,2078,2085,2084,2420,2421,2428,2427
1746, 2078,2079,2086,2085,2421,2422,2429,2428
1747, 2080,2081,2088,2087,2423,2424,2431,2430
1748, 2081,2082,2089,2088,2424,2425,2432,2431
1749, 2082,2083,2090,2089,2425,2426,2433,2432
1750, 2083,2084,2091,2090,2426,2427,2434,2433
1751, 2084,2085,2092,2091,2427,2428,2435,2434
1752, 2085,2086,2093,2092,2428,2429,2436,2435
1753, 2087,2088,2095,2094,2430,2431,2438,2437
1754, 2088,2089,2096,2095,2431,2432,2439,2438
1755, 2089,2090,2097,2096,2432,2433,2440,2439
1756, 2090,2091,2098,2097,2433,2434,2441,2440
1757, 2091,2092,2099,2098,2434,2435,2442,2441
1758, 2092,2093,2100,2099,2435,2436,2443,2442
1759, 2094,2095,2102,2101,2437,2438,2445,2444
1760, 2095,2096,2103,2102,2438,2439,2446,2445
1761, 2096,2097,2104,2103,2439,2440,2447,2446
1762, 2097,2098,2105,2104,2440,2441,2448,2447
1763, 2098,2099,2106,2105,2441,2442,2449,2448
1764, 2099,2100,2107,2106,2442,2443,2450,2449
1765, 2101,2102,2109,2108,2444,2445,2452,2451
1766, 2102,2103,2110,2109,2445,2446,2453,2452
1767, 2103,2104,2111,2110,2446,2447,2454,2453
1768, 2104,2105,2112,2111,2447,2448,2455,2454
1769, 2105,2106,2113,2112,2448,2449,2456,2455
1770, 2106,2107,2114,2113,2449,2450,2457,2456
1771, 2108,2109,2116,2115,2451,2452,2459,2458
1772, 2109,2110,2117,2116,2452,2453,2460,2459
1773, 2110,2111,2118,2117,2453,2454,2461,2460
1774, 2111,2112,2119,2118,2454,2455,2462,2461
1775, 2112,2113,2120,2119,2455,2456,2463,2462
1776, 2113,2114,2121,2120,2456,2457,2464,2463
1777, 2115,2116,2123,2122,2458,2459,2466,2465
1778, 2116,2117,2124,2123,2459,2460,2467,2466
1779, 2117,2118,2125,2124,2460,2461,2468,2467
1780, 2118,2119,2126,2125,2461,2462,2469,2468
1781, 2119,2120,2127,2126,2462,2463,2470,2469
1782, 2120,2121,2128,2127,2463,2464,2471,2470
1783, 2122,2123,2130,2129,2465,2466,2473,2472
1784, 2123,2124,2131,2130,2466,2467,2474,2473
1785, 2124,2125,2132,2131,2467,2468,2475,2474
1786, 2125,2126,2133,2132,2468,2469,2476,2475
1787, 2126,2127,2134,2133,2469,2470,2477,2476
1788, 2127,2128,2135,2134,2470,2471,2478,2477
1789, 2129,2130,2137,2136,2472,2473,2480,2479
1790, 2130,2131,2138,2137,2473,2474,2481,2480
1791, 2131,2132,2139,2138,2474,2475,2482,2481
1792, 2132,2133,2140,2139,2475,2476,2483,2482
1793, 2133,2134,2141,2140,2476,2477,2484,2483
1794, 2134,2135,2142,2141,2477,2478,2485,2484
1795, 2136,2137,2144,2143,2479,2480,2487,2486
1796, 2137,2138,2145,2144,2480,2481,2488,2487
1797, 2138,2139,2146,2145,2481,2482,2489,2488
1798, 2139,2140,2147,2146,2482,2483,2490,2489
1799, 2140,2141,2148,2147,2483,2484,2491,2490
1800, 2141,2142,2149,2148,2484,2485,2492,2491
1801, 2143,2144,2151,2150,2486,2487,2494,2493
1802, 2144,2145,2152,2151,2487,2488,2495,2494
1803, 2145,2146,2153,2152,2488,2489,2496,2495
1804, 2146,2147,2154,2153,2489,2490,2497,2496
1805, 2147,2148,2155,2154,2490,2491,2498,2497
1806, 2148,2149,2156,2155,2491,2492,2499,2498
1807, 2150,2151,2158,2157,2493,2494,2501,2500
1808, 2151,2152,2159,2158,2494,2495,2502,2501
1809, 2152,2153,2160,2159,2495,2496,2503,2502
1810, 2153,2154,2161,2160,2496,2497,2504,2503
1811, 2154,2155,2162,2161,2497,2498,2505,2504
1812, 2155,2156,2163,2162,2498,2499,2506,2505
1813, 2157,2158,2165,2164,2500,2501,2508,2507
1814, 2158,2159,2166,2165,2501,2502,2509,2508
1815, 2159,2160,2167,2166,2502,2503,2510,2509
1816, 2160,2161,2168,2167,2503,2504,2511,2510
1817, 2161,2162,2169,2168,2504,2505,2512,2511
1818, 2162,2163,2170,2169,2505,2506,2513,2512
1819, 2164,2165,2172,2171,2507,2508,2515,2514
1820, 2165,2166,2173,2172,2508,2509,2516,2515
1821, 2166,2167,2174,2173,2509,2510,2517,2516
1822, 2167,2168,2175,2174,2510,2511,2518,2517
1823, 2168,2169,2176,2175,2511,2512,2519,2518
1824, 2169,2170,2177,2176,2512,2513,2520,2519
1825, 2171,2172,2179,2178,2514,2515,2522,2521
1826, 2172,2173,2180,2179,2515,2516,2523,2522
1827, 2173,2174,2181,2180,2516,2517,2524,2523
1828, 2174,2175,2182,2181,2517,2518,2525,2524
1829, 2175,2176,2183,2182,2518,2519,2526,2525
1830, 2176,2177,2184,2183,2519,2520,2527,2526
1831, 2178,2179,2186,2185,2521,2522,2529,2528
1832, 2179,2180,2187,2186,2522,2523,2530,2529
1833, 2180,2181,2188,2187,2523,2524,2531,2530
1834, 2181,2182,2189,2188,2524,2525,2532,2531
1835, 2182,2183,2190,2189,2525,2526,2533,2532
1836, 2183,2184,2191,2190,2526,2527,2534,2533
1837, 2185,2186,2193,2192,2528,2529,2536,2535
1838, 2186,2187,2194,2193,2529,2530,2537,2536
1839, 2187,2188,2195,2194,2530,2531,2538,2537
1840, 2188,2189,2196,2195,2531,2532,2539,2538
1841, 2189,2190,2197,2196,2532,2533,2540,2539
1842, 2190,2191,2198,2197,2533,2534,2541,2540
1843, 2192,2193,2200,2199,2535,2536,2543,2542
1844, 2193,2194,2201,2200,2536,2537,2544,2543
1845, 2194,2195,2202,2201,2537,2538,2545,2544
1846, 2195,2196,2203,2202,2538,2539,2546,2545
1847, 2196,2197,2204,2203,2539,2540,2547,2546
1848, 2197,2198,2205,2204,2540,2541,2548,2547
1849, 2199,2200,2207,2206,2542,2543,2550,2549
1850, 2200,2201,2208,2207,2543,2544,2551,2550
1851, 2201,2202,2209,2208,2544,2545,2552,2551
1852, 2202,2203,2210,2209,2545,2546,2553,2552
1853, 2203,2204,2211,2210,2546,2547,2554,2553
1854, 2204,2205,2212,2211,2547,2548,2555,2554
1855, 2206,2207,2214,2213,2549,2550,2557,2556
1856, 2207,2208,2215,2214,2550,2551,2558,2557
1857, 2208,2209,2216,2215,2551,2552,2559,2558
1858, 2209,2210,2217,2216,2552,2553,2560,2559
1859, 2210,2211,2218,2217,2553,2554,2561,2560
1860, 2211,2212,2219,2218,2554,2555,2562,2561
1861, 2213,2214,2221,2220,2556,2557,2564,2563
1862, 2214,2215,2222,2221,2557,2558,2565,2564
1863, 2215,2216,2223,2222,2558,2559,2566,2565
1864, 2216,2217,2224,2223,2559,2560,2567,2566
1865, 2217,2218,2225,2224,2560,2561,2568,2567
1866, 2218,2219,2226,2225,2561,2562,2569,2568
1867, 2220,2221,2228,2227,2563,2564,2571,2570
1868, 2221,2222,2229,2228,2564,2565,2572,2571
1869, 2222,2223,2230,2229,2565,2566,2573,2572
1870, 2223,2224,2231,2230,2566,2567,2574,2573
1871, 2224,2225,2232,2231,2567,2568,2575,2574
1872, 2225,2226,2233,2232,2568,2569,2576,2575
1873, 2227,2228,2235,2234,2570,2571,2578,2577
1874, 2228,2229,2236,2235,2571,2572,2579,2578
1875, 2229,2230,2237,2236,2572,2573,2580,2579
1876, 2230,2231,2238,2237,2573,2574,2581,2580
1877, 2231,2232,2239,2238,2574,2575,2582,2581
1878, 2232,2233,2240,2239,2575,2576,2583,2582
1879, 2234,2235,2242,2241,2577,2578,2585,2584
1880, 2235,2236,2243,2242,2578,2579,2586,2585
1881, 2236,2237,2244,2243,2579,2580,2587,2586
1882, 2237,2238,2245,2244,2580,2581,2588,2587
1883, 2238,2239,2246,2245,2581,2582,2589,2588
1884, 2239,2240,2247,2246,2582,2583,2590,2589
1885, 2241,2242,2249,2248,2584,2585,2592,2591
1886, 2242,2243,2250,2249,2585,2586,2593,2592
1887, 2243,2244,2251,2250,2586,2587,2594,2593
1888, 2244,2245,2252,2251,2587,2588,2595,2594
1889, 2245,2246,2253,2252,2588,2589,2596,2595
1890, 2246,2247,2254,2253,2589,2590,2597,2596
1891, 2248,2249,2256,2255,2591,2592,2599,2598
1892, 2249,2250,2257,2256,2592,2593,2600,2599
1893, 2250,2251,2258,2257,2593,2594,2601,2600
1894, 2251,2252,2259,2258,2594,2595,2602,2601
1895, 2252,2253,2260,2259,2595,2596,2603,2602
1896, 2253,2254,2261,2260,2596,2597,2604,2603
1897, 2255,2256,2263,2262,2598,2599,2606,2605
1898, 2256,2257,2264,2263,2599,2600,2607,2606
1899, 2257,2258,2265,2264,2600,2601,2608,2607
1900, 2258,2259,2266,2265,2601,2602,2609,2608
1901, 2259,2260,2267,2266,2602,2603,2610,2609
1902, 2260,2261,2268,2267,2603,2604,2611,2610
1903, 2262,2263,2270,2269,2605,2606,2613,2612
1904, 2263,2264,2271,2270,2606,2607,2614,2613
1905, 2264,2265,2272,2271,2607,2608,2615,2614
1906, 2265,2266,2273,2272,2608,2609,2616,2615
1907, 2266,2267,2274,2273,2609,2610,2617,2616
1908, 2267,2268,2275,2274,2610,2611,2618,2617
1909, 2269,2270,2277,2276,2612,2613,2620,2619
1910, 2270,2271,2278,2277,2613,2614,2621,2620
1911, 2271,2272,2279,2278,2614,2615,2622,2621
1912, 2272,2273,2280,2279,2615,2616,2623,2622
1913, 2273,2274,2281,2280,2616,2617,2624,2623
1914, 2274,2275,2282,2281,2617,2618,2625,2624
1915, 2276,2277,2284,2283,2619,2620,2627,2626
1916, 2277,2278,2285,2284,2620,2621,2628,2627
1917, 2278,2279,2286,2285,2621,2622,2629,2628
1918, 2279,2280,2287,2286,2622,2623,2630,2629
1919, 2280,2281,2288,2287,2623,2624,2631,2630
1920, 2281,2282,2289,2288,2624,2625,2632,2631
1921, 2283,2284,2291,2290,2626,2627,2634,2633
1922, 2284,2285,2292,2291,2627,2628,2635,2634
1923, 2285,2286,2293,2292,2628,2629,2636,2635
1924, 2286,2287,2294,2293,2629,2630,2637,2636
1925, 2287,2288,2295,2294,2630,2631,2638,2637
1926, 2288,2289,2296,2295,2631,2632,2639,2638
1927, 2290,2291,2298,2297,2633,2634,2641,2640
1928, 2291,2292,2299,2298,2634,2635,2642,2641
1929, 2292,2293,2300,2299,2635,2636,2643,2642
1930, 2293,2294,2301,2300,2636,2637,2644,2643
1931, 2294,2295,2302,2301,2637,2638,2645,2644
1932, 2295,2296,2303,2302,2638,2639,2646,2645
1933, 2297,2298,2305,2304,2640,2641,2648,2647
1934, 2298,2299,2306,2305,2641,2642,2649,2648
1935, 2299,2300,2307,2306,2642,2643,2650,2649
1936, 2300,2301,2308,2307,2643,2644,2651,2650
1937, 2301,2302,2309,2308,2644,2645,2652,2651
1938, 2302,2303,2310,2309,2645,2646,2653,2652
1939, 2304,2305,2312,2311,2647,2648,2655,2654
1940, 2305,2306,2313,2312,2648,2649,2656,2655
1941, 2306,2307,2314,2313,2649,2650,2657,2656
1942, 2307,2308,2315,2314,2650,2651,2658,2657
1943, 2308,2309,2316,2315,2651,2652,2659,2658
1944, 2309,2310,2317,2316,2652,2653,2660,2659
1945, 2311,2312,2319,2318,2654,2655,2662,2661
1946, 2312,2313,2320,2319,2655,2656,2663,2662
1947, 2313,2314,2321,2320,2656,2657,2664,2663
1948, 2314,2315,2322,2321,2657,2658,2665,2664
1949, 2315,2316,2323,2322,2658,2659,2666,2665
1950, 2316,2317,2324,2323,2659,2660,2667,2666
1951, 2318,2319,2326,2325,2661,2662,2669,2668
1952, 2319,2320,2327,2326,2662,2663,2670,2669
1953, 2320,2321,2328,2327,2663,2664,2671,2670
1954, 2321,2322,2329,2328,2664,2665,2672,2671
1955, 2322,2323,2330,2329,2665,2666,2673,2672
1956, 2323,2324,2331,2330,2666,2667,2674,2673
1957, 2325,2326,2333,2332,2668,2669,2676,2675
1958, 2326,2327,2334,2333,2669,2670,2677,2676
1959, 2327,2328,2335,2334,2670,2671,2678,2677
1960, 2328,2329,2336,2335,2671,2672,2679,2678
1961, 2329,2330,2337,2336,2672,2673,2680,2679
1962, 2330,2331,2338,2337,2673,2674,2681,2680
1963, 2332,2333,2340,2339,2675,2676,2683,2682
1964, 2333,2334,2341,2340,2676,2677,2684,2683
1965, 2334,2335,2342,2341,2677,2678,2685,2684
1966, 2335,2336,2343,2342,2678,2679,2686,2685
1967, 2336,2337,2344,2343,2679,2680,2687,2686
1968, 2337,2338,2345,2344,2680,2681,2688,2687
1969, 2339,2340,2347,2346,2682,2683,2690,2689
1970, 2340,2341,2348,2347,2683,2684,2691,2690
1971, 2341,2342,2349,2348,2684,2685,2692,2691
1972, 2342,2343,2350,2349,2685,2686,2693,2692
1973, 2343,2344,2351,2350,2686,2687,2694,2693
1974, 2344,2345,2352,2351,2687,2688,2695,2694
1975, 2346,2347,2354,2353,2689,2690,2697,2696
1976, 2347,2348,2355,2354,2690,2691,2698,2697
1977, 2348,2349,2356,2355,2691,2692,2699,2698
1978, 2349,2350,2357,2356,2692,2693,2700,2699
1979, 2350,2351,2358,2357,2693,2694,2701,2700
1980, 2351,2352,2359,2358,2694,2695,2702,2701
1981, 2353,2354,2361,2360,2696,2697,2704,2703
1982, 2354,2355,2362,2361,2697,2698,2705,2704
1983, 2355,2356,2363,2362,2698,2699,2706,2705
1984, 2356,2357,2364,2363,2699,2700,2707,2706
1985, 2357,2358,2365,2364,2700,2701,2708,2707
1986, 2358,2359,2366,2365,2701,2702,2709,2708
1987, 2360,2361,2368,2367,2703,2704,2711,2710
1988, 2361,2362,2369,2368,2704,2705,2712,2711
1989, 2362,2363,2370,2369,2705,2706,2713,2712
1990, 2363,2364,2371,2370,2706,2707,2714,2713
1991, 2364,2365,2372,2371,2707,2708,2715,2714
1992, 2365,2366,2373,2372,2708,2709,2716,2715
1993, 2367,2368,2375,2374,2710,2711,2718,2717
1994, 2368,2369,2376,2375,2711,2712,2719,2718
1995, 2369,2370,2377,2376,2712,2713,2720,2719
1996, 2370,2371,2378,2377,2713,2714,2721,2720
1997, 2371,2372,2379,2378,2714,2715,2722,2721
1998, 2372,2373,2380,2379,2715,2716,2723,2722
1999, 2374,2375,2382,2381,2717,2718,2725,2724
2000, 2375,2376,2383,2382,2718,2719,2726,2725
2001, 2376,2377,2384,2383,2719,2720,2727,2726
2002, 2377,2378,2385,2384,2720,2721,2728,2727
2003, 2378,2379,2386,2385,2721,2722,2729,2728
2004, 2379,2380,2387,2386,2722,2723,2730,2729
2005, 2381,2382,2389,2388,2724,2725,2732,2731
2006, 2382,2383,2390,2389,2725,2726,2733,2732
2007, 2383,2384,2391,2390,2726,2727,2734,2733
2008, 2384,2385,2392,2391,2727,2728,2735,2734
2009, 2385,2386,2393,2392,2728,2729,2736,2735
2010, 2386,2387,2394,2393,2729,2730,2737,2736
2011, 2388,2389,2396,2395,2731,2732,2739,2738
2012, 2389,2390,2397,2396,2732,2733,2740,2739
2013, 2390,2391,2398,2397,2733,2734,2741,2740
2014, 2391,2392,2399,2398,2734,2735,2742,2741
2015, 2392,2393,2400,2399,2735,2736,2743,2742
2016, 2393,2394,2401,2400,2736,2737,2744,2743
2017, 2402,2403,2410,2409,2745,2746,2753,2752
2018, 2403,2404,2411,2410,2746,2747,2754,2753
2019, 2404,2405,2412,2411,2747,2748,2755,2754
2020, 2405,2406,2413,2412,2748,2749,2756,2755
2021, 2406,2407,2414,2413,2749,2750,2757,2756
2022, 2407,2408,2415,2414,2750,2751,2758,2757
2023, 2409,2410,2417,2416,2752,2753,2760,2759
2024, 2410,2411,2418,2417,2753,2754,2761,2760
2025, 2411,2412,2419,2418,2754,2755,2762,2761
2026, 2412,2413,2420,2419,2755,2756,2763,2762
2027, 2413,2414,2421,2420,2756,2757,2764,2763
2028, 2414,2415,2422,2421,2757,2758,2765,2764
2029, 2416,2417,2424,2423,2759,2760,2767,2766
2030, 2417,2418,2425,2424,2760,2761,2768,2767
2031, 2418,2419,2426,2425,2761,2762,2769,2768
2032, 2419,2420,2427,2426,2762,2763,2770,2769
2033, 2420,2421,2428,2427,2763,2764,2771,2770
2034, 2421,2422,2429,2428,2764,2765,2772,2771
2035, 2423,2424,2431,2430,2766,2767,2774,2773
2036, 2424,2425,2432,2431,2767,2768,2775,2774
2037, 2425,2426,2433,2432,2768,2769,2776,2775
2038, 2426,2427,2434,2433,2769,2770,2777,2776
2039, 2427,2428,2435,2434,2770,2771,2778,2777
2040, 2428,2429,2436,2435,2771,2772,2779,2778
2041, 2430,2431,2438,2437,2773,2774,2781,2780
2042, 2431,2432,2439,2438,2774,2775,2782,2781
2043, 2432,2433,2440,2439,2775,2776,2783,2782
2044, 2433,2434,2441,2440,2776,2777,2784,2783
2045, 2434,2435,2442,2441,2777,2778,2785,2784
2046, 2435,2436,2443,2442,2778,2779,2786,2785
2047, 2437,2438,2445,2444,2780,2781,2788,2787
2048, 2438,2439,2446,2445,2781,2782,2789,2788
2049, 2439,2440,2447,2446,2782,2783,2790,2789
2050, 2440,2441,2448,2447,2783,2784,2791,2790
2051, 2441,2442,2449,2448,2784,2785,2792,2791
2052, 2442,2443,2450,2449,2785,2786,2793,2792
2053, 2444,2445,2452,2451,2787,2788,2795,2794
2054, 2445,2446,2453,2452,2788,2789,2796,2795
2055, 2446,2447,2454,2453,2789,2790,2797,2796
2056, 2447,2448,2455,2454,2790,2791,2798,2797
2057, 2448,2449,2456,2455,2791,2792,2799,2798
2058, 2449,2450,2457,2456,2792,2793,2800,2799
2059, 2451,2452,2459,2458,2794,2795,2802,2801
2060, 2452,2453,2460,2459,2795,2796,2803,2802
2061, 2453,2454,2461,2460,2796,2797,2804,2803
2062, 2454,2455,2462,2461,2797,2798,2805,2804
2063, 2455,2456,2463,2462,2798,2799,2806,2805
2064, 2456,2457,2464,2463,2799,2800,2807,2806
2065, 2458,2459,2466,2465,2801,2802,2809,2808
2066, 2459,2460,2467,2466,2802,2803,2810,2809
2067, 2460,2461,2468,2467,2803,2804,2811,2810
2068, 2461,2462,2469,2468,2804,2805,2812,2811
2069, 2462,2463,2470,2469,2805,2806,2813,2812
2070, 2463,2464,2471,2470,2806,2807,2814,2813
2071, 2465,2466,2473,2472,2808,2809,2816,2815
2072, 2466,2467,2474,2473,2809,2810,2817,2816
2073, 2467,2468,2475,2474,2810,2811,2818,2817
2074, 2468,2469,2476,2475,2811,2812,2819,2818
2075, 2469,2470,2477,2476,2812,2813,2820,2819
2076, 2470,2471,2478,2477,2813,2814,2821,2820
2077, 2472,2473,2480,2479,2815,2816,2823,2822
2078, 2473,2474,2481,2480,2816,2817,2824,2823
2079, 2474,2475,2482,2481,2817,2818,2825,2824
2080, 2475,2476,2483,2482,2818,2819,2826,2825
2081, 2476,2477,2484,2483,2819,2820,2827,2826
2082, 2477,2478,2485,2484,2820,2821,2828,2827
2083, 2479,2480,2487,2486,2822,2823,2830,2829
2084, 2480,2481,2488,2487,2823,2824,2831,2830
2085, 2481,2482,2489,2488,2824,2825,2832,2831
2086, 2482,2483,2490,2489,2825,2826,2833,2832
2087, 2483,2484,2491,2490,2826,2827,2834,2833
2088, 2484,2485,2492,2491,2827,2828,2835,2834
2089, 2486,2487,2494,2493,2829,2830,2837,2836
2090, 2487,2488,2495,2494,2830,2831,2838,2837
2091, 2488,2489,2496,2495,2831,2832,2839,2838
2092, 2489,2490,2497,2496,2832,2833,2840,2839
2093, 2490,2491,2498,2497,2833,2834,2841,2840
2094, 2491,2492,2499,2498,2834,2835,2842,2841
2095, 2493,2494,2501,2500,2836,2837,2844,2843
2096, 2494,2495,2502,2501,2837,2838,2845,2844
2097, 2495,2496,2503,2502,2838,2839,2846,2845
2098, 2496,2497,2504,2503,2839,2840,2847,2846
2099, 2497,2498,2505,2504,2840,2841,2848,2847
2100, 2498,2499,2506,2505,2841,2842,2849,2848
2101, 2500,2501,2508,2507,2843,2844,2851,2850
2102, 2501,2502,2509,2508,2844,2845,2852,2851
2103, 2502,2503,2510,2509,2845,2846,2853,2852
2104, 2503,2504,2511,2510,2846,2847,2854,2853
2105, 2504,2505,2512,2511,2847,2848,2855,2854
2106, 2505,2506,2513,2512,2848,2849,2856,2855
2107, 2507,2508,2515,2514,2850,2851,2858,2857
2108, 2508,2509,2516,2515,2851,2852,2859,2858
2109, 2509,2510,2517,2516,2852,2853,2860,2859
2110, 2510,2511,2518,2517,2853,2854,2861,2860
2111, 2511,2512,2519,2518,2854,2855,2862,2861
2112, 2512,2513,2520,2519,2855,2856,2863,2862
2113, 2514,2515,2522,2521,2857,2858,2865,2864
2114, 2515,2516,2523,2522,2858,2859,2866,2865
2115, 2516,2517,2524,2523,2859,2860,2867,2866
2116, 2517,2518,2525,2524,2860,2861,2868,2867
2117, 2518,2519,2526,2525,2861,2862,2869,2868
2118, 2519,2520,2527,2526,2862,2863,2870,2869
2119, 2521,2522,2529,2528,2864,2865,2872,2871
2120, 2522,2523,2530,2529,2865,2866,2873,2872
2121, 2523,2524,2531,2530,2866,2867,2874,2873
2122, 2524,2525,2532,2531,2867,2868,2875,2874
2123, 2525,2526,2533,2532,2868,2869,2876,2875
2124, 2526,2527,2534,2533,2869,2870,2877,2876
2125, 2528,2529,2536,2535,2871,2872,2879,2878
2126, 2529,2530,2537,2536,2872,2873,2880,2879
2127, 2530,2531,2538,2537,2873,2874,2881,2880
2128, 2531,2532,2539,2538,2874,2875,2882,2881
2129, 2532,2533,2540,2539,2875,2876,2883,2882
2130, 2533,2534,2541,2540,2876,2877,2884,2883
2131, 2535,2536,2543,2542,2878,2879,2886,2885
2132, 2536,2537,2544,2543,2879,2880,2887,2886
2133, 2537,2538,2545,2544,2880,2881,2888,2887
2134, 2538,2539,2546,2545,2881,2882,2889,2888
2135, 2539,2540,2547,2546,2882,2883,2890,2889
2136, 2540,2541,2548,2547,2883,2884,2891,2890
2137, 2542,2543,2550,2549,2885,2886,2893,2892
2138, 2543,2544,2551,2550,2886,2887,2894,2893
2139, 2544,2545,2552,2551,2887,2888,2895,2894
2140, 2545,2546,2553,2552,2888,2889,2896,2895
2141, 2546,2547,2554,2553,2889,2890,2897,2896
2142, 2547,2548,2555,2554,2890,2891,2898,2897
2143, 2549,2550,2557,2556,2892,2893,2900,2899
2144, 2550,2551,2558,2557,2893,2894,2901,2900
2145, 2551,2552,2559,2558,2894,2895,2902,2901
2146, 2552,2553,2560,2559,2895,2896,2903,2902
2147, 2553,2554,2561,2560,2896,2897,2904,2903
2148, 2554,2555,2562,2561,2897,2898,2905,2904
2149, 2556,2557,2564,2563,2899,2900,2907,2906
2150, 2557,2558,2565,2564,2900,2901,2908,2907
2151, 2558,2559,2566,2565,2901,2902,2909,2908
2152, 2559,2560,2567,2566,2902,2903,2910,2909
2153, 2560,2561,2568,2567,2903,2904,2911,2910
2154, 2561,2562,2569,2568,2904,2905,2912,2911
2155, 2563,2564,2571,2570,2906,2907,2914,2913
2156, 2564,2565,2572,2571,2907,2908,2915,2914
2157, 2565,2566,2573,2572,2908,2909,2916,2915
2158, 2566,2567,2574,2573,2909,2910,2917,2916
2159, 2567,2568,2575,2574,2910,2911,2918,2917
2160, 2568,2569,2576,2575,2911,2912,2919,2918
2161, 2570,2571,2578,2577,2913,2914,2921,2920
2162, 2571,2572,2579,2578,2914,2915,2922,2921
2163, 2572,2573,2580,2579,2915,2916,2923,2922
2164, 2573,2574,2581,2580,2916,2917,2924,2923
2165, 2574,2575,2582,2581,2917,2918,2925,2924
2166, 2575,2576,2583,2582,2918,2919,2926,2925
2167, 2577,2578,2585,2584,2920,2921,2928,2927
2168, 2578,2579,2586,2585,2921,2922,2929,2928
2169, 2579,2580,2587,2586,2922,2923,2930,2929
2170, 2580,2581,2588,2587,2923,2924,2931,2930
2171, 2581,2582,2589,2588,2924,2925,2932,2931
2172, 2582,2583,2590,2589,2925,2926,2933,2932
2173, 2584,2585,2592,2591,2927,2928,2935,2934
2174, 2585,2586,2593,2592,2928,2929,2936,2935
2175, 2586,2587,2594,2593,2929,2930,2937,2936
2176, 2587,2588,2595,2594,2930,2931,2938,2937
2177, 2588,2589,2596,2595,2931,2932,2939,2938
2178, 2589,2590,2597,2596,2932,2933,2940,2939
2179, 2591,2592,2599,2598,2934,2935,2942,2941
2180, 2592,2593,2600,2599,2935,2936,2943,2942
2181, 2593,2594,2601,2600,2936,2937,2944,2943
2182, 2594,2595,2602,2601,2937,2938,2945,2944
2183, 2595,2596,2603,2602,2938,2939,2946,2945
2184, 2596,2597,2604,2603,2939,2940,2947,2946
2185, 2598,2599,2606,2605,2941,2942,2949,2948
2186, 2599,2600,2607,2606,2942,2943,2950,2949
2187, 2600,2601,2608,2607,2943,2944,2951,2950
2188, 2601,2602,2609,2608,2944,2945,2952,2951
2189, 2602,2603,2610,2609,2945,2946,2953,2952
2190, 2603,2604,2611,2610,2946,2947,2954,2953
2191, 2605,2606,2613,2612,2948,2949,2956,2955
2192, 2606,2607,2614,2613,2949,2950,2957,2956
2193, 2607,2608,2615,2614,2950,2951,2958,2957
2194, 2608,2609,2616,2615,2951,2952,2959,2958
2195, 2609,2610,2617,2616,2952,2953,2960,2959
2196, 2610,2611,2618,2617,2953,2954,2961,2960
2197, 2612,2613,2620,2619,2955,2956,2963,2962
2198, 2613,2614,2621,2620,2956,2957,2964,2963
2199, 2614,2615,2622,2621,2957,2958,2965,2964
2200, 2615,2616,2623,2622,2958,2959,2966,2965
2201, 2616,2617,2624,2623,2959,2960,2967,2966
2202, 2617,2618,2625,2624,2960,2961,2968,2967
2203, 2619,2620,2627,2626,2962,2963,2970,2969
2204, 2620,2621,2628,2627,2963,2964,2971,2970
2205, 2621,2622,2629,2628,2964,2965,2972,2971
2206, 2622,2623,2630,2629,2965,2966,2973,2972
2207, 2623,2624,2631,2630,2966,2967,2974,2973
2208, 2624,2625,2632,2631,2967,2968,2975,2974
2209, 2626,2627,2634,2633,2969,2970,2977,2976
2210, 2627,2628,2635,2634,2970,2971,2978,2977
2211, 2628,2629,2636,2635,2971,2972,2979,2978
2212, 2629,2630,2637,2636,2972,2973,2980,2979
2213, 2630,2631,2638,2637,2973,2974,2981,2980
2214, 2631,2632,2639,2638,2974,2975,2982,2981
2215, 2633,2634,2641,2640,2976,2977,2984,2983
2216, 2634,2635,2642,2641,2977,2978,2985,2984
2217, 2635,2636,2643,2642,2978,2979,2986,2985
2218, 2636,2637,2644,2643,2979,2980,2987,2986
2219, 2637,2638,2645,2644,2980,2981,2988,2987
2220, 2638,2639,2646,2645,2981,2982,2989,2988
2221, 2640,2641,2648,2647,2983,2984,2991,2990
2222, 2641,2642,2649,2648,2984,2985,2992,2991
2223, 2642,2643,2650,2649,2985,2986,2993,2992
2224, 2643,2644,2651,2650,2986,2987,2994,2993
2225, 2644,2645,2652,2651,2987,2988,2995,2994
2226, 2645,2646,2653,2652,2988,2989,2996,2995
2227, 2647,2648,2655,2654,2990,2991,2998,2997
2228, 2648,2649,2656,2655,2991,2992,2999,2998
2229, 2649,2650,2657,2656,2992,2993,3000,2999
2230, 2650,2651,2658,2657,2993,2994,3001,3000
2231, 2651,2652,2659,2658,2994,2995,3002,3001
2232, 2652,2653,2660,2659,2995,2996,3003,3002
2233, 2654,2655,2662,2661,2997,2998,3005,3004
2234, 2655,2656,2663,2662,2998,2999,3006,3005
2235, 2656,2657,2664,2663,2999,3000,3007,3006
2236, 2657,2658,2665,2664,3000,3001,3008,3007
2237, 2658,2659,2666,2665,3001,3002,3009,3008
2238, 2659,2660,2667,2666,3002,3003,3010,3009
2239, 2661,2662,2669,2668,3004,3005,3012,3011
2240, 2662,2663,2670,2669,3005,3006,3013,3012
2241, 2663,2664,2671,2670,3006,3007,3014,3013
2242, 2664,2665,2672,2671,3007,3008,3015,3014
2243, 2665,2666,2673,2672,3008,3009,3016,3015
2244, 2666,2667,2674,2673,3009,3010,3017,3016
2245, 2668,2669,2676,2675,3011,3012,3019,3018
2246, 2669,2670,2677,2676,3012,3013,3020,3019
2247, 2670,2671,2678,2677,3013,3014,3021,3020
2248, 2671,2672,2679,2678,3014,3015,3022,3021
2249, 2672,2673,2680,2679,3015,3016,3023,3022
2250, 2673,2674,2681,2680,3016,3017,3024,3023
2251, 2675,2676,2683,2682,3018,3019,3026,3025
2252, 2676,2677,2684,2683,3019,3020,3027,3026
2253, 2677,2678,2685,2684,3020,3021,3028,3027
2254, 2678,2679,2686,2685,3021,3022,3029,3028
2255, 2679,2680,2687,2686,3022,3023,3030,3029
2256, 2680,2681,2688,2687,3023,3024,3031,3030
2257, 2682,2683,2690,2689,3025,3026,3033,3032
2258, 2683,2684,2691,2690,3026,3027,3034,3033
2259, 2684,2685,2692,2691,3027,3028,3035,3034
2260, 2685,2686,2693,2692,3028,3029,3036,3035
2261, 2686,2687,2694,2693,3029,3030,3037,3036
2262, 2687,2688,2695,2694,3030,3031,3038,3037
2263, 2689,2690,2697,2696,3032,3033,3040,3039
2264, 2690,2691,2698,2697,3033,3034,3041,3040
2265, 2691,2692,2699,2698,3034,3035,3042,3041
2266, 2692,2693,2700,2699,3035,3036,3043,3042
2267, 2693,2694,2701,2700,3036,3037,3044,3043
2268, 2694,2695,2702,2701,3037,3038,3045,3044
2269, 2696,2697,2704,2703,3039,3040,3047,3046
2270, 2697,2698,2705,2704,3040,3041,3048,3047
2271, 2698,2699,2706,2705,3041,3042,3049,3048
2272, 2699,2700,2707,2706,3042,3043,3050,3049
2273, 2700,2701,2708,2707,3043,3044,3051,3050
2274, 2701,2702,2709,2708,3044,3045,3052,3051
2275, 2703,2704,2711,2710,3046,3047,3054,3053
2276, 2704,2705,2712,2711,3047,3048,3055,3054
2277, 2705,2706,2713,2712,3048,3049,3056,3055
2278, 2706,2707,2714,2713,3049,3050,3057,3056
2279, 2707,2708,2715,2714,3050,3051,3058,3057
2280, 2708,2709,2716,2715,3051,3052,3059,3058
2281, 2710,2711,2718,2717,3053,3054,3061,3060
2282, 2711,2712,2719,2718,3054,3055,3062,3061
2283, 2712,2713,2720,2719,3055,3056,3063,3062
2284, 2713,2714,2721,2720,3056,3057,3064,3063
2285, 2714,2715,2722,2721,3057,3058,3065,3064
2286, 2715,2716,2723,2722,3058,3059,3066,3065
2287, 2717,2718,2725,2724,3060,3061,3068,3067
2288, 2718,2719,2726,2725,3061,3062,3069,3068
2289, 2719,2720,2727,2726,3062,3063,3070,3069
2290, 2720,2721,2728,2727,3063,3064,3071,3070
2291, 2721,2722,2729,2728,3064,3065,3072,3071
2292, 2722,2723,2730,2729,3065,3066,3073,3072
2293, 2724,2725,2732,2731,3067,3068,3075,3074
2294, 2725,2726,2733,2732,3068,3069,3076,3075
2295, 2726,2727,2734,2733,3069,3070,3077,3076
2296, 2727,2728,2735,2734,3070,3071,3078,3077
2297, 2728,2729,2736,2735,3071,3072,3079,3078
2298, 2729,2730,2737,2736,3072,3073,3080,3079
2299, 2731,2732,2739,2738,3074,3075,3082,3081
2300, 2732,2733,2740,2739,3075,3076,3083,3082
2301, 2733,2734,2741,2740,3076,3077,3084,3083
2302, 2734,2735,2742,2741,3077,3078,3085,3084
2303, 2735,2736,2743,2742,3078,3079,3086,3085
2304, 2736,2737,2744,2743,3079,3080,3087,3086
2305, 2745,2746,2753,2752,3088,3089,3096,3095
2306, 2746,2747,2754,2753,3089,3090,3097,3096
2307, 2747,2748,2755,2754,3090,3091,3098,3097
2308, 2748,2749,2756,2755,3091,3092,3099,3098
2309, 2749,2750,2757,2756,3092,3093,3100,3099
2310, 2750,2751,2758,2757,3093,3094,3101,3100
2311, 2752,2753,2760,2759,3095,3096,3103,3102
2312, 2753,2754,2761,2760,3096,3097,3104,3103
2313, 2754,2755,2762,2761,3097,3098,3105,3104
2314, 2755,2756,2763,2762,3098,3099,3106,3105
2315, 2756,2757,2764,2763,3099,3100,3107,3106
2316, 2757,2758,2765,2764,3100,3101,3108,3107
2317, 2759,2760,2767,2766,3102,3103,3110,3109
2318, 2760,2761,2768,2767,3103,3104,3111,3110
2319, 2761,2762,2769,2768,3104,3105,3112,3111
2320, 2762,2763,2770,2769,3105,3106,3113,3112
2321, 2763,2764,2771,2770,3106,3107,3114,3113
2322, 2764,2765,2772,2771,3107,3108,3115,3114
2323, 2766,2767,2774,2773,3109,3110,3117,3116
2324, 2767,2768,2775,2774,3110,3111,3118,3117
2325, 2768,2769,2776,2775,3111,3112,3119,3118
2326, 2769,2770,2777,2776,3112,3113,3120,3119
2327, 2770,2771,2778,2777,3113,3114,3121,3120
2328, 2771,2772,2779,2778,3114,3115,3122,3121
2329, 2773,2774,2781,2780,3116,3117,3124,3123
2330, 2774,2775,2782,2781,3117,3118,3125,3124
2331, 2775,2776,2783,2782,3118,3119,3126,3125
2332, 2776,2777,2784,2783,3119,3120,3127,3126
2333, 2777,2778,2785,2784,3120,3121,3128,3127
2334, 2778,2779,2786,2785,3121,3122,3129,3128
2335, 2780,2781,2788,2787,3123,3124,3131,3130
2336, 2781,2782,2789,2788,3124,3125,3132,3131
2337, 2782,2783,2790,2789,3125,3126,3133,3132
2338, 2783,2784,2791,2790,3126,3127,3134,3133
2339, 2784,2785,2792,2791,3127,3128,3135,3134
2340, 2785,2786,2793,2792,3128,3129,3136,3135
2341, 2787,2788,2795,2794,3130,3131,3138,3137
2342, 2788,2789,2796,2795,3131,3132,3139,3138
2343, 2789,2790,2797,2796,3132,3133,3140,3139
2344, 2790,2791,2798,2797,3133,3134,3141,3140
2345, 2791,2792,2799,2798,3134,3135,3142,3141
2346, 2792,2793,2800,2799,3135,3136,3143,3142
2347, 2794,2795,2802,2801,3137,3138,3145,3144
2348, 2795,2796,2803,2802,3138,3139,3146,3145
2349, 2796,2797,2804,2803,3139,3140,3147,3146
2350, 2797,2798,2805,2804,3140,3141,3148,3147
2351, 2798,2799,2806,2805,3141,3142,3149,3148
2352, 2799,2800,2807,2806,3142,3143,3150,3149
2353, 2801,2802,2809,2808,3144,3145,3152,3151
2354, 2802,2803,2810,2809,3145,3146,3153,3152
2355, 2803,2804,2811,2810,3146,3147,3154,3153
2356, 2804,2805,2812,2811,3147,3148,3155,3154
2357, 2805,2806,2813,2812,3148,3149,3156,3155
2358, 2806,2807,2814,2813,3149,3150,3157,3156
2359, 2808,2809,2816,2815,3151,3152,3159,3158
2360, 2809,2810,2817,2816,3152,3153,3160,3159
2361, 2810,2811,2818,2817,3153,3154,3161,3160
2362, 2811,2812,2819,2818,3154,3155,3162,3161
2363, 2812,2813,2820,2819,3155,3156,3163,3162
2364, 2813,2814,2821,2820,3156,3157,3164,3163
2365, 2815,2816,2823,2822,3158,3159,3166,3165
2366, 2816,2817,2824,2823,3159,3160,3167,3166
2367, 2817,2818,2825,2824,3160,3161,3168,3167
2368, 2818,2819,2826,2825,3161,3162,3169,3168
2369, 2819,2820,2827,2826,3162,3163,3170,3169
2370, 2820,2821,2828,2827,3163,3164,3171,3170
2371, 2822,2823,2830,2829,3165,3166,3173,3172
2372, 2823,2824,2831,2830,3166,3167,3174,3173
2373, 2824,2825,2832,2831,3167,3168,3175,3174
2374, 2825,2826,2833,2832,3168,3169,3176,3175
2375, 2826,2827,2834,2833,3169,3170,3177,3176
2376, 2827,2828,2835,2834,3170,3171,3178,3177
2377, 2829,2830,2837,2836,3172,3173,3180,3179
2378, 2830,2831,2838,2837,3173,3174,3181,3180
2379, 2831,2832,2839,2838,3174,3175,3182,3181
2380, 2832,2833,2840,2839,3175,3176,3183,3182
2381, 2833,2834,2841,2840,3176,3177,3184,3183
2382, 2834,2835,2842,2841,3177,3178,3185,3184
2383, 2836,2837,2844,2843,3179,3180,3187,3186
2384, 2837,2838,2845,2844,3180,3181,3188,3187
2385, 2838,2839,2846,2845,3181,3182,3189,3188
2386, 2839,2840,2847,2846,3182,3183,3190,3189
2387, 2840,2841,2848,2847,3183,3184,3191,3190
2388, 2841,2842,2849,2848,3184,3185,3192,3191
2389, 2843,2844,2851,2850,3186,3187,3194,3193
2390, 2844,2845,2852,2851,3187,3188,3195,3194
2391, 2845,2846,2853,2852,3188,3189,3196,3195
2392, 2846,2847,2854,2853,3189,3190,3197,3196
2393, 2847,2848,2855,2854,3190,3191,3198,3197
2394, 2848,2849,2856,2855,3191,3192,3199,3198
2395, 2850,2851,2858,2857,3193,3194,3201,3200
2396, 2851,2852,2859,2858,3194,3195,3202,3201
2397, 2852,2853,2860,2859,3195,3196,3203,3202
2398, 2853,2854,2861,2860,3196,3197,3204,3203
2399, 2854,2855,2862,2861,3197,3198,3205,3204
2400, 2855,2856,2863,2862,3198,3199,3206,3205
2401, 2857,2858,2865,2864,3200,3201,3208,3207
2402, 2858,2859,2866,2865,3201,3202,3209,3208
2403, 2859,2860,2867,2866,3202,3203,3210,3209
2404, 2860,2861,2868,2867,3203,3204,3211,3210
2405, 2861,2862,2869,2868,3204,3205,3212,3211
2406, 2862,2863,2870,2869,3205,3206,3213,3212
2407, 2864,2865,2872,2871,3207,3208,3215,3214
2408, 2865,2866,2873,2872,3208,3209,3216,3215
2409, 2866,2867,2874,2873,3209,3210,3217,3216
2410, 2867,2868,2875,2874,3210,3211,3218,3217
2411, 2868,2869,2876,2875,3211,3212,3219,3218
2412, 2869,2870,2877,2876,3212,3213,3220,3219
2413, 2871,2872,2879,2878,3214,3215,3222,3221
2414, 2872,2873,2880,2879,3215,3216,3223,3222
2415, 2873,2874,2881,2880,3216,3217,3224,3223
2416, 2874,2875,2882,2881,3217,3218,3225,3224
2417, 2875,2876,2883,2882,3218,3219,3226,3225
2418, 2876,2877,2884,2883,3219,3220,3227,3226
2419, 2878,2879,2886,2885,3221,3222,3229,3228
2420, 2879,2880,2887,2886,3222,3223,3230,3229
2421, 2880,2881,2888,2887,3223,3224,3231,3230
2422, 2881,2882,2889,2888,3224,3225,3232,3231
2423, 2882,2883,2890,2889,3225,3226,3233,3232
2424, 2883,2884,2891,2890,3226,3227,3234,3233
2425, 2885,2886,2893,2892,3228,3229,3236,3235
2426, 2886,2887,2894,2893,3229,3230,3237,3236
2427, 2887,2888,2895,2894,3230,3231,3238,3237
2428, 2888,2889,2896,2895,3231,3232,3239,3238
2429, 2889,2890,2897,2896,3232,3233,3240,3239
2430, 2890,2891,2898,2897,3233,3234,3241,3240
2431, 2892,2893,2900,2899,3235,3236,3243,3242
2432, 2893,2894,2901,2900,3236,3237,3244,3243
2433, 2894,2895,2902,2901,3237,3238,3245,3244
2434, 2895,2896,2903,2902,3238,3239,3246,3245
2435, 2896,2897,2904,2903,3239,3240,3247,3246
2436, 2897,2898,2905,2904,3240,3241,3248,3247
2437, 2899,2900,2907,2906,3242,3243,3250,3249
2438, 2900,2901,2908,2907,3243,3244,3251,3250
2439, 2901,2902,2909,2908,3244,3245,3252,3251
2440, 2902,2903,2910,2909,3245,3246,3253,3252
2441, 2903,2904,2911,2910,3246,3247,3254,3253
2442, 2904,2905,2912,2911,3247,3248,3255,3254
2443, 2906,2907,2914,2913,3249,3250,3257,3256
2444, 2907,2908,2915,2914,3250,3251,3258,3257
2445, 2908,2909,2916,2915,3251,3252,3259,3258
2446, 2909,2910,2917,2916,3252,3253,3260,3259
2447, 2910,2911,2918,2917,3253,3254,3261,3260
2448, 2911,2912,2919,2918,3254,3255,3262,3261
2449, 2913,2914,2921,2920,3256,3257,3264,3263
2450, 2914,2915,2922,2921,3257,3258,3265,3264
2451, 2915,2916,2923,2922,3258,3259,3266,3265
2452, 2916,2917,2924,2923,3259,3260,3267,3266
2453, 2917,2918,2925,2924,3260,3261,3268,3267
2454, 2918,2919,2926,2925,3261,3262,3269,3268
2455, 2920,2921,2928,2927,3263,3264,3271,3270
2456, 2921,2922,2929,2928,3264,3265,3272,3271
2457, 2922,2923,2930,2929,3265,3266,3273,3272
2458, 2923,2924,2931,2930,3266,3267,3274,3273
2459, 2924,2925,2932,2931,3267,3268,3275,3274
2460, 2925,2926,2933,2932,3268,3269,3276,3275
2461, 2927,2928,2935,2934,3270,3271,3278,3277
2462, 2928,2929,2936,2935,3271,3272,3279,3278
2463, 2929,2930,2937,2936,3272,3273,3280,3279
2464, 2930,2931,2938,2937,3273,3274,3281,3280
2465, 2931,2932,2939,2938,3274,3275,3282,3281
2466, 2932,2933,2940,2939,3275,3276,3283,3282
2467, 2934,2935,2942,2941,3277,3278,3285,3284
2468, 2935,2936,2943,2942,3278,3279,3286,3285
2469, 2936,2937,2944,2943,3279,3280,3287,3286
2470, 2937,2938,2945,2944,3280,3281,3288,3287
2471, 2938,2939,2946,2945,3281,3282,3289,3288
2472, 2939,2940,2947,2946,3282,3283,3290,3289
2473, 2941,2942,2949,2948,3284,3285,3292,3291
2474, 2942,2943,2950,2949,3285,3286,3293,3292
2475, 2943,2944,2951,2950,3286,3287,3294,3293
2476, 2944,2945,2952,2951,3287,3288,3295,3294
2477, 2945,2946,2953,2952,3288,3289,3296,3295
2478, 2946,2947,2954,2953,3289,3290,3297,3296
2479, 2948,2949,2956,2955,3291,3292,3299,3298
2480, 2949,2950,2957,2956,3292,3293,3300,3299
2481, 2950,2951,2958,2957,3293,3294,3301,3300
2482, 2951,2952,2959,2958,3294,3295,3302,3301
2483, 2952,2953,2960,2959,3295,3296,3303,3302
2484, 2953,2954,2961,2960,3296,3297,3304,3303
2485, 2955,2956,2963,2962,3298,3299,3306,3305
2486, 2956,2957,2964,2963,3299,3300,3307,3306
2487, 2957,2958,2965,2964,3300,3301,3308,3307
2488, 2958,2959,2966,2965,3301,3302,3309,3308
2489, 2959,2960,2967,2966,3302,3303,3310,3309
2490, 2960,2961,2968,2967,3303,3304,3311,3310
2491, 2962,2963,2970,2969,3305,3306,3313,3312
2492, 2963,2964,2971,2970,3306,3307,3314,3313
2493, 2964,2965,2972,2971,3307,3308,3315,3314
2494, 2965,2966,2973,2972,3308,3309,3316,3315
2495, 2966,2967,2974,2973,3309,3310,3317,3316
2496, 2967,2968,2975,2974,3310,3311,3318,3317
2497, 2969,2970,2977,2976,3312,3313,3320,3319
2498, 2970,2971,2978,2977,3313,3314,3321,3320
2499, 2971,2972,2979,2978,3314,3315,3322,3321
2500, 2972,2973,2980,2979,3315,3316,3323,3322
2501, 2973,2974,2981,2980,3316,3317,3324,3323
2502, 2974,2975,2982,2981,3317,3318,3325,3324
2503, 2976,2977,2984,2983,3319,3320,3327,3326
2504, 2977,2978,2985,2984,3320,3321,3328,3327
2505, 2978,2979,2986,2985,3321,3322,3329,3328
2506, 2979,2980,2987,2986,3322,3323,3330,3329
2507, 2980,2981,2988,2987,3323,3324,3331,3330
2508, 2981,2982,2989,2988,3324,3325,3332,3331
2509, 2983,2984,2991,2990,3326,3327,3334,3333
2510, 2984,2985,2992,2991,3327,3328,3335,3334
2511, 2985,2986,2993,2992,3328,3329,3336,3335
2512, 2986,2987,2994,2993,3329,3330,3337,3336
2513, 2987,2988,2995,2994,3330,3331,3338,3337
2514, 2988,2989,2996,2995,3331,3332,3339,3338
2515, 2990,2991,2998,2997,3333,3334,3341,3340
2516, 2991,2992,2999,2998,3334,3335,3342,3341
2517, 2992,2993,3000,2999,3335,3336,3343,3342
2518, 2993,2994,3001,3000,3336,3337,3344,3343
2519, 2994,2995,3002,3001,3337,3338,3345,3344
2520, 2995,2996,3003,3002,3338,3339,3346,3345
2521, 2997,2998,3005,3004,3340,3341,3348,3347
2522, 2998,2999,3006,3005,3341,3342,3349,3348
2523, 2999,3000,3007,3006,3342,3343,3350,3349
2524, 3000,3001,3008,3007,3343,3344,3351,3350
2525, 3001,3002,3009,3008,3344,3345,3352,3351
2526, 3002,3003,3010,3009,3345,3346,3353,3352
2527, 3004,3005,3012,3011,3347,3348,3355,3354
2528, 3005,3006,3013,3012,3348,3349,3356,3355
2529, 3006,3007,3014,3013,3349,3350,3357,3356
2530, 3007,3008,3015,3014,3350,3351,3358,3357
2531, 3008,3009,3016,3015,3351,3352,3359,3358
2532, 3009,3010,3017,3016,3352,3353,3360,3359
2533, 3011,3012,3019,3018,3354,3355,3362,3361
2534, 3012,3013,3020,3019,3355,3356,3363,3362
2535, 3013,3014,3021,3020,3356,3357,3364,3363
2536, 3014,3015,3022,3021,3357,3358,3365,3364
2537, 3015,3016,3023,3022,3358,3359,3366,3365
2538, 3016,3017,3024,3023,3359,3360,3367,3366
2539, 3018,3019,3026,3025,3361,3362,3369,3368
2540, 3019,3020,3027,3026,3362,3363,3370,3369
2541, 3020,3021,3028,3027,3363,3364,3371,3370
2542, 3021,3022,3029,3028,3364,3365,3372,3371
2543, 3022,3023,3030,3029,3365,3366,3373,3372
2544, 3023,3024,3031,3030,3366,3367,3374,3373
2545, 3025,3026,3033,3032,3368,3369,3376,3375
2546, 3026,3027,3034,3033,3369,3370,3377,3376
2547, 3027,3028,3035,3034,3370,3371,3378,3377
2548, 3028,3029,3036,3035,3371,3372,3379,3378
2549, 3029,3030,3037,3036,3372,3373,3380,3379
2550, 3030,3031,3038,3037,3373,3374,3381,3380
2551, 3032,3033,3040,3039,3375,3376,3383,3382
2552, 3033,3034,3041,3040,3376,3377,3384,3383
2553, 3034,3035,3042,3041,3377,3378,3385,3384
2554, 3035,3036,3043,3042,3378,3379,3386,3385
2555, 3036,3037,3044,3043,3379,3380,3387,3386
2556, 3037,3038,3045,3044,3380,3381,3388,3387
2557, 3039,3040,3047,3046,3382,3383,3390,3389
2558, 3040,3041,3048,3047,3383,3384,3391,3390
2559, 3041,3042,3049,3048,3384,3385,3392,3391
2560, 3042,3043,3050,3049,3385,3386,3393,3392
2561, 3043,3044,3051,3050,3386,3387,3394,3393
2562, 3044,3045,3052,3051,3387,3388,3395,3394
2563, 3046,3047,3054,3053,3389,3390,3397,3396
2564, 3047,3048,3055,3054,3390,3391,3398,3397
2565, 3048,3049,3056,3055,3391,3392,3399,3398
2566, 3049,3050,3057,3056,3392,3393,3400,3399
2567, 3050,3051,3058,3057,3393,3394,3401,3400
2568, 3051,3052,3059,3058,3394,3395,3402,3401
2569, 3053,3054,3061,3060,3396,3397,3404,3403
2570, 3054,3055,3062,3061,3397,3398,3405,3404
2571, 3055,3056,3063,3062,3398,3399,3406,3405
2572, 3056,3057,3064,3063,3399,3400,3407,3406
2573, 3057,3058,3065,3064,3400,3401,3408,3407
2574, 3058,3059,3066,3065,3401,3402,3409,3408
2575, 3060,3061,3068,3067,3403,3404,3411,3410
2576, 3061,3062,3069,3068,3404,3405,3412,3411
2577, 3062,3063,3070,3069,3405,3406,3413,3412
2578, 3063,3064,3071,3070,3406,3407,3414,3413
2579, 3064,3065,3072,3071,3407,3408,3415,3414
2580, 3065,3066,3073,3072,3408,3409,3416,3415
2581, 3067,3068,3075,3074,3410,3411,3418,3417
2582, 3068,3069,3076,3075,3411,3412,3419,3418
2583, 3069,3070,3077,3076,3412,3413,3420,3419
2584, 3070,3071,3078,3077,3413,3414,3421,3420
2585, 3071,3072,3079,3078,3414,3415,3422,3421
2586, 3072,3073,3080,3079,3415,3416,3423,3422
2587, 3074,3075,3082,3081,3417,3418,3425,3424
2588, 3075,3076,3083,3082,3418,3419,3426,3425
2589, 3076,3077,3084,3083,3419,3420,3427,3426
2590, 3077,3078,3085,3084,3420,3421,3428,3427
2591, 3078,3079,3086,3085,3421,3422,3429,3428
2592, 3079,3080,3087,3086,3422,3423,3430,3429
2593, 3088,3089,3096,3095,3431,3432,3439,3438
2594, 3089,3090,3097,3096,3432,3433,3440,3439
2595, 3090,3091,3098,3097,3433,3434,3441,3440
2596, 3091,3092,3099,3098,3434,3435,3442,3441
2597, 3092,3093,3100,3099,3435,3436,3443,3442
2598, 3093,3094,3101,3100,3436,3437,3444,3443
2599, 3095,3096,3103,3102,3438,3439,3446,3445
2600, 3096,3097,3104,3103,3439,3440,3447,3446
2601, 3097,3098,3105,3104,3440,3441,3448,3447
2602, 3098,3099,3106,3105,3441,3442,3449,3448
2603, 3099,3100,3107,3106,3442,3443,3450,3449
2604, 3100,3101,3108,3107,3443,3444,3451,3450
2605, 3102,3103,3110,3109,3445,3446,3453,3452
2606, 3103,3104,3111,3110,3446,3447,3454,3453
2607, 3104,3105,3112,3111,3447,3448,3455,3454
2608, 3105,3106,3113,3112,3448,3449,3456,3455
2609, 3106,3107,3114,3113,3449,3450,3457,3456
2610, 3107,3108,3115,3114,3450,3451,3458,3457
2611, 3109,3110,3117,3116,3452,3453,3460,3459
2612, 3110,3111,3118,3117,3453,3454,3461,3460
2613, 3111,3112,3119,3118,3454,3455,3462,3461
2614, 3112,3113,3120,3119,3455,3456,3463,3462
2615, 3113,3114,3121,3120,3456,3457,3464,3463
2616, 3114,3115,3122,3121,3457,3458,3465,3464
2617, 3116,3117,3124,3123,3459,3460,3467,3466
2618, 3117,3118,3125,3124,3460,3461,3468,3467
2619, 3118,3119,3126,3125,3461,3462,3469,3468
2620, 3119,3120,3127,3126,3462,3463,3470,3469
2621, 3120,3121,3128,3127,3463,3464,3471,3470
2622, 3121,3122,3129,3128,3464,3465,3472,3471
2623, 3123,3124,3131,3130,3466,3467,3474,3473
2624, 3124,3125,3132,3131,3467,3468,3475,3474
2625, 3125,3126,3133,3132,3468,3469,3476,3475
2626, 3126,3127,3134,3133,3469,3470,3477,3476
2627, 3127,3128,3135,3134,3470,3471,3478,3477
2628, 3128,3129,3136,3135,3471,3472,3479,3478
2629, 3130,3131,3138,3137,3473,3474,3481,3480
2630, 3131,3132,3139,3138,3474,3475,3482,3481
2631, 3132,3133,3140,3139,3475,3476,3483,3482
2632, 3133,3134,3141,3140,3476,3477,3484,3483
2633, 3134,3135,3142,3141,3477,3478,3485,3484
2634, 3135,3136,3143,3142,3478,3479,3486,3485
2635, 3137,3138,3145,3144,3480,3481,3488,3487
2636, 3138,3139,3146,3145,3481,3482,3489,3488
2637, 3139,3140,3147,3146,3482,3483,3490,3489
2638, 3140,3141,3148,3147,3483,3484,3491,3490
2639, 3141,3142,3149,3148,3484,3485,3492,3491
2640, 3142,3143,3150,3149,3485,3486,3493,3492
2641, 3144,3145,3152,3151,3487,3488,3495,3494
2642, 3145,3146,3153,3152,3488,3489,3496,3495
2643, 3146,3147,3154,3153,3489,3490,3497,3496
2644, 3147,3148,3155,3154,3490,3491,3498,3497
2645, 3148,3149,3156,3155,3491,3492,3499,3498
2646, 3149,3150,3157,3156,3492,3493,3500,3499
2647, 3151,3152,3159,3158,3494,3495,3502,3501
2648, 3152,3153,3160,3159,3495,3496,3503,3502
2649, 3153,3154,3161,3160,3496,3497,3504,3503
2650, 3154,3155,3162,3161,3497,3498,3505,3504
2651, 3155,3156,3163,3162,3498,3499,3506,3505
2652, 3156,3157,3164,3163,3499,3500,3507,3506
2653, 3158,3159,3166,3165,3501,3502,3509,3508
2654, 3159,3160,3167,3166,3502,3503,3510,3509
2655, 3160,3161,3168,3167,3503,3504,3511,3510
2656, 3161,3162,3169,3168,3504,3505,3512,3511
2657, 3162,3163,3170,3169,3505,3506,3513,3512
2658, 3163,3164,3171,3170,3506,3507,3514,3513
2659, 3165,3166,3173,3172,3508,3509,3516,3515
2660, 3166,3167,3174,3173,3509,3510,3517,3516
2661, 3167,3168,3175,3174,3510,3511,3518,3517
2662, 3168,3169,3176,3175,3511,3512,3519,3518
2663, 3169,3170,3177,3176,3512,3513,3520,3519
2664, 3170,3171,3178,3177,3513,3514,3521,3520
2665, 3172,3173,3180,3179,3515,3516,3523,3522
2666, 3173,3174,3181,3180,3516,3517,3524,3523
2667, 3174,3175,3182,3181,3517,3518,3525,3524
2668, 3175,3176,3183,3182,3518,3519,3526,3525
2669, 3176,3177,3184,3183,3519,3520,3527,3526
2670, 3177,3178,3185,3184,3520,3521,3528,3527
2671, 3179,3180,3187,3186,3522,3523,3530,3529
2672, 3180,3181,3188,3187,3523,3524,3531,3530
2673, 3181,3182,3189,3188,3524,3525,3532,3531
2674, 3182,3183,3190,3189,3525,3526,3533,3532
2675, 3183,3184,3191,3190,3526,3527,3534,3533
2676, 3184,3185,3192,3191,3527,3528,3535,3534
2677, 3186,3187,3194,3193,3529,3530,3537,3536
2678, 3187,3188,3195,3194,3530,3531,3538,3537
2679, 3188,3189,3196,3195,3531,3532,3539,3538
2680, 3189,3190,3197,3196,3532,3533,3540,3539
2681, 3190,3191,3198,3197,3533,3534,3541,3540
2682, 3191,3192,3199,3198,3534,3535,3542,3541
2683, 3193,3194,3201,3200,3536,3537,3544,3543
2684, 3194,3195,3202,3201,3537,3538,3545,3544
2685, 3195,3196,3203,3202,3538,3539,3546,3545
2686, 3196,3197,3204,3203,3539,3540,3547,3546
2687, 3197,3198,3205,3204,3540,3541,3548,3547
2688, 3198,3199,3206,3205,3541,3542,3549,3548
2689, 3200,3201,3208,3207,3543,3544,3551,3550
2690, 3201,3202,3209,3208,3544,3545,3552,3551
2691, 3202,3203,3210,3209,3545,3546,3553,3552
2692, 3203,3204,3211,3210,3546,3547,3554,3553
2693, 3204,3205,3212,3211,3547,3548,3555,3554
2694, 3205,3206,3213,3212,3548,3549,3556,3555
2695, 3207,3208,3215,3214,3550,3551,3558,3557
2696, 3208,3209,3216,3215,3551,3552,3559,3558
2697, 3209,3210,3217,3216,3552,3553,3560,3559
2698, 3210,3211,3218,3217,3553,3554,3561,3560
2699, 3211,3212,3219,3218,3554,3555,3562,3561
2700, 3212,3213,3220,3219,3555,3556,3563,3562
2701, 3214,3215,3222,3221,3557,3558,3565,3564
2702, 3215,3216,3223,3222,3558,3559,3566,3565
2703, 3216,3217,3224,3223,3559,3560,3567,3566
2704, 3217,3218,3225,3224,3560,3561,3568,3567
2705, 3218,3219,3226,3225,3561,3562,3569,3568
2706, 3219,3220,3227,3226,3562,3563,3570,3569
2707, 3221,3222,3229,3228,3564,3565,3572,3571
2708, 3222,3223,3230,3229,3565,3566,3573,3572
2709, 3223,3224,3231,3230,3566,3567,3574,3573
2710, 3224,3225,3232,3231,3567,3568,3575,3574
2711, 3225,3226,3233,3232,3568,3569,3576,3575
2712, 3226,3227,3234,3233,3569,3570,3577,3576
2713, 3228,3229,3236,3235,3571,3572,3579,3578
2714, 3229,3230,3237,3236,3572,3573,3580,3579
2715, 3230,3231,3238,3237,3573,3574,3581,3580
2716, 3231,3232,3239,3238,3574,3575,3582,3581
2717, 3232,3233,3240,3239,3575,3576,3583,3582
2718, 3233,3234,3241,3240,3576,3577,3584,3583
2719, 3235,3236,3243,3242,3578,3579,3586,3585
2720, 3236,3237,3244,3243,3579,3580,3587,3586
2721, 3237,3238,3245,3244,3580,3581,3588,3587
2722, 3238,3239,3246,3245,3581,3582,3589,3588
2723, 3239,3240,3247,3246,3582,3583,3590,3589
2724, 3240,3241,3248,3247,3583,3584,3591,3590
2725, 3242,3243,3250,3249,3585,3586,3593,3592
2726, 3243,3244,3251,3250,3586,3587,3594,3593
2727, 3244,3245,3252,3251,3587,3588,3595,3594
2728, 3245,3246,3253,3252,3588,3589,3596,3595
2729, 3246,3247,3254,3253,3589,3590,3597,3596
2730, 3247,3248,3255,3254,3590,3591,3598,3597
2731, 3249,3250,3257,3256,3592,3593,3600,3599
2732, 3250,3251,3258,3257,3593,3594,3601,3600
2733, 3251,3252,3259,3258,3594,3595,3602,3601
2734, 3252,3253,3260,3259,3595,3596,3603,3602
2735, 3253,3254,3261,3260,3596,3597,3604,3603
2736, 3254,3255,3262,3261,3597,3598,3605,3604
2737, 3256,3257,3264,3263,3599,3600,3607,3606
2738, 3257,3258,3265,3264,3600,3601,3608,3607
2739, 3258,3259,3266,3265,3601,3602,3609,3608
2740, 3259,3260,3267,3266,3602,3603,3610,3609
2741, 3260,3261,3268,3267,3603,3604,3611,3610
2742, 3261,3262,3269,3268,3604,3605,3612,3611
2743, 3263,3264,3271,3270,3606,3607,3614,3613
2744, 3264,3265,3272,3271,3607,3608,3615,3614
2745, 3265,3266,3273,3272,3608,3609,3616,3615
2746, 3266,3267,3274,3273,3609,3610,3617,3616
2747, 3267,3268,3275,3274,3610,3611,3618,3617
2748, 3268,3269,3276,3275,3611,3612,3619,3618
2749, 3270,3271,3278,3277,3613,3614,3621,3620
2750, 3271,3272,3279,3278,3614,3615,3622,3621
2751, 3272,3273,3280,3279,3615,3616,3623,3622
2752, 3273,3274,3281,3280,3616,3617,3624,3623
2753, 3274,3275,3282,3281,3617,3618,3625,3624
2754, 3275,3276,3283,3282,3618,3619,3626,3625
2755, 3277,3278,3285,3284,3620,3621,3628,3627
2756, 3278,3279,3286,3285,3621,3622,3629,3628
2757, 3279,3280,3287,3286,3622,3623,3630,3629
2758, 3280,3281,3288,3287,3623,3624,3631,3630
2759, 3281,3282,3289,3288,3624,3625,3632,3631
2760, 3282,3283,3290,3289,3625,3626,3633,3632
2761, 3284,3285,3292,3291,3627,3628,3635,3634
2762, 3285,3286,3293,3292,3628,3629,3636,3635
2763, 3286,3287,3294,3293,3629,3630,3637,3636
2764, 3287,3288,3295,3294,3630,3631,3638,3637
2765, 3288,3289,3296,3295,3631,3632,3639,3638
2766, 3289,3290,3297,3296,3632,3633,3640,3639
2767, 3291,3292,3299,3298,3634,3635,3642,3641
2768, 3292,3293,3300,3299,3635,3636,3643,3642
2769, 3293,3294,3301,3300,3636,3637,3644,3643
2770, 3294,3295,3302,3301,3637,3638,3645,3644
2771, 3295,3296,3303,3302,3638,3639,3646,3645
2772, 3296,3297,3304,3303,3639,3640,3647,3646
2773, 3298,3299,3306,3305,3641,3642,3649,3648
2774, 3299,3300,3307,3306,3642,3643,3650,3649
2775, 3300,3301,3308,3307,3643,3644,3651,3650
2776, 3301,3302,3309,3308,3644,3645,3652,3651
2777, 3302,3303,3310,3309,3645,3646,3653,3652
2778, 3303,3304,3311,3310,3646,3647,3654,3653
2779, 3305,3306,3313,3312,3648,3649,3656,3655
2780, 3306,3307,3314,3313,3649,3650,3657,3656
2781, 3307,3308,3315,3314,3650,3651,3658,3657
2782, 3308,3309,3316,3315,3651,3652,3659,3658
2783, 3309,3310,3317,3316,3652,3653,3660,3659
2784, 3310,3311,3318,3317,3653,3654,3661,3660
2785, 3312,3313,3320,3319,3655,3656,3663,3662
2786, 3313,3314,3321,3320,3656,3657,3664,3663
2787, 3314,3315,3322,3321,3657,3658,3665,3664
2788, 3315,3316,3323,3322,3658,3659,3666,3665
2789, 3316,3317,3324,3323,3659,3660,3667,3666
2790, 3317,3318,3325,3324,3660,3661,3668,3667
2791, 3319,3320,3327,3326,3662,3663,3670,3669
2792, 3320,3321,3328,3327,3663,3664,3671,3670
2793, 3321,3322,3329,3328,3664,3665,3672,3671
2794, 3322,3323,3330,3329,3665,3666,3673,3672
2795, 3323,3324,3331,3330,3666,3667,3674,3673
2796, 3324,3325,3332,3331,3667,3668,3675,3674
2797, 3326,3327,3334,3333,3669,3670,3677,3676
2798, 3327,3328,3335,3334,3670,3671,3678,3677
2799, 3328,3329,3336,3335,3671,3672,3679,3678
2800, 3329,3330,3337,3336,3672,3673,3680,3679
2801, 3330,3331,3338,3337,3673,3674,3681,3680
2802, 3331,3332,3339,3338,3674,3675,3682,3681
2803, 3333,3334,3341,3340,3676,3677,3684,3683
2804, 3334,3335,3342,3341,3677,3678,3685,3684
2805, 3335,3336,3343,3342,3678,3679,3686,3685
2806, 3336,3337,3344,3343,3679,3680,3687,3686
2807, 3337,3338,3345,3344,3680,3681,3688,3687
2808, 3338,3339,3346,3345,3681,3682,3689,3688
2809, 3340,3341,3348,3347,3683,3684,3691,3690
2810, 3341,3342,3349,3348,3684,3685,3692,3691
2811, 3342,3343,3350,3349,3685,3686,3693,3692
2812, 3343,3344,3351,3350,3686,3687,3694,3693
2813, 3344,3345,3352,3351,3687,3688,3695,3694
2814, 3345,3346,3353,3352,3688,3689,3696,3695
2815, 3347,3348,3355,3354,3690,3691,3698,3697
2816, 3348,3349,3356,3355,3691,3692,3699,3698
2817, 3349,3350,3357,3356,3692,3693,3700,3699
2818, 3350,3351,3358,3357,3693,3694,3701,3700
2819, 3351,3352,3359,3358,3694,3695,3702,3701
2820, 3352,3353,3360,3359,3695,3696,3703,3702
2821, 3354,3355,3362,3361,3697,3698,3705,3704
2822, 3355,3356,3363,3362,3698,3699,3706,3705
2823, 3356,3357,3364,3363,3699,3700,3707,3706
2824, 3357,3358,3365,3364,3700,3701,3708,3707
2825, 3358,3359,3366,3365,3701,3702,3709,3708
2826, 3359,3360,3367,3366,3702,3703,3710,3709
2827, 3361,3362,3369,3368,3704,3705,3712,3711
2828, 3362,3363,3370,3369,3705,3706,3713,3712
2829, 3363,3364,3371,3370,3706,3707,3714,3713
2830, 3364,3365,3372,3371,3707,3708,3715,3714
2831, 3365,3366,3373,3372,3708,3709,3716,3715
2832, 3366,3367,3374,3373,3709,3710,3717,3716
2833, 3368,3369,3376,3375,3711,3712,3719,3718
2834, 3369,3370,3377,3376,3712,3713,3720,3719
2835, 3370,3371,3378,3377,3713,3714,3721,3720
2836, 3371,3372,3379,3378,3714,3715,3722,3721
2837, 3372,3373,3380,3379,3715,3716,3723,3722
2838, 3373,3374,3381,3380,3716,3717,3724,3723
2839, 3375,3376,3383,3382,3718,3719,3726,3725
2840, 3376,3377,3384,3383,3719,3720,3727,3726
2841, 3377,3378,3385,3384,3720,3721,3728,3727
2842, 3378,3379,3386,3385,3721,3722,3729,3728
2843, 3379,3380,3387,3386,3722,3723,3730,3729
2844, 3380,3381,3388,3387,3723,3724,3731,3730
2845, 3382,3383,3390,3389,3725,3726,3733,3732
2846, 3383,3384,3391,3390,3726,3727,3734,3733
2847, 3384,3385,3392,3391,3727,3728,3735,3734
2848, 3385,3386,3393,3392,3728,3729,3736,3735
2849, 3386,3387,3394,3393,3729,3730,3737,3736
2850, 3387,3388,3395,3394,3730,3731,3738,3737
2851, 3389,3390,3397,3396,3732,3733,3740,3739
2852, 3390,3391,3398,3397,3733,3734,3741,3740
2853, 3391,3392,3399,3398,3734,3735,3742,3741
2854, 3392,3393,3400,3399,3735,3736,3743,3742
2855, 3393,3394,3401,3400,3736,3737,3744,3743
2856, 3394,3395,3402,3401,3737,3738,3745,3744
2857, 3396,3397,3404,3403,3739,3740,3747,3746
2858, 3397,3398,3405,3404,3740,3741,3748,3747
2859, 3398,3399,3406,3405,3741,3742,3749,3748
2860, 3399,3400,3407,3406,3742,3743,3750,3749
2861, 3400,3401,3408,3407,3743,3744,3751,3750
2862, 3401,3402,3409,3408,3744,3745,3752,3751
2863, 3403,3404,3411,3410,3746,3747,3754,3753
2864, 3404,3405,3412,3411,3747,3748,3755,3754
2865, 3405,3406,3413,3412,3748,3749,3756,3755
2866, 3406,3407,3414,3413,3749,3750,3757,3756
2867, 3407,3408,3415,3414,3750,3751,3758,3757
2868, 3408,3409,3416,3415,3751,3752,3759,3758
2869, 3410,3411,3418,3417,3753,3754,3761,3760
2870, 3411,3412,3419,3418,3754,3755,3762,3761
2871, 3412,3413,3420,3419,3755,3756,3763,3762
2872, 3413,3414,3421,3420,3756,3757,3764,3763
2873, 3414,3415,3422,3421,3757,3758,3765,3764
2874, 3415,3416,3423,3422,3758,3759,3766,3765
2875, 3417,3418,3425,3424,3760,3761,3768,3767
2876, 3418,3419,3426,3425,3761,3762,3769,3768
2877, 3419,3420,3427,3426,3762,3763,3770,3769
2878, 3420,3421,3428,3427,3763,3764,3771,3770
2879, 3421,3422,3429,3428,3764,3765,3772,3771
2880, 3422,3423,3430,3429,3765,3766,3773,3772
2881, 3431,3432,3439,3438,3774,3775,3782,3781
2882, 3432,3433,3440,3439,3775,3776,3783,3782
2883, 3433,3434,3441,3440,3776,3777,3784,3783
2884, 3434,3435,3442,3441,3777,3778,3785,3784
2885, 3435,3436,3443,3442,3778,3779,3786,3785
2886, 3436,3437,3444,3443,3779,3780,3787,3786
2887, 3438,3439,3446,3445,3781,3782,3789,3788
2888, 3439,3440,3447,3446,3782,3783,3790,3789
2889, 3440,3441,3448,3447,3783,3784,3791,3790
2890, 3441,3442,3449,3448,3784,3785,3792,3791
2891, 3442,3443,3450,3449,3785,3786,3793,3792
2892, 3443,3444,3451,3450,3786,3787,3794,3793
2893, 3445,3446,3453,3452,3788,3789,3796,3795
2894, 3446,3447,3454,3453,3789,3790,3797,3796
2895, 3447,3448,3455,3454,3790,3791,3798,3797
2896, 3448,3449,3456,3455,3791,3792,3799,3798
2897, 3449,3450,3457,3456,3792,3793,3800,3799
2898, 3450,3451,3458,3457,3793,3794,3801,3800
2899, 3452,3453,3460,3459,3795,3796,3803,3802
2900, 3453,3454,3461,3460,3796,3797,3804,3803
2901, 3454,3455,3462,3461,3797,3798,3805,3804
2902, 3455,3456,3463,3462,3798,3799,3806,3805
2903, 3456,3457,3464,3463,3799,3800,3807,3806
2904, 3457,3458,3465,3464,3800,3801,3808,3807
2905, 3459,3460,3467,3466,3802,3803,3810,3809
2906, 3460,3461,3468,3467,3803,3804,3811,3810
2907, 3461,3462,3469,3468,3804,3805,3812,3811
2908, 3462,3463,3470,3469,3805,3806,3813,3812
2909, 3463,3464,3471,3470,3806,3807,3814,3813
2910, 3464,3465,3472,3471,3807,3808,3815,3814
2911, 3466,3467,3474,3473,3809,3810,3817,3816
2912, 3467,3468,3475,3474,3810,3811,3818,3817
2913, 3468,3469,3476,3475,3811,3812,3819,3818
2914, 3469,3470,3477,3476,3812,3813,3820,3819
2915, 3470,3471,3478,3477,3813,3814,3821,3820
2916, 3471,3472,3479,3478,3814,3815,3822,3821
2917, 3473,3474,3481,3480,3816,3817,3824,3823
2918, 3474,3475,3482,3481,3817,3818,3825,3824
2919, 3475,3476,3483,3482,3818,3819,3826,3825
2920, 3476,3477,3484,3483,3819,3820,3827,3826
2921, 3477,3478,3485,3484,3820,3821,3828,3827
2922, 3478,3479,3486,3485,3821,3822,3829,3828
2923, 3480,3481,3488,3487,3823,3824,3831,3830
2924, 3481,3482,3489,3488,3824,3825,3832,3831
2925, 3482,3483,3490,3489,3825,3826,3833,3832
2926, 3483,3484,3491,3490,3826,3827,3834,3833
2927, 3484,3485,3492,3491,3827,3828,3835,3834
2928, 3485,3486,3493,3492,3828,3829,3836,3835
2929, 3487,3488,3495,3494,3830,3831,3838,3837
2930, 3488,3489,3496,3495,3831,3832,3839,3838
2931, 3489,3490,3497,3496,3832,3833,3840,3839
2932, 3490,3491,3498,3497,3833,3834,3841,3840
2933, 3491,3492,3499,3498,3834,3835,3842,3841
2934, 3492,3493,3500,3499,3835,3836,3843,3842
2935, 3494,3495,3502,3501,3837,3838,3845,3844
2936, 3495,3496,3503,3502,3838,3839,3846,3845
2937, 3496,3497,3504,3503,3839,3840,3847,3846
2938, 3497,3498,3505,3504,3840,3841,3848,3847
2939, 3498,3499,3506,3505,3841,3842,3849,3848
2940, 3499,3500,3507,3506,3842,3843,3850,3849
2941, 3501,3502,3509,3508,3844,3845,3852,3851
2942, 3502,3503,3510,3509,3845,3846,3853,3852
2943, 3503,3504,3511,3510,3846,3847,3854,3853
2944, 3504,3505,3512,3511,3847,3848,3855,3854
2945, 3505,3506,3513,3512,3848,3849,3856,3855
2946, 3506,3507,3514,3513,3849,3850,3857,3856
2947, 3508,3509,3516,3515,3851,3852,3859,3858
2948, 3509,3510,3517,3516,3852,3853,3860,3859
2949, 3510,3511,3518,3517,3853,3854,3861,3860
2950, 3511,3512,3519,3518,3854,3855,3862,3861
2951, 3512,3513,3520,3519,3855,3856,3863,3862
2952, 3513,3514,3521,3520,3856,3857,3864,3863
2953, 3515,3516,3523,3522,3858,3859,3866,3865
2954, 3516,3517,3524,3523,3859,3860,3867,3866
2955, 3517,3518,3525,3524,3860,3861,3868,3867
2956, 3518,3519,3526,3525,3861,3862,3869,3868
2957, 3519,3520,3527,3526,3862,3863,3870,3869
2958, 3520,3521,3528,3527,3863,3864,3871,3870
2959, 3522,3523,3530,3529,3865,3866,3873,3872
2960, 3523,3524,3531,3530,3866,3867,3874,3873
2961, 3524,3525,3532,3531,3867,3868,3875,3874
2962, 3525,3526,3533,3532,3868,3869,3876,3875
2963, 3526,3527,3534,3533,3869,3870,3877,3876
2964, 3527,3528,3535,3534,3870,3871,3878,3877
2965, 3529,3530,3537,3536,3872,3873,3880,3879
2966, 3530,3531,3538,3537,3873,3874,3881,3880
2967, 3531,3532,3539,3538,3874,3875,3882,3881
2968, 3532,3533,3540,3539,3875,3876,3883,3882
2969, 3533,3534,3541,3540,3876,3877,3884,3883
2970, 3534,3535,3542,3541,3877,3878,3885,3884
2971, 3536,3537,3544,3543,3879,3880,3887,3886
2972, 3537,3538,3545,3544,3880,3881,3888,3887
2973, 3538,3539,3546,3545,3881,3882,3889,3888
2974, 3539,3540,3547,3546,3882,3883,3890,3889
2975, 3540,3541,3548,3547,3883,3884,3891,3890
2976, 3541,3542,3549,3548,3884,3885,3892,3891
2977, 3543,3544,3551,3550,3886,3887,3894,3893
2978, 3544,3545,3552,3551,3887,3888,3895,3894
2979, 3545,3546,3553,3552,3888,3889,3896,3895
2980, 3546,3547,3554,3553,3889,3890,3897,3896
2981, 3547,3548,3555,3554,3890,3891,3898,3897
2982, 3548,3549,3556,3555,3891,3892,3899,3898
2983, 3550,3551,3558,3557,3893,3894,3901,3900
2984, 3551,3552,3559,3558,3894,3895,3902,3901
2985, 3552,3553,3560,3559,3895,3896,3903,3902
2986, 3553,3554,3561,3560,3896,3897,3904,3903
2987, 3554,3555,3562,3561,3897,3898,3905,3904
2988, 3555,3556,3563,3562,3898,3899,3906,3905
2989, 3557,3558,3565,3564,3900,3901,3908,3907
2990, 3558,3559,3566,3565,3901,3902,3909,3908
2991, 3559,3560,3567,3566,3902,3903,3910,3909
2992, 3560,3561,3568,3567,3903,3904,3911,3910
2993, 3561,3562,3569,3568,3904,3905,3912,3911
2994, 3562,3563,3570,3569,3905,3906,3913,3912
2995, 3564,3565,3572,3571,3907,3908,3915,3914
2996, 3565,3566,3573,3572,3908,3909,3916,3915
2997, 3566,3567,3574,3573,3909,3910,3917,3916
2998, 3567,3568,3575,3574,3910,3911,3918,3917
2999, 3568,3569,3576,3575,3911,3912,3919,3918
3000, 3569,3570,3577,3576,3912,3913,3920,3919
3001, 3571,3572,3579,3578,3914,3915,3922,3921
3002, 3572,3573,3580,3579,3915,3916,3923,3922
3003, 3573,3574,3581,3580,3916,3917,3924,3923
3004, 3574,3575,3582,3581,3917,3918,3925,3924
3005, 3575,3576,3583,3582,3918,3919,3926,3925
3006, 3576,3577,3584,3583,3919,3920,3927,3926
3007, 3578,3579,3586,3585,3921,3922,3929,3928
3008, 3579,3580,3587,3586,3922,3923,3930,3929
3009, 3580,3581,3588,3587,3923,3924,3931,3930
3010, 3581,3582,3589,3588,3924,3925,3932,3931
3011, 3582,3583,3590,3589,3925,3926,3933,3932
3012, 3583,3584,3591,3590,3926,3927,3934,3933
3013, 3585,3586,3593,3592,3928,3929,3936,3935
3014, 3586,3587,3594,3593,3929,3930,3937,3936
3015, 3587,3588,3595,3594,3930,3931,3938,3937
3016, 3588,3589,3596,3595,3931,3932,3939,3938
3017, 3589,3590,3597,3596,3932,3933,3940,3939
3018, 3590,3591,3598,3597,3933,3934,3941,3940
3019, 3592,3593,3600,3599,3935,3936,3943,3942
3020, 3593,3594,3601,3600,3936,3937,3944,3943
3021, 3594,3595,3602,3601,3937,3938,3945,3944
3022, 3595,3596,3603,3602,3938,3939,3946,3945
3023, 3596,3597,3604,3603,3939,3940,3947,3946
3024, 3597,3598,3605,3604,3940,3941,3948,3947
3025, 3599,3600,3607,3606,3942,3943,3950,3949
3026, 3600,3601,3608,3607,3943,3944,3951,3950
3027, 3601,3602,3609,3608,3944,3945,3952,3951
3028, 3602,3603,3610,3609,3945,3946,3953,3952
3029, 3603,3604,3611,3610,3946,3947,3954,3953
3030, 3604,3605,3612,3611,3947,3948,3955,3954
3031, 3606,3607,3614,3613,3949,3950,3957,3956
3032, 3607,3608,3615,3614,3950,3951,3958,3957
3033, 3608,3609,3616,3615,3951,3952,3959,3958
3034, 3609,3610,3617,3616,3952,3953,3960,3959
3035, 3610,3611,3618,3617,3953,3954,3961,3960
3036, 3611,3612,3619,3618,3954,3955,3962,3961
3037, 3613,3614,3621,3620,3956,3957,3964,3963
3038, 3614,3615,3622,3621,3957,3958,3965,3964
3039, 3615,3616,3623,3622,3958,3959,3966,3965
3040, 3616,3617,3624,3623,3959,3960,3967,3966
3041, 3617,3618,3625,3624,3960,3961,3968,3967
3042, 3618,3619,3626,3625,3961,3962,3969,3968
3043, 3620,3621,3628,3627,3963,3964,3971,3970
3044, 3621,3622,3629,3628,3964,3965,3972,3971
3045, 3622,3623,3630,3629,3965,3966,3973,3972
3046, 3623,3624,3631,3630,3966,3967,3974,3973
3047, 3624,3625,3632,3631,3967,3968,3975,3974
3048, 3625,3626,3633,3632,3968,3969,3976,3975
3049, 3627,3628,3635,3634,3970,3971,3978,3977
3050, 3628,3629,3636,3635,3971,3972,3979,3978
3051, 3629,3630,3637,3636,3972,3973,3980,3979
3052, 3630,3631,3638,3637,3973,3974,3981,3980
3053, 3631,3632,3639,3638,3974,3975,3982,3981
3054, 3632,3633,3640,3639,3975,3976,3983,3982
3055, 3634,3635,3642,3641,3977,3978,3985,3984
3056, 3635,3636,3643,3642,3978,3979,3986,3985
3057, 3636,3637,3644,3643,3979,3980,3987,3986
3058, 3637,3638,3645,3644,3980,3981,3988,3987
3059, 3638,3639,3646,3645,3981,3982,3989,3988
3060, 3639,3640,3647,3646,3982,3983,3990,3989
3061, 3641,3642,3649,3648,3984,3985,3992,3991
3062, 3642,3643,3650,3649,3985,3986,3993,3992
3063, 3643,3644,3651,3650,3986,3987,3994,3993
3064, 3644,3645,3652,3651,3987,3988,3995,3994
3065, 3645,3646,3653,3652,3988,3989,3996,3995
3066, 3646,3647,3654,3653,3989,3990,3997,3996
3067, 3648,3649,3656,3655,3991,3992,3999,3998
3068, 3649,3650,3657,3656,3992,3993,4000,3999
3069, 3650,3651,3658,3657,3993,3994,4001,4000
3070, 3651,3652,3659,3658,3994,3995,4002,4001
3071, 3652,3653,3660,3659,3995,3996,4003,4002
3072, 3653,3654,3661,3660,3996,3997,4004,4003
3073, 3655,3656,3663,3662,3998,3999,4006,4005
3074, 3656,3657,3664,3663,3999,4000,4007,4006
3075, 3657,3658,3665,3664,4000,4001,4008,4007
3076, 3658,3659,3666,3665,4001,4002,4009,4008
3077, 3659,3660,3667,3666,4002,4003,4010,4009
3078, 3660,3661,3668,3667,4003,4004,4011,4010
3079, 3662,3663,3670,3669,4005,4006,4013,4012
3080, 3663,3664,3671,3670,4006,4007,4014,4013
3081, 3664,3665,3672,3671,4007,4008,4015,4014
3082, 3665,3666,3673,3672,4008,4009,4016,4015
3083, 3666,3667,3674,3673,4009,4010,4017,4016
3084, 3667,3668,3675,3674,4010,4011,4018,4017
3085, 3669,3670,3677,3676,4012,4013,4020,4019
3086, 3670,3671,3678,3677,4013,4014,4021,4020
3087, 3671,3672,3679,3678,4014,4015,4022,4021
3088, 3672,3673,3680,3679,4015,4016,4023,4022
3089, 3673,3674,3681,3680,4016,4017,4024,4023
3090, 3674,3675,3682,3681,4017,4018,4025,4024
3091, 3676,3677,3684,3683,4019,4020,4027,4026
3092, 3677,3678,3685,3684,4020,4021,4028,4027
3093, 3678,3679,3686,3685,4021,4022,4029,4028
3094, 3679,3680,3687,3686,4022,4023,4030,4029
3095, 3680,3681,3688,3687,4023,4024,4031,4030
3096, 3681,3682,3689,3688,4024,4025,4032,4031
3097, 3683,3684,3691,3690,4026,4027,4034,4033
3098, 3684,3685,3692,3691,4027,4028,4035,4034
3099, 3685,3686,3693,3692,4028,4029,4036,4035
3100, 3686,3687,3694,3693,4029,4030,4037,4036
3101, 3687,3688,3695,3694,4030,4031,4038,4037
3102, 3688,3689,3696,3695,4031,4032,4039,4038
3103, 3690,3691,3698,3697,4033,4034,4041,4040
3104, 3691,3692,3699,3698,4034,4035,4042,4041
3105, 3692,3693,3700,3699,4035,4036,4043,4042
3106, 3693,3694,3701,3700,4036,4037,4044,4043
3107, 3694,3695,3702,3701,4037,4038,4045,4044
3108, 3695,3696,3703,3702,4038,4039,4046,4045
3109, 3697,3698,3705,3704,4040,4041,4048,4047
3110, 3698,3699,3706,3705,4041,4042,4049,4048
3111, 3699,3700,3707,3706,4042,4043,4050,4049
3112, 3700,3701,3708,3707,4043,4044,4051,4050
3113, 3701,3702,3709,3708,4044,4045,4052,4051
3114, 3702,3703,3710,3709,4045,4046,4053,4052
3115, 3704,3705,3712,3711,4047,4048,4055,4054
3116, 3705,3706,3713,3712,4048,4049,4056,4055
3117, 3706,3707,3714,3713,4049,4050,4057,4056
3118, 3707,3708,3715,3714,4050,4051,4058,4057
3119, 3708,3709,3716,3715,4051,4052,4059,4058
3120, 3709,3710,3717,3716,4052,4053,4060,4059
3121, 3711,3712,3719,3718,4054,4055,4062,4061
3122, 3712,3713,3720,3719,4055,4056,4063,4062
3123, 3713,3714,3721,3720,4056,4057,4064,4063
3124, 3714,3715,3722,3721,4057,4058,4065,4064
3125, 3715,3716,3723,3722,4058,4059,4066,4065
3126, 3716,3717,3724,3723,4059,4060,4067,4066
3127, 3718,3719,3726,3725,4061,4062,4069,4068
3128, 3719,3720,3727,3726,4062,4063,4070,4069
3129, 3720,3721,3728,3727,4063,4064,4071,4070
3130, 3721,3722,3729,3728,4064,4065,4072,4071
3131, 3722,3723,3730,3729,4065,4066,4073,4072
3132, 3723,3724,3731,3730,4066,4067,4074,4073
3133, 3725,3726,3733,3732,4068,4069,4076,4075
3134, 3726,3727,3734,3733,4069,4070,4077,4076
3135, 3727,3728,3735,3734,4070,4071,4078,4077
3136, 3728,3729,3736,3735,4071,4072,4079,4078
3137, 3729,3730,3737,3736,4072,4073,4080,4079
3138, 3730,3731,3738,3737,4073,4074,4081,4080
3139, 3732,3733,3740,3739,4075,4076,4083,4082
3140, 3733,3734,3741,3740,4076,4077,4084,4083
3141, 3734,3735,3742,3741,4077,4078,4085,4084
3142, 3735,3736,3743,3742,4078,4079,4086,4085
3143, 3736,3737,3744,3743,4079,4080,4087,4086
3144, 3737,3738,3745,3744,4080,4081,4088,4087
3145, 3739,3740,3747,3746,4082,4083,4090,4089
3146, 3740,3741,3748,3747,4083,4084,4091,4090
3147, 3741,3742,3749,3748,4084,4085,4092,4091
3148, 3742,3743,3750,3749,4085,4086,4093,4092
3149, 3743,3744,3751,3750,4086,4087,4094,4093
3150, 3744,3745,3752,3751,4087,4088,4095,4094
3151, 3746,3747,3754,3753,4089,4090,4097,4096
3152, 3747,3748,3755,3754,4090,4091,4098,4097
3153, 3748,3749,3756,3755,4091,4092,4099,4098
3154, 3749,3750,3757,3756,4092,4093,4100,4099
3155, 3750,3751,3758,3757,4093,4094,4101,4100
3156, 3751,3752,3759,3758,4094,4095,4102,4101
3157, 3753,3754,3761,3760,4096,4097,4104,4103
3158, 3754,3755,3762,3761,4097,4098,4105,4104
3159, 3755,3756,3763,3762,4098,4099,4106,4105
3160, 3756,3757,3764,3763,4099,4100,4107,4106
3161, 3757,3758,3765,3764,4100,4101,4108,4107
3162, 3758,3759,3766,3765,4101,4102,4109,4108
3163, 3760,3761,3768,3767,4103,4104,4111,4110
3164, 3761,3762,3769,3768,4104,4105,4112,4111
3165, 3762,3763,3770,3769,4105,4106,4113,4112
3166, 3763,3764,3771,3770,4106,4107,4114,4113
3167, 3764,3765,3772,3771,4107,4108,4115,4114
3168, 3765,3766,3773,3772,4108,4109,4116,4115
3169, 3774,3775,3782,3781,4117,4118,4125,4124
3170, 3775,3776,3783,3782,4118,4119,4126,4125
3171, 3776,3777,3784,3783,4119,4120,4127,4126
3172, 3777,3778,3785,3784,4120,4121,4128,4127
3173, 3778,3779,3786,3785,4121,4122,4129,4128
3174, 3779,3780,3787,3786,4122,4123,4130,4129
3175, 3781,3782,3789,3788,4124,4125,4132,4131
3176, 3782,3783,3790,3789,4125,4126,4133,4132
3177, 3783,3784,3791,3790,4126,4127,4134,4133
3178, 3784,3785,3792,3791,4127,4128,4135,4134
3179, 3785,3786,3793,3792,4128,4129,4136,4135
3180, 3786,3787,3794,3793,4129,4130,4137,4136
3181, 3788,3789,3796,3795,4131,4132,4139,4138
3182, 3789,3790,3797,3796,4132,4133,4140,4139
3183, 3790,3791,3798,3797,4133,4134,4141,4140
3184, 3791,3792,3799,3798,4134,4135,4142,4141
3185, 3792,3793,3800,3799,4135,4136,4143,4142
3186, 3793,3794,3801,3800,4136,4137,4144,4143
3187, 3795,3796,3803,3802,4138,4139,4146,4145
3188, 3796,3797,3804,3803,4139,4140,4147,4146
3189, 3797,3798,3805,3804,4140,4141,4148,4147
3190, 3798,3799,3806,3805,4141,4142,4149,4148
3191, 3799,3800,3807,3806,4142,4143,4150,4149
3192, 3800,3801,3808,3807,4143,4144,4151,4150
3193, 3802,3803,3810,3809,4145,4146,4153,4152
3194, 3803,3804,3811,3810,4146,4147,4154,4153
3195, 3804,3805,3812,3811,4147,4148,4155,4154
3196, 3805,3806,3813,3812,4148,4149,4156,4155
3197, 3806,3807,3814,3813,4149,4150,4157,4156
3198, 3807,3808,3815,3814,4150,4151,4158,4157
3199, 3809,3810,3817,3816,4152,4153,4160,4159
3200, 3810,3811,3818,3817,4153,4154,4161,4160
3201, 3811,3812,3819,3818,4154,4155,4162,4161
3202, 3812,3813,3820,3819,4155,4156,4163,4162
3203, 3813,3814,3821,3820,4156,4157,4164,4163
3204, 3814,3815,3822,3821,4157,4158,4165,4164
3205, 3816,3817,3824,3823,4159,4160,4167,4166
3206, 3817,3818,3825,3824,4160,4161,4168,4167
3207, 3818,3819,3826,3825,4161,4162,4169,4168
3208, 3819,3820,3827,3826,4162,4163,4170,4169
3209, 3820,3821,3828,3827,4163,4164,4171,4170
3210, 3821,3822,3829,3828,4164,4165,4172,4171
3211, 3823,3824,3831,3830,4166,4167,4174,4173
3212, 3824,3825,3832,3831,4167,4168,4175,4174
3213, 3825,3826,3833,3832,4168,4169,4176,4175
3214, 3826,3827,3834,3833,4169,4170,4177,4176
3215, 3827,3828,3835,3834,4170,4171,4178,4177
3216, 3828,3829,3836,3835,4171,4172,4179,4178
3217, 3830,3831,3838,3837,4173,4174,4181,4180
3218, 3831,3832,3839,3838,4174,4175,4182,4181
3219, 3832,3833,3840,3839,4175,4176,4183,4182
3220, 3833,3834,3841,3840,4176,4177,4184,4183
3221, 3834,3835,3842,3841,4177,4178,4185,4184
3222, 3835,3836,3843,3842,4178,4179,4186,4185
3223, 3837,3838,3845,3844,4180,4181,4188,4187
3224, 3838,3839,3846,3845,4181,4182,4189,4188
3225, 3839,3840,3847,3846,4182,4183,4190,4189
3226, 3840,3841,3848,3847,4183,4184,4191,4190
3227, 3841,3842,3849,3848,4184,4185,4192,4191
3228, 3842,3843,3850,3849,4185,4186,4193,4192
3229, 3844,3845,3852,3851,4187,4188,4195,4194
3230, 3845,3846,3853,3852,4188,4189,4196,4195
3231, 3846,3847,3854,3853,4189,4190,4197,4196
3232, 3847,3848,3855,3854,4190,4191,4198,4197
3233, 3848,3849,3856,3855,4191,4192,4199,4198
3234, 3849,3850,3857,3856,4192,4193,4200,4199
3235, 3851,3852,3859,3858,4194,4195,4202,4201
3236, 3852,3853,3860,3859,4195,4196,4203,4202
3237, 3853,3854,3861,3860,4196,4197,4204,4203
3238, 3854,3855,3862,3861,4197,4198,4205,4204
3239, 3855,3856,3863,3862,4198,4199,4206,4205
3240, 3856,3857,3864,3863,4199,4200,4207,4206
3241, 3858,3859,3866,3865,4201,4202,4209,4208
3242, 3859,3860,3867,3866,4202,4203,4210,4209
3243, 3860,3861,3868,3867,4203,4204,4211,4210
3244, 3861,3862,3869,3868,4204,4205,4212,4211
3245, 3862,3863,3870,3869,4205,4206,4213,4212
3246, 3863,3864,3871,3870,4206,4207,4214,4213
3247, 3865,3866,3873,3872,4208,4209,4216,4215
3248, 3866,3867,3874,3873,4209,4210,4217,4216
3249, 3867,3868,3875,3874,4210,4211,4218,4217
3250, 3868,3869,3876,3875,4211,4212,4219,4218
3251, 3869,3870,3877,3876,4212,4213,4220,4219
3252, 3870,3871,3878,3877,4213,4214,4221,4220
3253, 3872,3873,3880,3879,4215,4216,4223,4222
3254, 3873,3874,3881,3880,4216,4217,4224,4223
3255, 3874,3875,3882,3881,4217,4218,4225,4224
3256, 3875,3876,3883,3882,4218,4219,4226,4225
3257, 3876,3877,3884,3883,4219,4220,4227,4226
3258, 3877,3878,3885,3884,4220,4221,4228,4227
3259, 3879,3880,3887,3886,4222,4223,4230,4229
3260, 3880,3881,3888,3887,4223,4224,4231,4230
3261, 3881,3882,3889,3888,4224,4225,4232,4231
3262, 3882,3883,3890,3889,4225,4226,4233,4232
3263, 3883,3884,3891,3890,4226,4227,4234,4233
3264, 3884,3885,3892,3891,4227,4228,4235,4234
3265, 3886,3887,3894,3893,4229,4230,4237,4236
3266, 3887,3888,3895,3894,4230,4231,4238,4237
3267, 3888,3889,3896,3895,4231,4232,4239,4238
3268, 3889,3890,3897,3896,4232,4233,4240,4239
3269, 3890,3891,3898,3897,4233,4234,4241,4240
3270, 3891,3892,3899,3898,4234,4235,4242,4241
3271, 3893,3894,3901,3900,4236,4237,4244,4243
3272, 3894,3895,3902,3901,4237,4238,4245,4244
3273, 3895,3896,3903,3902,4238,4239,4246,4245
3274, 3896,3897,3904,3903,4239,4240,4247,4246
3275, 3897,3898,3905,3904,4240,4241,4248,4247
3276, 3898,3899,3906,3905,4241,4242,4249,4248
3277, 3900,3901,3908,3907,4243,4244,4251,4250
3278, 3901,3902,3909,3908,4244,4245,4252,4251
3279, 3902,3903,3910,3909,4245,4246,4253,4252
3280, 3903,3904,3911,3910,4246,4247,4254,4253
3281, 3904,3905,3912,3911,4247,4248,4255,4254
3282, 3905,3906,3913,3912,4248,4249,4256,4255
3283, 3907,3908,3915,3914,4250,4251,4258,4257
3284, 3908,3909,3916,3915,4251,4252,4259,4258
3285, 3909,3910,3917,3916,4252,4253,4260,4259
3286, 3910,3911,3918,3917,4253,4254,4261,4260
3287, 3911,3912,3919,3918,4254,4255,4262,4261
3288, 3912,3913,3920,3919,4255,4256,4263,4262
3289, 3914,3915,3922,3921,4257,4258,4265,4264
3290, 3915,3916,3923,3922,4258,4259,4266,4265
3291, 3916,3917,3924,3923,4259,4260,4267,4266
3292, 3917,3918,3925,3924,4260,4261,4268,4267
3293, 3918,3919,3926,3925,4261,4262,4269,4268
3294, 3919,3920,3927,3926,4262,4263,4270,4269
3295, 3921,3922,3929,3928,4264,4265,4272,4271
3296, 3922,3923,3930,3929,4265,4266,4273,4272
3297, 3923,3924,3931,3930,4266,4267,4274,4273
3298, 3924,3925,3932,3931,4267,4268,4275,4274
3299, 3925,3926,3933,3932,4268,4269,4276,4275
3300, 3926,3927,3934,3933,4269,4270,4277,4276
3301, 3928,3929,3936,3935,4271,4272,4279,4278
3302, 3929,3930,3937,3936,4272,4273,4280,4279
3303, 3930,3931,3938,3937,4273,4274,4281,4280
3304, 3931,3932,3939,3938,4274,4275,4282,4281
3305, 3932,3933,3940,3939,4275,4276,4283,4282
3306, 3933,3934,3941,3940,4276,4277,4284,4283
3307, 3935,3936,3943,3942,4278,4279,4286,4285
3308, 3936,3937,3944,3943,4279,4280,4287,4286
3309, 3937,3938,3945,3944,4280,4281,4288,4287
3310, 3938,3939,3946,3945,4281,4282,4289,4288
3311, 3939,3940,3947,3946,4282,4283,4290,4289
3312, 3940,3941,3948,3947,4283,4284,4291,4290
3313, 3942,3943,3950,3949,4285,4286,4293,4292
3314, 3943,3944,3951,3950,4286,4287,4294,4293
3315, 3944,3945,3952,3951,4287,4288,4295,4294
3316, 3945,3946,3953,3952,4288,4289,4296,4295
3317, 3946,3947,3954,3953,4289,4290,4297,4296
3318, 3947,3948,3955,3954,4290,4291,4298,4297
3319, 3949,3950,3957,3956,4292,4293,4300,4299
3320, 3950,3951,3958,3957,4293,4294,4301,4300
3321, 3951,3952,3959,3958,4294,4295,4302,4301
3322, 3952,3953,3960,3959,4295,4296,4303,4302
3323, 3953,3954,3961,3960,4296,4297,4304,4303
3324, 3954,3955,3962,3961,4297,4298,4305,4304
3325, 3956,3957,3964,3963,4299,4300,4307,4306
3326, 3957,3958,3965,3964,4300,4301,4308,4307
3327, 3958,3959,3966,3965,4301,4302,4309,4308
3328, 3959,3960,3967,3966,4302,4303,4310,4309
3329, 3960,3961,3968,3967,4303,4304,4311,4310
3330, 3961,3962,3969,3968,4304,4305,4312,4311
3331, 3963,3964,3971,3970,4306,4307,4314,4313
3332, 3964,3965,3972,3971,4307,4308,4315,4314
3333, 3965,3966,3973,3972,4308,4309,4316,4315
3334, 3966,3967,3974,3973,4309,4310,4317,4316
3335, 3967,3968,3975,3974,4310,4311,4318,4317
3336, 3968,3969,3976,3975,4311,4312,4319,4318
3337, 3970,3971,3978,3977,4313,4314,4321,4320
3338, 3971,3972,3979,3978,4314,4315,4322,4321
3339, 3972,3973,3980,3979,4315,4316,4323,4322
3340, 3973,3974,3981,3980,4316,4317,4324,4323
3341, 3974,3975,3982,3981,4317,4318,4325,4324
3342, 3975,3976,3983,3982,4318,4319,4326,4325
3343, 3977,3978,3985,3984,4320,4321,4328,4327
3344, 3978,3979,3986,3985,4321,4322,4329,4328
3345, 3979,3980,3987,3986,4322,4323,4330,4329
3346, 3980,3981,3988,3987,4323,4324,4331,4330
3347, 3981,3982,3989,3988,4324,4325,4332,4331
3348, 3982,3983,3990,3989,4325,4326,4333,4332
3349, 3984,3985,3992,3991,4327,4328,4335,4334
3350, 3985,3986,3993,3992,4328,4329,4336,4335
3351, 3986,3987,3994,3993,4329,4330,4337,4336
3352, 3987,3988,3995,3994,4330,4331,4338,4337
3353, 3988,3989,3996,3995,4331,4332,4339,4338
3354, 3989,3990,3997,3996,4332,4333,4340,4339
3355, 3991,3992,3999,3998,4334,4335,4342,4341
3356, 3992,3993,4000,3999,4335,4336,4343,4342
3357, 3993,3994,4001,4000,4336,4337,4344,4343
3358, 3994,3995,4002,4001,4337,4338,4345,4344
3359, 3995,3996,4003,4002,4338,4339,4346,4345
3360, 3996,3997,4004,4003,4339,4340,4347,4346
3361, 3998,3999,4006,4005,4341,4342,4349,4348
3362, 3999,4000,4007,4006,4342,4343,4350,4349
3363, 4000,4001,4008,4007,4343,4344,4351,4350
3364, 4001,4002,4009,4008,4344,4345,4352,4351
3365, 4002,4003,4010,4009,4345,4346,4353,4352
3366, 4003,4004,4011,4010,4346,4347,4354,4353
3367, 4005,4006,4013,4012,4348,4349,4356,4355
3368, 4006,4007,4014,4013,4349,4350,4357,4356
3369, 4007,4008,4015,4014,4350,4351,4358,4357
3370, 4008,4009,4016,4015,4351,4352,4359,4358
3371, 4009,4010,4017,4016,4352,4353,4360,4359
3372, 4010,4011,4018,4017,4353,4354,4361,4360
3373, 4012,4013,4020,4019,4355,4356,4363,4362
3374, 4013,4014,4021,4020,4356,4357,4364,4363
3375, 4014,4015,4022,4021,4357,4358,4365,4364
3376, 4015,4016,4023,4022,4358,4359,4366,4365
3377, 4016,4017,4024,4023,4359,4360,4367,4366
3378, 4017,4018,4025,4024,4360,4361,4368,4367
3379, 4019,4020,4027,4026,4362,4363,4370,4369
3380, 4020,4021,4028,4027,4363,4364,4371,4370
3381, 4021,4022,4029,4028,4364,4365,4372,4371
3382, 4022,4023,4030,4029,4365,4366,4373,4372
3383, 4023,4024,4031,4030,4366,4367,4374,4373
3384, 4024,4025,4032,4031,4367,4368,4375,4374
3385, 4026,4027,4034,4033,4369,4370,4377,4376
3386, 4027,4028,4035,4034,4370,4371,4378,4377
3387, 4028,4029,4036,4035,4371,4372,4379,4378
3388, 4029,4030,4037,4036,4372,4373,4380,4379
3389, 4030,4031,4038,4037,4373,4374,4381,4380
3390, 4031,4032,4039,4038,4374,4375,4382,4381
3391, 4033,4034,4041,4040,4376,4377,4384,4383
3392, 4034,4035,4042,4041,4377,4378,4385,4384
3393, 4035,4036,4043,4042,4378,4379,4386,4385
3394, 4036,4037,4044,4043,4379,4380,4387,4386
3395, 4037,4038,4045,4044,4380,4381,4388,4387
3396, 4038,4039,4046,4045,4381,4382,4389,4388
3397, 4040,4041,4048,4047,4383,4384,4391,4390
3398, 4041,4042,4049,4048,4384,4385,4392,4391
3399, 4042,4043,4050,4049,4385,4386,4393,4392
3400, 4043,4044,4051,4050,4386,4387,4394,4393
3401, 4044,4045,4052,4051,4387,4388,4395,4394
3402, 4045,4046,4053,4052,4388,4389,4396,4395
3403, 4047,4048,4055,4054,4390,4391,4398,4397
3404, 4048,4049,4056,4055,4391,4392,4399,4398
3405, 4049,4050,4057,4056,4392,4393,4400,4399
3406, 4050,4051,4058,4057,4393,4394,4401,4400
3407, 4051,4052,4059,4058,4394,4395,4402,4401
3408, 4052,4053,4060,4059,4395,4396,4403,4402
3409, 4054,4055,4062,4061,4397,4398,4405,4404
3410, 4055,4056,4063,4062,4398,4399,4406,4405
3411, 4056,4057,4064,4063,4399,4400,4407,4406
3412, 4057,4058,4065,4064,4400,4401,4408,4407
3413, 4058,4059,4066,4065,4401,4402,4409,4408
3414, 4059,4060,4067,4066,4402,4403,4410,4409
3415, 4061,4062,4069,4068,4404,4405,4412,4411
3416, 4062,4063,4070,4069,4405,4406,4413,4412
3417, 4063,4064,4071,4070,4406,4407,4414,4413
3418, 4064,4065,4072,4071,4407,4408,4415,4414
3419, 4065,4066,4073,4072,4408,4409,4416,4415
3420, 4066,4067,4074,4073,4409,4410,4417,4416
3421, 4068,4069,4076,4075,4411,4412,4419,4418
3422, 4069,4070,4077,4076,4412,4413,4420,4419
3423, 4070,4071,4078,4077,4413,4414,4421,4420
3424, 4071,4072,4079,4078,4414,4415,4422,4421
3425, 4072,4073,4080,4079,4415,4416,4423,4422
3426, 4073,4074,4081,4080,4416,4417,4424,4423
3427, 4075,4076,4083,4082,4418,4419,4426,4425
3428, 4076,4077,4084,4083,4419,4420,4427,4426
3429, 4077,4078,4085,4084,4420,4421,4428,4427
3430, 4078,4079,4086,4085,4421,4422,4429,4428
3431, 4079,4080,4087,4086,4422,4423,4430,4429
3432, 4080,4081,4088,4087,4423,4424,4431,4430
3433, 4082,4083,4090,4089,4425,4426,4433,4432
3434, 4083,4084,4091,4090,4426,4427,4434,4433
3435, 4084,4085,4092,4091,4427,4428,4435,4434
3436, 4085,4086,4093,4092,4428,4429,4436,4435
3437, 4086,4087,4094,4093,4429,4430,4437,4436
3438, 4087,4088,4095,4094,4430,4431,4438,4437
3439, 4089,4090,4097,4096,4432,4433,4440,4439
3440, 4090,4091,4098,4097,4433,4434,4441,4440
3441, 4091,4092,4099,4098,4434,4435,4442,4441
3442, 4092,4093,4100,4099,4435,4436,4443,4442
3443, 4093,4094,4101,4100,4436,4437,4444,4443
3444, 4094,4095,4102,4101,4437,4438,4445,4444
3445, 4096,4097,4104,4103,4439,4440,4447,4446
3446, 4097,4098,4105,4104,4440,4441,4448,4447
3447, 4098,4099,4106,4105,4441,4442,4449,4448
3448, 4099,4100,4107,4106,4442,4443,4450,4449
3449, 4100,4101,4108,4107,4443,4444,4451,4450
3450, 4101,4102,4109,4108,4444,4445,4452,4451
3451, 4103,4104,4111,4110,4446,4447,4454,4453
3452, 4104,4105,4112,4111,4447,4448,4455,4454
3453, 4105,4106,4113,4112,4448,4449,4456,4455
3454, 4106,4107,4114,4113,4449,4450,4457,4456
3455, 4107,4108,4115,4114,4450,4451,4458,4457
3456, 4108,4109,4116,4115,4451,4452,4459,4458
3457, 4117,4118,4125,4124,4460,4461,4468,4467
3458, 4118,4119,4126,4125,4461,4462,4469,4468
3459, 4119,4120,4127,4126,4462,4463,4470,4469
3460, 4120,4121,4128,4127,4463,4464,4471,4470
3461, 4121,4122,4129,4128,4464,4465,4472,4471
3462, 4122,4123,4130,4129,4465,4466,4473,4472
3463, 4124,4125,4132,4131,4467,4468,4475,4474
3464, 4125,4126,4133,4132,4468,4469,4476,4475
3465, 4126,4127,4134,4133,4469,4470,4477,4476
3466, 4127,4128,4135,4134,4470,4471,4478,4477
3467, 4128,4129,4136,4135,4471,4472,4479,4478
3468, 4129,4130,4137,4136,4472,4473,4480,4479
3469, 4131,4132,4139,4138,4474,4475,4482,4481
3470, 4132,4133,4140,4139,4475,4476,4483,4482
3471, 4133,4134,4141,4140,4476,4477,4484,4483
3472, 4134,4135,4142,4141,4477,4478,4485,4484
3473, 4135,4136,4143,4142,4478,4479,4486,4485
3474, 4136,4137,4144,4143,4479,4480,4487,4486
3475, 4138,4139,4146,4145,4481,4482,4489,4488
3476, 4139,4140,4147,4146,4482,4483,4490,4489
3477, 4140,4141,4148,4147,4483,4484,4491,4490
3478, 4141,4142,4149,4148,4484,4485,4492,4491
3479, 4142,4143,4150,4149,4485,4486,4493,4492
3480, 4143,4144,4151,4150,4486,4487,4494,4493
3481, 4145,4146,4153,4152,4488,4489,4496,4495
3482, 4146,4147,4154,4153,4489,4490,4497,4496
3483, 4147,4148,4155,4154,4490,4491,4498,4497
3484, 4148,4149,4156,4155,4491,4492,4499,4498
3485, 4149,4150,4157,4156,4492,4493,4500,4499
3486, 4150,4151,4158,4157,4493,4494,4501,4500
3487, 4152,4153,4160,4159,4495,4496,4503,4502
3488, 4153,4154,4161,4160,4496,4497,4504,4503
3489, 4154,4155,4162,4161,4497,4498,4505,4504
3490, 4155,4156,4163,4162,4498,4499,4506,4505
3491, 4156,4157,4164,4163,4499,4500,4507,4506
3492, 4157,4158,4165,4164,4500,4501,4508,4507
3493, 4159,4160,4167,4166,4502,4503,4510,4509
3494, 4160,4161,4168,4167,4503,4504,4511,4510
3495, 4161,4162,4169,4168,4504,4505,4512,4511
3496, 4162,4163,4170,4169,4505,4506,4513,4512
3497, 4163,4164,4171,4170,4506,4507,4514,4513
3498, 4164,4165,4172,4171,4507,4508,4515,4514
3499, 4166,4167,4174,4173,4509,4510,4517,4516
3500, 4167,4168,4175,4174,4510,4511,4518,4517
3501, 4168,4169,4176,4175,4511,4512,4519,4518
3502, 4169,4170,4177,4176,4512,4513,4520,4519
3503, 4170,4171,4178,4177,4513,4514,4521,4520
3504, 4171,4172,4179,4178,4514,4515,4522,4521
3505, 4173,4174,4181,4180,4516,4517,4524,4523
3506, 4174,4175,4182,4181,4517,4518,4525,4524
3507, 4175,4176,4183,4182,4518,4519,4526,4525
3508, 4176,4177,4184,4183,4519,4520,4527,4526
3509, 4177,4178,4185,4184,4520,4521,4528,4527
3510, 4178,4179,4186,4185,4521,4522,4529,4528
3511, 4180,4181,4188,4187,4523,4524,4531,4530
3512, 4181,4182,4189,4188,4524,4525,4532,4531
3513, 4182,4183,4190,4189,4525,4526,4533,4532
3514, 4183,4184,4191,4190,4526,4527,4534,4533
3515, 4184,4185,4192,4191,4527,4528,4535,4534
3516, 4185,4186,4193,4192,4528,4529,4536,4535
3517, 4187,4188,4195,4194,4530,4531,4538,4537
3518, 4188,4189,4196,4195,4531,4532,4539,4538
3519, 4189,4190,4197,4196,4532,4533,4540,4539
3520, 4190,4191,4198,4197,4533,4534,4541,4540
3521, 4191,4192,4199,4198,4534,4535,4542,4541
3522, 4192,4193,4200,4199,4535,4536,4543,4542
3523, 4194,4195,4202,4201,4537,4538,4545,4544
3524, 4195,4196,4203,4202,4538,4539,4546,4545
3525, 4196,4197,4204,4203,4539,4540,4547,4546
3526, 4197,4198,4205,4204,4540,4541,4548,4547
3527, 4198,4199,4206,4205,4541,4542,4549,4548
3528, 4199,4200,4207,4206,4542,4543,4550,4549
3529, 4201,4202,4209,4208,4544,4545,4552,4551
3530, 4202,4203,4210,4209,4545,4546,4553,4552
3531, 4203,4204,4211,4210,4546,4547,4554,4553
3532, 4204,4205,4212,4211,4547,4548,4555,4554
3533, 4205,4206,4213,4212,4548,4549,4556,4555
3534, 4206,4207,4214,4213,4549,4550,4557,4556
3535, 4208,4209,4216,4215,4551,4552,4559,4558
3536, 4209,4210,4217,4216,4552,4553,4560,4559
3537, 4210,4211,4218,4217,4553,4554,4561,4560
3538, 4211,4212,4219,4218,4554,4555,4562,4561
3539, 4212,4213,4220,4219,4555,4556,4563,4562
3540, 4213,4214,4221,4220,4556,4557,4564,4563
3541, 4215,4216,4223,4222,4558,4559,4566,4565
3542, 4216,4217,4224,4223,4559,4560,4567,4566
3543, 4217,4218,4225,4224,4560,4561,4568,4567
3544, 4218,4219,4226,4225,4561,4562,4569,4568
3545, 4219,4220,4227,4226,4562,4563,4570,4569
3546, 4220,4221,4228,4227,4563,4564,4571,4570
3547, 4222,4223,4230,4229,4565,4566,4573,4572
3548, 4223,4224,4231,4230,4566,4567,4574,4573
3549, 4224,4225,4232,4231,4567,4568,4575,4574
3550, 4225,4226,4233,4232,4568,4569,4576,4575
3551, 4226,4227,4234,4233,4569,4570,4577,4576
3552, 4227,4228,4235,4234,4570,4571,4578,4577
3553, 4229,4230,4237,4236,4572,4573,4580,4579
3554, 4230,4231,4238,4237,4573,4574,4581,4580
3555, 4231,4232,4239,4238,4574,4575,4582,4581
3556, 4232,4233,4240,4239,4575,4576,4583,4582
3557, 4233,4234,4241,4240,4576,4577,4584,4583
3558, 4234,4235,4242,4241,4577,4578,4585,4584
3559, 4236,4237,4244,4243,4579,4580,4587,4586
3560, 4237,4238,4245,4244,4580,4581,4588,4587
3561, 4238,4239,4246,4245,4581,4582,4589,4588
3562, 4239,4240,4247,4246,4582,4583,4590,4589
3563, 4240,4241,4248,4247,4583,4584,4591,4590
3564, 4241,4242,4249,4248,4584,4585,4592,4591
3565, 4243,4244,4251,4250,4586,4587,4594,4593
3566, 4244,4245,4252,4251,4587,4588,4595,4594
3567, 4245,4246,4253,4252,4588,4589,4596,4595
3568, 4246,4247,4254,4253,4589,4590,4597,4596
3569, 4247,4248,4255,4254,4590,4591,4598,4597
3570, 4248,4249,4256,4255,4591,4592,4599,4598
3571, 4250,4251,4258,4257,4593,4594,4601,4600
3572, 4251,4252,4259,4258,4594,4595,4602,4601
3573, 4252,4253,4260,4259,4595,4596,4603,4602
3574, 4253,4254,4261,4260,4596,4597,4604,4603
3575, 4254,4255,4262,4261,4597,4598,4605,4604
3576, 4255,4256,4263,4262,4598,4599,4606,4605
3577, 4257,4258,4265,4264,4600,4601,4608,4607
3578, 4258,4259,4266,4265,4601,4602,4609,4608
3579, 4259,4260,4267,4266,4602,4603,4610,4609
3580, 4260,4261,4268,4267,4603,4604,4611,4610
3581, 4261,4262,4269,4268,4604,4605,4612,4611
3582, 4262,4263,4270,4269,4605,4606,4613,4612
3583, 4264,4265,4272,4271,4607,4608,4615,4614
3584, 4265,4266,4273,4272,4608,4609,4616,4615
3585, 4266,4267,4274,4273,4609,4610,4617,4616
3586, 4267,4268,4275,4274,4610,4611,4618,4617
3587, 4268,4269,4276,4275,4611,4612,4619,4618
3588, 4269,4270,4277,4276,4612,4613,4620,4619
3589, 4271,4272,4279,4278,4614,4615,4622,4621
3590, 4272,4273,4280,4279,4615,4616,4623,4622
3591, 4273,4274,4281,4280,4616,4617,4624,4623
3592, 4274,4275,4282,4281,4617,4618,4625,4624
3593, 4275,4276,4283,4282,4618,4619,4626,4625
3594, 4276,4277,4284,4283,4619,4620,4627,4626
3595, 4278,4279,4286,4285,4621,4622,4629,4628
3596, 4279,4280,4287,4286,4622,4623,4630,4629
3597, 4280,4281,4288,4287,4623,4624,4631,4630
3598, 4281,4282,4289,4288,4624,4625,4632,4631
3599, 4282,4283,4290,4289,4625,4626,4633,4632
3600, 4283,4284,4291,4290,4626,4627,4634,4633
3601, 4285,4286,4293,4292,4628,4629,4636,4635
3602, 4286,4287,4294,4293,4629,4630,4637,4636
3603, 4287,4288,4295,4294,4630,4631,4638,4637
3604, 4288,4289,4296,4295,4631,4632,4639,4638
3605, 4289,4290,4297,4296,4632,4633,4640,4639
3606, 4290,4291,4298,4297,4633,4634,4641,4640
3607, 4292,4293,4300,4299,4635,4636,4643,4642
3608, 4293,4294,4301,4300,4636,4637,4644,4643
3609, 4294,4295,4302,4301,4637,4638,4645,4644
3610, 4295,4296,4303,4302,4638,4639,4646,4645
3611, 4296,4297,4304,4303,4639,4640,4647,4646
3612, 4297,4298,4305,4304,4640,4641,4648,4647
3613, 4299,4300,4307,4306,4642,4643,4650,4649
3614, 4300,4301,4308,4307,4643,4644,4651,4650
3615, 4301,4302,4309,4308,4644,4645,4652,4651
3616, 4302,4303,4310,4309,4645,4646,4653,4652
3617, 4303,4304,4311,4310,4646,4647,4654,4653
3618, 4304,4305,4312,4311,4647,4648,4655,4654
3619, 4306,4307,4314,4313,4649,4650,4657,4656
3620, 4307,4308,4315,4314,4650,4651,4658,4657
3621, 4308,4309,4316,4315,4651,4652,4659,4658
3622, 4309,4310,4317,4316,4652,4653,4660,4659
3623, 4310,4311,4318,4317,4653,4654,4661,4660
3624, 4311,4312,4319,4318,4654,4655,4662,4661
3625, 4313,4314,4321,4320,4656,4657,4664,4663
3626, 4314,4315,4322,4321,4657,4658,4665,4664
3627, 4315,4316,4323,4322,4658,4659,4666,4665
3628, 4316,4317,4324,4323,4659,4660,4667,4666
3629, 4317,4318,4325,4324,4660,4661,4668,4667
3630, 4318,4319,4326,4325,4661,4662,4669,4668
3631, 4320,4321,4328,4327,4663,4664,4671,4670
3632, 4321,4322,4329,4328,4664,4665,4672,4671
3633, 4322,4323,4330,4329,4665,4666,4673,4672
3634, 4323,4324,4331,4330,4666,4667,4674,4673
3635, 4324,4325,4332,4331,4667,4668,4675,4674
3636, 4325,4326,4333,4332,4668,4669,4676,4675
3637, 4327,4328,4335,4334,4670,4671,4678,4677
3638, 4328,4329,4336,4335,4671,4672,4679,4678
3639, 4329,4330,4337,4336,4672,4673,4680,4679
3640, 4330,4331,4338,4337,4673,4674,4681,4680
3641, 4331,4332,4339,4338,4674,4675,4682,4681
3642, 4332,4333,4340,4339,4675,4676,4683,4682
3643, 4334,4335,4342,4341,4677,4678,4685,4684
3644, 4335,4336,4343,4342,4678,4679,4686,4685
3645, 4336,4337,4344,4343,4679,4680,4687,4686
3646, 4337,4338,4345,4344,4680,4681,4688,4687
3647, 4338,4339,4346,4345,4681,4682,4689,4688
3648, 4339,4340,4347,4346,4682,4683,4690,4689
3649, 4341,4342,4349,4348,4684,4685,4692,4691
3650, 4342,4343,4350,4349,4685,4686,4693,4692
3651, 4343,4344,4351,4350,4686,4687,4694,4693
3652, 4344,4345,4352,4351,4687,4688,4695,4694
3653, 4345,4346,4353,4352,4688,4689,4696,4695
3654, 4346,4347,4354,4353,4689,4690,4697,4696
3655, 4348,4349,4356,4355,4691,4692,4699,4698
3656, 4349,4350,4357,4356,4692,4693,4700,4699
3657, 4350,4351,4358,4357,4693,4694,4701,4700
3658, 4351,4352,4359,4358,4694,4695,4702,4701
3659, 4352,4353,4360,4359,4695,4696,4703,4702
3660, 4353,4354,4361,4360,4696,4697,4704,4703
3661, 4355,4356,4363,4362,4698,4699,4706,4705
3662, 4356,4357,4364,4363,4699,4700,4707,4706
3663, 4357,4358,4365,4364,4700,4701,4708,4707
3664, 4358,4359,4366,4365,4701,4702,4709,4708
3665, 4359,4360,4367,4366,4702,4703,4710,4709
3666, 4360,4361,4368,4367,4703,4704,4711,4710
3667, 4362,4363,4370,4369,4705,4706,4713,4712
3668, 4363,4364,4371,4370,4706,4707,4714,4713
3669, 4364,4365,4372,4371,4707,4708,4715,4714
3670, 4365,4366,4373,4372,4708,4709,4716,4715
3671, 4366,4367,4374,4373,4709,4710,4717,4716
3672, 4367,4368,4375,4374,4710,4711,4718,4717
3673, 4369,4370,4377,4376,4712,4713,4720,4719
3674, 4370,4371,4378,4377,4713,4714,4721,4720
3675, 4371,4372,4379,4378,4714,4715,4722,4721
3676, 4372,4373,4380,4379,4715,4716,4723,4722
3677, 4373,4374,4381,4380,4716,4717,4724,4723
3678, 4374,4375,4382,4381,4717,4718,4725,4724
3679, 4376,4377,4384,4383,4719,4720,4727,4726
3680, 4377,4378,4385,4384,4720,4721,4728,4727
3681, 4378,4379,4386,4385,4721,4722,4729,4728
3682, 4379,4380,4387,4386,4722,4723,4730,4729
3683, 4380,4381,4388,4387,4723,4724,4731,4730
3684, 4381,4382,4389,4388,4724,4725,4732,4731
3685, 4383,4384,4391,4390,4726,4727,4734,4733
3686, 4384,4385,4392,4391,4727,4728,4735,4734
3687, 4385,4386,4393,4392,4728,4729,4736,4735
3688, 4386,4387,4394,4393,4729,4730,4737,4736
3689, 4387,4388,4395,4394,4730,4731,4738,4737
3690, 4388,4389,4396,4395,4731,4732,4739,4738
3691, 4390,4391,4398,4397,4733,4734,4741,4740
3692, 4391,4392,4399,4398,4734,4735,4742,4741
3693, 4392,4393,4400,4399,4735,4736,4743,4742
3694, 4393,4394,4401,4400,4736,4737,4744,4743
3695, 4394,4395,4402,4401,4737,4738,4745,4744
3696, 4395,4396,4403,4402,4738,4739,4746,4745
3697, 4397,4398,4405,4404,4740,4741,4748,4747
3698, 4398,4399,4406,4405,4741,4742,4749,4748
3699, 4399,4400,4407,4406,4742,4743,4750,4749
3700, 4400,4401,4408,4407,4743,4744,4751,4750
3701, 4401,4402,4409,4408,4744,4745,4752,4751
3702, 4402,4403,4410,4409,4745,4746,4753,4752
3703, 4404,4405,4412,4411,4747,4748,4755,4754
3704, 4405,4406,4413,4412,4748,4749,4756,4755
3705, 4406,4407,4414,4413,4749,4750,4757,4756
3706, 4407,4408,4415,4414,4750,4751,4758,4757
3707, 4408,4409,4416,4415,4751,4752,4759,4758
3708, 4409,4410,4417,4416,4752,4753,4760,4759
3709, 4411,4412,4419,4418,4754,4755,4762,4761
3710, 4412,4413,4420,4419,4755,4756,4763,4762
3711, 4413,4414,4421,4420,4756,4757,4764,4763
3712, 4414,4415,4422,4421,4757,4758,4765,4764
3713, 4415,4416,4423,4422,4758,4759,4766,4765
3714, 4416,4417,4424,4423,4759,4760,4767,4766
3715, 4418,4419,4426,4425,4761,4762,4769,4768
3716, 4419,4420,4427,4426,4762,4763,4770,4769
3717, 4420,4421,4428,4427,4763,4764,4771,4770
3718, 4421,4422,4429,4428,4764,4765,4772,4771
3719, 4422,4423,4430,4429,4765,4766,4773,4772
3720, 4423,4424,4431,4430,4766,4767,4774,4773
3721, 4425,4426,4433,4432,4768,4769,4776,4775
3722, 4426,4427,4434,4433,4769,4770,4777,4776
3723, 4427,4428,4435,4434,4770,4771,4778,4777
3724, 4428,4429,4436,4435,4771,4772,4779,4778
3725, 4429,4430,4437,4436,4772,4773,4780,4779
3726, 4430,4431,4438,4437,4773,4774,4781,4780
3727, 4432,4433,4440,4439,4775,4776,4783,4782
3728, 4433,4434,4441,4440,4776,4777,4784,4783
3729, 4434,4435,4442,4441,4777,4778,4785,4784
3730, 4435,4436,4443,4442,4778,4779,4786,4785
3731, 4436,4437,4444,4443,4779,4780,4787,4786
3732, 4437,4438,4445,4444,4780,4781,4788,4787
3733, 4439,4440,4447,4446,4782,4783,4790,4789
3734, 4440,4441,4448,4447,4783,4784,4791,4790
3735, 4441,4442,4449,4448,4784,4785,4792,4791
3736, 4442,4443,4450,4449,4785,4786,4793,4792
3737, 4443,4444,4451,4450,4786,4787,4794,4793
3738, 4444,4445,4452,4451,4787,4788,4795,4794
3739, 4446,4447,4454,4453,4789,4790,4797,4796
3740, 4447,4448,4455,4454,4790,4791,4798,4797
3741, 4448,4449,4456,4455,4791,4792,4799,4798
3742, 4449,4450,4457,4456,4792,4793,4800,4799
3743, 4450,4451,4458,4457,4793,4794,4801,4800
3744, 4451,4452,4459,4458,4794,4795,4802,4801
3745, 4460,4461,4468,4467,4803,4804,4811,4810
3746, 4461,4462,4469,4468,4804,4805,4812,4811
3747, 4462,4463,4470,4469,4805,4806,4813,4812
3748, 4463,4464,4471,4470,4806,4807,4814,4813
3749, 4464,4465,4472,4471,4807,4808,4815,4814
3750, 4465,4466,4473,4472,4808,4809,4816,4815
3751, 4467,4468,4475,4474,4810,4811,4818,4817
3752, 4468,4469,4476,4475,4811,4812,4819,4818
3753, 4469,4470,4477,4476,4812,4813,4820,4819
3754, 4470,4471,4478,4477,4813,4814,4821,4820
3755, 4471,4472,4479,4478,4814,4815,4822,4821
3756, 4472,4473,4480,4479,4815,4816,4823,4822
3757, 4474,4475,4482,4481,4817,4818,4825,4824
3758, 4475,4476,4483,4482,4818,4819,4826,4825
3759, 4476,4477,4484,4483,4819,4820,4827,4826
3760, 4477,4478,4485,4484,4820,4821,4828,4827
3761, 4478,4479,4486,4485,4821,4822,4829,4828
3762, 4479,4480,4487,4486,4822,4823,4830,4829
3763, 4481,4482,4489,4488,4824,4825,4832,4831
3764, 4482,4483,4490,4489,4825,4826,4833,4832
3765, 4483,4484,4491,4490,4826,4827,4834,4833
3766, 4484,4485,4492,4491,4827,4828,4835,4834
3767, 4485,4486,4493,4492,4828,4829,4836,4835
3768, 4486,4487,4494,4493,4829,4830,4837,4836
3769, 4488,4489,4496,4495,4831,4832,4839,4838
3770, 4489,4490,4497,4496,4832,4833,4840,4839
3771, 4490,4491,4498,4497,4833,4834,4841,4840
3772, 4491,4492,4499,4498,4834,4835,4842,4841
3773, 4492,4493,4500,4499,4835,4836,4843,4842
3774, 4493,4494,4501,4500,4836,4837,4844,4843
3775, 4495,4496,4503,4502,4838,4839,4846,4845
3776, 4496,4497,4504,4503,4839,4840,4847,4846
3777, 4497,4498,4505,4504,4840,4841,4848,4847
3778, 4498,4499,4506,4505,4841,4842,4849,4848
3779, 4499,4500,4507,4506,4842,4843,4850,4849
3780, 4500,4501,4508,4507,4843,4844,4851,4850
3781, 4502,4503,4510,4509,4845,4846,4853,4852
3782, 4503,4504,4511,4510,4846,4847,4854,4853
3783, 4504,4505,4512,4511,4847,4848,4855,4854
3784, 4505,4506,4513,4512,4848,4849,4856,4855
3785, 4506,4507,4514,4513,4849,4850,4857,4856
3786, 4507,4508,4515,4514,4850,4851,4858,4857
3787, 4509,4510,4517,4516,4852,4853,4860,4859
3788, 4510,4511,4518,4517,4853,4854,4861,4860
3789, 4511,4512,4519,4518,4854,4855,4862,4861
3790, 4512,4513,4520,4519,4855,4856,4863,4862
3791, 4513,4514,4521,4520,4856,4857,4864,4863
3792, 4514,4515,4522,4521,4857,4858,4865,4864
3793, 4516,4517,4524,4523,4859,4860,4867,4866
3794, 4517,4518,4525,4524,4860,4861,4868,4867
3795, 4518,4519,4526,4525,4861,4862,4869,4868
3796, 4519,4520,4527,4526,4862,4863,4870,4869
3797, 4520,4521,4528,4527,4863,4864,4871,4870
3798, 4521,4522,4529,4528,4864,4865,4872,4871
3799, 4523,4524,4531,4530,4866,4867,4874,4873
3800, 4524,4525,4532,4531,4867,4868,4875,4874
3801, 4525,4526,4533,4532,4868,4869,4876,4875
3802, 4526,4527,4534,4533,4869,4870,4877,4876
3803, 4527,4528,4535,4534,4870,4871,4878,4877
3804, 4528,4529,4536,4535,4871,4872,4879,4878
3805, 4530,4531,4538,4537,4873,4874,4881,4880
3806, 4531,4532,4539,4538,4874,4875,4882,4881
3807, 4532,4533,4540,4539,4875,4876,4883,4882
3808, 4533,4534,4541,4540,4876,4877,4884,4883
3809, 4534,4535,4542,4541,4877,4878,4885,4884
3810, 4535,4536,4543,4542,4878,4879,4886,4885
3811, 4537,4538,4545,4544,4880,4881,4888,4887
3812, 4538,4539,4546,4545,4881,4882,4889,4888
3813, 4539,4540,4547,4546,4882,4883,4890,4889
3814, 4540,4541,4548,4547,4883,4884,4891,4890
3815, 4541,4542,4549,4548,4884,4885,4892,4891
3816, 4542,4543,4550,4549,4885,4886,4893,4892
3817, 4544,4545,4552,4551,4887,4888,4895,4894
3818, 4545,4546,4553,4552,4888,4889,4896,4895
3819, 4546,4547,4554,4553,4889,4890,4897,4896
3820, 4547,4548,4555,4554,4890,4891,4898,4897
3821, 4548,4549,4556,4555,4891,4892,4899,4898
3822, 4549,4550,4557,4556,4892,4893,4900,4899
3823, 4551,4552,4559,4558,4894,4895,4902,4901
3824, 4552,4553,4560,4559,4895,4896,4903,4902
3825, 4553,4554,4561,4560,4896,4897,4904,4903
3826, 4554,4555,4562,4561,4897,4898,4905,4904
3827, 4555,4556,4563,4562,4898,4899,4906,4905
3828, 4556,4557,4564,4563,4899,4900,4907,4906
3829, 4558,4559,4566,4565,4901,4902,4909,4908
3830, 4559,4560,4567,4566,4902,4903,4910,4909
3831, 4560,4561,4568,4567,4903,4904,4911,4910
3832, 4561,4562,4569,4568,4904,4905,4912,4911
3833, 4562,4563,4570,4569,4905,4906,4913,4912
3834, 4563,4564,4571,4570,4906,4907,4914,4913
3835, 4565,4566,4573,4572,4908,4909,4916,4915
3836, 4566,4567,4574,4573,4909,4910,4917,4916
3837, 4567,4568,4575,4574,4910,4911,4918,4917
3838, 4568,4569,4576,4575,4911,4912,4919,4918
3839, 4569,4570,4577,4576,4912,4913,4920,4919
3840, 4570,4571,4578,4577,4913,4914,4921,4920
3841, 4572,4573,4580,4579,4915,4916,4923,4922
3842, 4573,4574,4581,4580,4916,4917,4924,4923
3843, 4574,4575,4582,4581,4917,4918,4925,4924
3844, 4575,4576,4583,4582,4918,4919,4926,4925
3845, 4576,4577,4584,4583,4919,4920,4927,4926
3846, 4577,4578,4585,4584,4920,4921,4928,4927
3847, 4579,4580,4587,4586,4922,4923,4930,4929
3848, 4580,4581,4588,4587,4923,4924,4931,4930
3849, 4581,4582,4589,4588,4924,4925,4932,4931
3850, 4582,4583,4590,4589,4925,4926,4933,4932
3851, 4583,4584,4591,4590,4926,4927,4934,4933
3852, 4584,4585,4592,4591,4927,4928,4935,4934
3853, 4586,4587,4594,4593,4929,4930,4937,4936
3854, 4587,4588,4595,4594,4930,4931,4938,4937
3855, 4588,4589,4596,4595,4931,4932,4939,4938
3856, 4589,4590,4597,4596,4932,4933,4940,4939
3857, 4590,4591,4598,4597,4933,4934,4941,4940
3858, 4591,4592,4599,4598,4934,4935,4942,4941
3859, 4593,4594,4601,4600,4936,4937,4944,4943
3860, 4594,4595,4602,4601,4937,4938,4945,4944
3861, 4595,4596,4603,4602,4938,4939,4946,4945
3862, 4596,4597,4604,4603,4939,4940,4947,4946
3863, 4597,4598,4605,4604,4940,4941,4948,4947
3864, 4598,4599,4606,4605,4941,4942,4949,4948
3865, 4600,4601,4608,4607,4943,4944,4951,4950
3866, 4601,4602,4609,4608,4944,4945,4952,4951
3867, 4602,4603,4610,4609,4945,4946,4953,4952
3868, 4603,4604,4611,4610,4946,4947,4954,4953
3869, 4604,4605,4612,4611,4947,4948,4955,4954
3870, 4605,4606,4613,4612,4948,4949,4956,4955
3871, 4607,4608,4615,4614,4950,4951,4958,4957
3872, 4608,4609,4616,4615,4951,4952,4959,4958
3873, 4609,4610,4617,4616,4952,4953,4960,4959
3874, 4610,4611,4618,4617,4953,4954,4961,4960
3875, 4611,4612,4619,4618,4954,4955,4962,4961
3876, 4612,4613,4620,4619,4955,4956,4963,4962
3877, 4614,4615,4622,4621,4957,4958,4965,4964
3878, 4615,4616,4623,4622,4958,4959,4966,4965
3879, 4616,4617,4624,4623,4959,4960,4967,4966
3880, 4617,4618,4625,4624,4960,4961,4968,4967
3881, 4618,4619,4626,4625,4961,4962,4969,4968
3882, 4619,4620,4627,4626,4962,4963,4970,4969
3883, 4621,4622,4629,4628,4964,4965,4972,4971
3884, 4622,4623,4630,4629,4965,4966,4973,4972
3885, 4623,4624,4631,4630,4966,4967,4974,4973
3886, 4624,4625,4632,4631,4967,4968,4975,4974
3887, 4625,4626,4633,4632,4968,4969,4976,4975
3888, 4626,4627,4634,4633,4969,4970,4977,4976
3889, 4628,4629,4636,4635,4971,4972,4979,4978
3890, 4629,4630,4637,4636,4972,4973,4980,4979
3891, 4630,4631,4638,4637,4973,4974,4981,4980
3892, 4631,4632,4639,4638,4974,4975,4982,4981
3893, 4632,4633,4640,4639,4975,4976,4983,4982
3894, 4633,4634,4641,4640,4976,4977,4984,4983
3895, 4635,4636,4643,4642,4978,4979,4986,4985
3896, 4636,4637,4644,4643,4979,4980,4987,4986
3897, 4637,4638,4645,4644,4980,4981,4988,4987
3898, 4638,4639,4646,4645,4981,4982,4989,4988
3899, 4639,4640,4647,4646,4982,4983,4990,4989
3900, 4640,4641,4648,4647,4983,4984,4991,4990
3901, 4642,4643,4650,4649,4985,4986,4993,4992
3902, 4643,4644,4651,4650,4986,4987,4994,4993
3903, 4644,4645,4652,4651,4987,4988,4995,4994
3904, 4645,4646,4653,4652,4988,4989,4996,4995
3905, 4646,4647,4654,4653,4989,4990,4997,4996
3906, 4647,4648,4655,4654,4990,4991,4998,4997
3907, 4649,4650,4657,4656,4992,4993,5000,4999
3908, 4650,4651,4658,4657,4993,4994,5001,5000
3909, 4651,4652,4659,4658,4994,4995,5002,5001
3910, 4652,4653,4660,4659,4995,4996,5003,5002
3911, 4653,4654,4661,4660,4996,4997,5004,5003
3912, 4654,4655,4662,4661,4997,4998,5005,5004
3913, 4656,4657,4664,4663,4999,5000,5007,5006
3914, 4657,4658,4665,4664,5000,5001,5008,5007
3915, 4658,4659,4666,4665,5001,5002,5009,5008
3916, 4659,4660,4667,4666,5002,5003,5010,5009
3917, 4660,4661,4668,4667,5003,5004,5011,5010
3918, 4661,4662,4669,4668,5004,5005,5012,5011
3919, 4663,4664,4671,4670,5006,5007,5014,5013
3920, 4664,4665,4672,4671,5007,5008,5015,5014
3921, 4665,4666,4673,4672,5008,5009,5016,5015
3922, 4666,4667,4674,4673,5009,5010,5017,5016
3923, 4667,4668,4675,4674,5010,5011,5018,5017
3924, 4668,4669,4676,4675,5011,5012,5019,5018
3925, 4670,4671,4678,4677,5013,5014,5021,5020
3926, 4671,4672,4679,4678,5014,5015,5022,5021
3927, 4672,4673,4680,4679,5015,5016,5023,5022
3928, 4673,4674,4681,4680,5016,5017,5024,5023
3929, 4674,4675,4682,4681,5017,5018,5025,5024
3930, 4675,4676,4683,4682,5018,5019,5026,5025
3931, 4677,4678,4685,4684,5020,5021,5028,5027
3932, 4678,4679,4686,4685,5021,5022,5029,5028
3933, 4679,4680,4687,4686,5022,5023,5030,5029
3934, 4680,4681,4688,4687,5023,5024,5031,5030
3935, 4681,4682,4689,4688,5024,5025,5032,5031
3936, 4682,4683,4690,4689,5025,5026,5033,5032
3937, 4684,4685,4692,4691,5027,5028,5035,5034
3938, 4685,4686,4693,4692,5028,5029,5036,5035
3939, 4686,4687,4694,4693,5029,5030,5037,5036
3940, 4687,4688,4695,4694,5030,5031,5038,5037
3941, 4688,4689,4696,4695,5031,5032,5039,5038
3942, 4689,4690,4697,4696,5032,5033,5040,5039
3943, 4691,4692,4699,4698,5034,5035,5042,5041
3944, 4692,4693,4700,4699,5035,5036,5043,5042
3945, 4693,4694,4701,4700,5036,5037,5044,5043
3946, 4694,4695,4702,4701,5037,5038,5045,5044
3947, 4695,4696,4703,4702,5038,5039,5046,5045
3948, 4696,4697,4704,4703,5039,5040,5047,5046
3949, 4698,4699,4706,4705,5041,5042,5049,5048
3950, 4699,4700,4707,4706,5042,5043,5050,5049
3951, 4700,4701,4708,4707,5043,5044,5051,5050
3952, 4701,4702,4709,4708,5044,5045,5052,5051
3953, 4702,4703,4710,4709,5045,5046,5053,5052
3954, 4703,4704,4711,4710,5046,5047,5054,5053
3955, 4705,4706,4713,4712,5048,5049,5056,5055
3956, 4706,4707,4714,4713,5049,5050,5057,5056
3957, 4707,4708,4715,4714,5050,5051,5058,5057
3958, 4708,4709,4716,4715,5051,5052,5059,5058
3959, 4709,4710,4717,4716,5052,5053,5060,5059
3960, 4710,4711,4718,4717,5053,5054,5061,5060
3961, 4712,4713,4720,4719,5055,5056,5063,5062
3962, 4713,4714,4721,4720,5056,5057,5064,5063
3963, 4714,4715,4722,4721,5057,5058,5065,5064
3964, 4715,4716,4723,4722,5058,5059,5066,5065
3965, 4716,4717,4724,4723,5059,5060,5067,5066
3966, 4717,4718,4725,4724,5060,5061,5068,5067
3967, 4719,4720,4727,4726,5062,5063,5070,5069
3968, 4720,4721,4728,4727,5063,5064,5071,5070
3969, 4721,4722,4729,4728,5064,5065,5072,5071
3970, 4722,4723,4730,4729,5065,5066,5073,5072
3971, 4723,4724,4731,4730,5066,5067,5074,5073
3972, 4724,4725,4732,4731,5067,5068,5075,5074
3973, 4726,4727,4734,4733,5069,5070,5077,5076
3974, 4727,4728,4735,4734,5070,5071,5078,5077
3975, 4728,4729,4736,4735,5071,5072,5079,5078
3976, 4729,4730,4737,4736,5072,5073,5080,5079
3977, 4730,4731,4738,4737,5073,5074,5081,5080
3978, 4731,4732,4739,4738,5074,5075,5082,5081
3979, 4733,4734,4741,4740,5076,5077,5084,5083
3980, 4734,4735,4742,4741,5077,5078,5085,5084
3981, 4735,4736,4743,4742,5078,5079,5086,5085
3982, 4736,4737,4744,4743,5079,5080,5087,5086
3983, 4737,4738,4745,4744,5080,5081,5088,5087
3984, 4738,4739,4746,4745,5081,5082,5089,5088
3985, 4740,4741,4748,4747,5083,5084,5091,5090
3986, 4741,4742,4749,4748,5084,5085,5092,5091
3987, 4742,4743,4750,4749,5085,5086,5093,5092
3988, 4743,4744,4751,4750,5086,5087,5094,5093
3989, 4744,4745,4752,4751,5087,5088,5095,5094
3990, 4745,4746,4753,4752,5088,5089,5096,5095
3991, 4747,4748,4755,4754,5090,5091,5098,5097
3992, 4748,4749,4756,4755,5091,5092,5099,5098
3993, 4749,4750,4757,4756,5092,5093,5100,5099
3994, 4750,4751,4758,4757,5093,5094,5101,5100
3995, 4751,4752,4759,4758,5094,5095,5102,5101
3996, 4752,4753,4760,4759,5095,5096,5103,5102
3997, 4754,4755,4762,4761,5097,5098,5105,5104
3998, 4755,4756,4763,4762,5098,5099,5106,5105
3999, 4756,4757,4764,4763,5099,5100,5107,5106
4000, 4757,4758,4765,4764,5100,5101,5108,5107
4001, 4758,4759,4766,4765,5101,5102,5109,5108
4002, 4759,4760,4767,4766,5102,5103,5110,5109
4003, 4761,4762,4769,4768,5104,5105,5112,5111
4004, 4762,4763,4770,4769,5105,5106,5113,5112
4005, 4763,4764,4771,4770,5106,5107,5114,5113
4006, 4764,4765,4772,4771,5107,5108,5115,5114
4007, 4765,4766,4773,4772,5108,5109,5116,5115
4008, 4766,4767,4774,4773,5109,5110,5117,5116
4009, 4768,4769,4776,4775,5111,5112,5119,5118
4010, 4769,4770,4777,4776,5112,5113,5120,5119
4011, 4770,4771,4778,4777,5113,5114,5121,5120
4012, 4771,4772,4779,4778,5114,5115,5122,5121
4013, 4772,4773,4780,4779,5115,5116,5123,5122
4014, 4773,4774,4781,4780,5116,5117,5124,5123
4015, 4775,4776,4783,4782,5118,5119,5126,5125
4016, 4776,4777,4784,4783,5119,5120,5127,5126
4017, 4777,4778,4785,4784,5120,5121,5128,5127
4018, 4778,4779,4786,4785,5121,5122,5129,5128
4019, 4779,4780,4787,4786,5122,5123,5130,5129
4020, 4780,4781,4788,4787,5123,5124,5131,5130
4021, 4782,4783,4790,4789,5125,5126,5133,5132
4022, 4783,4784,4791,4790,5126,5127,5134,5133
4023, 4784,4785,4792,4791,5127,5128,5135,5134
4024, 4785,4786,4793,4792,5128,5129,5136,5135
4025, 4786,4787,4794,4793,5129,5130,5137,5136
4026, 4787,4788,4795,4794,5130,5131,5138,5137
4027, 4789,4790,4797,4796,5132,5133,5140,5139
4028, 4790,4791,4798,4797,5133,5134,5141,5140
4029, 4791,4792,4799,4798,5134,5135,5142,5141
4030, 4792,4793,4800,4799,5135,5136,5143,5142
4031, 4793,4794,4801,4800,5136,5137,5144,5143
4032, 4794,4795,4802,4801,5137,5138,5145,5144
4033, 4803,4804,4811,4810,5146,5147,5154,5153
4034, 4804,4805,4812,4811,5147,5148,5155,5154
4035, 4805,4806,4813,4812,5148,5149,5156,5155
4036, 4806,4807,4814,4813,5149,5150,5157,5156
4037, 4807,4808,4815,4814,5150,5151,5158,5157
4038, 4808,4809,4816,4815,5151,5152,5159,5158
4039, 4810,4811,4818,4817,5153,5154,5161,5160
4040, 4811,4812,4819,4818,5154,5155,5162,5161
4041, 4812,4813,4820,4819,5155,5156,5163,5162
4042, 4813,4814,4821,4820,5156,5157,5164,5163
4043, 4814,4815,4822,4821,5157,5158,5165,5164
4044, 4815,4816,4823,4822,5158,5159,5166,5165
4045, 4817,4818,4825,4824,5160,5161,5168,5167
4046, 4818,4819,4826,4825,5161,5162,5169,5168
4047, 4819,4820,4827,4826,5162,5163,5170,5169
4048, 4820,4821,4828,4827,5163,5164,5171,5170
4049, 4821,4822,4829,4828,5164,5165,5172,5171
4050, 4822,4823,4830,4829,5165,5166,5173,5172
4051, 4824,4825,4832,4831,5167,5168,5175,5174
4052, 4825,4826,4833,4832,5168,5169,5176,5175
4053, 4826,4827,4834,4833,5169,5170,5177,5176
4054, 4827,4828,4835,4834,5170,5171,5178,5177
4055, 4828,4829,4836,4835,5171,5172,5179,5178
4056, 4829,4830,4837,4836,5172,5173,5180,5179
4057, 4831,4832,4839,4838,5174,5175,5182,5181
4058, 4832,4833,4840,4839,5175,5176,5183,5182
4059, 4833,4834,4841,4840,5176,5177,5184,5183
4060, 4834,4835,4842,4841,5177,5178,5185,5184
4061, 4835,4836,4843,4842,5178,5179,5186,5185
4062, 4836,4837,4844,4843,5179,5180,5187,5186
4063, 4838,4839,4846,4845,5181,5182,5189,5188
4064, 4839,4840,4847,4846,5182,5183,5190,5189
4065, 4840,4841,4848,4847,5183,5184,5191,5190
4066, 4841,4842,4849,4848,5184,5185,5192,5191
4067, 4842,4843,4850,4849,5185,5186,5193,5192
4068, 4843,4844,4851,4850,5186,5187,5194,5193
4069, 4845,4846,4853,4852,5188,5189,5196,5195
4070, 4846,4847,4854,4853,5189,5190,5197,5196
4071, 4847,4848,4855,4854,5190,5191,5198,5197
4072, 4848,4849,4856,4855,5191,5192,5199,5198
4073, 4849,4850,4857,4856,5192,5193,5200,5199
4074, 4850,4851,4858,4857,5193,5194,5201,5200
4075, 4852,4853,4860,4859,5195,5196,5203,5202
4076, 4853,4854,4861,4860,5196,5197,5204,5203
4077, 4854,4855,4862,4861,5197,5198,5205,5204
4078, 4855,4856,4863,4862,5198,5199,5206,5205
4079, 4856,4857,4864,4863,5199,5200,5207,5206
4080, 4857,4858,4865,4864,5200,5201,5208,5207
4081, 4859,4860,4867,4866,5202,5203,5210,5209
4082, 4860,4861,4868,4867,5203,5204,5211,5210
4083, 4861,4862,4869,4868,5204,5205,5212,5211
4084, 4862,4863,4870,4869,5205,5206,5213,5212
4085, 4863,4864,4871,4870,5206,5207,5214,5213
4086, 4864,4865,4872,4871,5207,5208,5215,5214
4087, 4866,4867,4874,4873,5209,5210,5217,5216
4088, 4867,4868,4875,4874,5210,5211,5218,5217
4089, 4868,4869,4876,4875,5211,5212,5219,5218
4090, 4869,4870,4877,4876,5212,5213,5220,5219
4091, 4870,4871,4878,4877,5213,5214,5221,5220
4092, 4871,4872,4879,4878,5214,5215,5222,5221
4093, 4873,4874,4881,4880,5216,5217,5224,5223
4094, 4874,4875,4882,4881,5217,5218,5225,5224
4095, 4875,4876,4883,4882,5218,5219,5226,5225
4096, 4876,4877,4884,4883,5219,5220,5227,5226
4097, 4877,4878,4885,4884,5220,5221,5228,5227
4098, 4878,4879,4886,4885,5221,5222,5229,5228
4099, 4880,4881,4888,4887,5223,5224,5231,5230
4100, 4881,4882,4889,4888,5224,5225,5232,5231
4101, 4882,4883,4890,4889,5225,5226,5233,5232
4102, 4883,4884,4891,4890,5226,5227,5234,5233
4103, 4884,4885,4892,4891,5227,5228,5235,5234
4104, 4885,4886,4893,4892,5228,5229,5236,5235
4105, 4887,4888,4895,4894,5230,5231,5238,5237
4106, 4888,4889,4896,4895,5231,5232,5239,5238
4107, 4889,4890,4897,4896,5232,5233,5240,5239
4108, 4890,4891,4898,4897,5233,5234,5241,5240
4109, 4891,4892,4899,4898,5234,5235,5242,5241
4110, 4892,4893,4900,4899,5235,5236,5243,5242
4111, 4894,4895,4902,4901,5237,5238,5245,5244
4112, 4895,4896,4903,4902,5238,5239,5246,5245
4113, 4896,4897,4904,4903,5239,5240,5247,5246
4114, 4897,4898,4905,4904,5240,5241,5248,5247
4115, 4898,4899,4906,4905,5241,5242,5249,5248
4116, 4899,4900,4907,4906,5242,5243,5250,5249
4117, 4901,4902,4909,4908,5244,5245,5252,5251
4118, 4902,4903,4910,4909,5245,5246,5253,5252
4119, 4903,4904,4911,4910,5246,5247,5254,5253
4120, 4904,4905,4912,4911,5247,5248,5255,5254
4121, 4905,4906,4913,4912,5248,5249,5256,5255
4122, 4906,4907,4914,4913,5249,5250,5257,5256
4123, 4908,4909,4916,4915,5251,5252,5259,5258
4124, 4909,4910,4917,4916,5252,5253,5260,5259
4125, 4910,4911,4918,4917,5253,5254,5261,5260
4126, 4911,4912,4919,4918,5254,5255,5262,5261
4127, 4912,4913,4920,4919,5255,5256,5263,5262
4128, 4913,4914,4921,4920,5256,5257,5264,5263
4129, 4915,4916,4923,4922,5258,5259,5266,5265
4130, 4916,4917,4924,4923,5259,5260,5267,5266
4131, 4917,4918,4925,4924,5260,5261,5268,5267
4132, 4918,4919,4926,4925,5261,5262,5269,5268
4133, 4919,4920,4927,4926,5262,5263,5270,5269
4134, 4920,4921,4928,4927,5263,5264,5271,5270
4135, 4922,4923,4930,4929,5265,5266,5273,5272
4136, 4923,4924,4931,4930,5266,5267,5274,5273
4137, 4924,4925,4932,4931,5267,5268,5275,5274
4138, 4925,4926,4933,4932,5268,5269,5276,5275
4139, 4926,4927,4934,4933,5269,5270,5277,5276
4140, 4927,4928,4935,4934,5270,5271,5278,5277
4141, 4929,4930,4937,4936,5272,5273,5280,5279
4142, 4930,4931,4938,4937,5273,5274,5281,5280
4143, 4931,4932,4939,4938,5274,5275,5282,5281
4144, 4932,4933,4940,4939,5275,5276,5283,5282
4145, 4933,4934,4941,4940,5276,5277,5284,5283
4146, 4934,4935,4942,4941,5277,5278,5285,5284
4147, 4936,4937,4944,4943,5279,5280,5287,5286
4148, 4937,4938,4945,4944,5280,5281,5288,5287
4149, 4938,4939,4946,4945,5281,5282,5289,5288
4150, 4939,4940,4947,4946,5282,5283,5290,5289
4151, 4940,4941,4948,4947,5283,5284,5291,5290
4152, 4941,4942,4949,4948,5284,5285,5292,5291
4153, 4943,4944,4951,4950,5286,5287,5294,5293
4154, 4944,4945,4952,4951,5287,5288,5295,5294
4155, 4945,4946,4953,4952,5288,5289,5296,5295
4156, 4946,4947,4954,4953,5289,5290,5297,5296
4157, 4947,4948,4955,4954,5290,5291,5298,5297
4158, 4948,4949,4956,4955,5291,5292,5299,5298
4159, 4950,4951,4958,4957,5293,5294,5301,5300
4160, 4951,4952,4959,4958,5294,5295,5302,5301
4161, 4952,4953,4960,4959,5295,5296,5303,5302
4162, 4953,4954,4961,4960,5296,5297,5304,5303
4163, 4954,4955,4962,4961,5297,5298,5305,5304
4164, 4955,4956,4963,4962,5298,5299,5306,5305
4165, 4957,4958,4965,4964,5300,5301,5308,5307
4166, 4958,4959,4966,4965,5301,5302,5309,5308
4167, 4959,4960,4967,4966,5302,5303,5310,5309
4168, 4960,4961,4968,4967,5303,5304,5311,5310
4169, 4961,4962,4969,4968,5304,5305,5312,5311
4170, 4962,4963,4970,4969,5305,5306,5313,5312
4171, 4964,4965,4972,4971,5307,5308,5315,5314
4172, 4965,4966,4973,4972,5308,5309,5316,5315
4173, 4966,4967,4974,4973,5309,5310,5317,5316
4174, 4967,4968,4975,4974,5310,5311,5318,5317
4175, 4968,4969,4976,4975,5311,5312,5319,5318
4176, 4969,4970,4977,4976,5312,5313,5320,5319
4177, 4971,4972,4979,4978,5314,5315,5322,5321
4178, 4972,4973,4980,4979,5315,5316,5323,5322
4179, 4973,4974,4981,4980,5316,5317,5324,5323
4180, 4974,4975,4982,4981,5317,5318,5325,5324
4181, 4975,4976,4983,4982,5318,5319,5326,5325
4182, 4976,4977,4984,4983,5319,5320,5327,5326
4183, 4978,4979,4986,4985,5321,5322,5329,5328
4184, 4979,4980,4987,4986,5322,5323,5330,5329
4185, 4980,4981,4988,4987,5323,5324,5331,5330
4186, 4981,4982,4989,4988,5324,5325,5332,5331
4187, 4982,4983,4990,4989,5325,5326,5333,5332
4188, 4983,4984,4991,4990,5326,5327,5334,5333
4189, 4985,4986,4993,4992,5328,5329,5336,5335
4190, 4986,4987,4994,4993,5329,5330,5337,5336
4191, 4987,4988,4995,4994,5330,5331,5338,5337
4192, 4988,4989,4996,4995,5331,5332,5339,5338
4193, 4989,4990,4997,4996,5332,5333,5340,5339
4194, 4990,4991,4998,4997,5333,5334,5341,5340
4195, 4992,4993,5000,4999,5335,5336,5343,5342
4196, 4993,4994,5001,5000,5336,5337,5344,5343
4197, 4994,4995,5002,5001,5337,5338,5345,5344
4198, 4995,4996,5003,5002,5338,5339,5346,5345
4199, 4996,4997,5004,5003,5339,5340,5347,5346
4200, 4997,4998,5005,5004,5340,5341,5348,5347
4201, 4999,5000,5007,5006,5342,5343,5350,5349
4202, 5000,5001,5008,5007,5343,5344,5351,5350
4203, 5001,5002,5009,5008,5344,5345,5352,5351
4204, 5002,5003,5010,5009,5345,5346,5353,5352
4205, 5003,5004,5011,5010,5346,5347,5354,5353
4206, 5004,5005,5012,5011,5347,5348,5355,5354
4207, 5006,5007,5014,5013,5349,5350,5357,5356
4208, 5007,5008,5015,5014,5350,5351,5358,5357
4209, 5008,5009,5016,5015,5351,5352,5359,5358
4210, 5009,5010,5017,5016,5352,5353,5360,5359
4211, 5010,5011,5018,5017,5353,5354,5361,5360
4212, 5011,5012,5019,5018,5354,5355,5362,5361
4213, 5013,5014,5021,5020,5356,5357,5364,5363
4214, 5014,5015,5022,5021,5357,5358,5365,5364
4215, 5015,5016,5023,5022,5358,5359,5366,5365
4216, 5016,5017,5024,5023,5359,5360,5367,5366
4217, 5017,5018,5025,5024,5360,5361,5368,5367
4218, 5018,5019,5026,5025,5361,5362,5369,5368
4219, 5020,5021,5028,5027,5363,5364,5371,5370
4220, 5021,5022,5029,5028,5364,5365,5372,5371
4221, 5022,5023,5030,5029,5365,5366,5373,5372
4222, 5023,5024,5031,5030,5366,5367,5374,5373
4223, 5024,5025,5032,5031,5367,5368,5375,5374
4224, 5025,5026,5033,5032,5368,5369,5376,5375
4225, 5027,5028,5035,5034,5370,5371,5378,5377
4226, 5028,5029,5036,5035,5371,5372,5379,5378
4227, 5029,5030,5037,5036,5372,5373,5380,5379
4228, 5030,5031,5038,5037,5373,5374,5381,5380
4229, 5031,5032,5039,5038,5374,5375,5382,5381
4230, 5032,5033,5040,5039,5375,5376,5383,5382
4231, 5034,5035,5042,5041,5377,5378,5385,5384
4232, 5035,5036,5043,5042,5378,5379,5386,5385
4233, 5036,5037,5044,5043,5379,5380,5387,5386
4234, 5037,5038,5045,5044,5380,5381,5388,5387
4235, 5038,5039,5046,5045,5381,5382,5389,5388
4236, 5039,5040,5047,5046,5382,5383,5390,5389
4237, 5041,5042,5049,5048,5384,5385,5392,5391
4238, 5042,5043,5050,5049,5385,5386,5393,5392
4239, 5043,5044,5051,5050,5386,5387,5394,5393
4240, 5044,5045,5052,5051,5387,5388,5395,5394
4241, 5045,5046,5053,5052,5388,5389,5396,5395
4242, 5046,5047,5054,5053,5389,5390,5397,5396
4243, 5048,5049,5056,5055,5391,5392,5399,5398
4244, 5049,5050,5057,5056,5392,5393,5400,5399
4245, 5050,5051,5058,5057,5393,5394,5401,5400
4246, 5051,5052,5059,5058,5394,5395,5402,5401
4247, 5052,5053,5060,5059,5395,5396,5403,5402
4248, 5053,5054,5061,5060,5396,5397,5404,5403
4249, 5055,5056,5063,5062,5398,5399,5406,5405
4250, 5056,5057,5064,5063,5399,5400,5407,5406
4251, 5057,5058,5065,5064,5400,5401,5408,5407
4252, 5058,5059,5066,5065,5401,5402,5409,5408
4253, 5059,5060,5067,5066,5402,5403,5410,5409
4254, 5060,5061,5068,5067,5403,5404,5411,5410
4255, 5062,5063,5070,5069,5405,5406,5413,5412
4256, 5063,5064,5071,5070,5406,5407,5414,5413
4257, 5064,5065,5072,5071,5407,5408,5415,5414
4258, 5065,5066,5073,5072,5408,5409,5416,5415
4259, 5066,5067,5074,5073,5409,5410,5417,5416
4260, 5067,5068,5075,5074,5410,5411,5418,5417
4261, 5069,5070,5077,5076,5412,5413,5420,5419
4262, 5070,5071,5078,5077,5413,5414,5421,5420
4263, 5071,5072,5079,5078,5414,5415,5422,5421
4264, 5072,5073,5080,5079,5415,5416,5423,5422
4265, 5073,5074,5081,5080,5416,5417,5424,5423
4266, 5074,5075,5082,5081,5417,5418,5425,5424
4267, 5076,5077,5084,5083,5419,5420,5427,5426
4268, 5077,5078,5085,5084,5420,5421,5428,5427
4269, 5078,5079,5086,5085,5421,5422,5429,5428
4270, 5079,5080,5087,5086,5422,5423,5430,5429
4271, 5080,5081,5088,5087,5423,5424,5431,5430
4272, 5081,5082,5089,5088,5424,5425,5432,5431
4273, 5083,5084,5091,5090,5426,5427,5434,5433
4274, 5084,5085,5092,5091,5427,5428,5435,5434
4275, 5085,5086,5093,5092,5428,5429,5436,5435
4276, 5086,5087,5094,5093,5429,5430,5437,5436
4277, 5087,5088,5095,5094,5430,5431,5438,5437
4278, 5088,5089,5096,5095,5431,5432,5439,5438
4279, 5090,5091,5098,5097,5433,5434,5441,5440
4280, 5091,5092,5099,5098,5434,5435,5442,5441
4281, 5092,5093,5100,5099,5435,5436,5443,5442
4282, 5093,5094,5101,5100,5436,5437,5444,5443
4283, 5094,5095,5102,5101,5437,5438,5445,5444
4284, 5095,5096,5103,5102,5438,5439,5446,5445
4285, 5097,5098,5105,5104,5440,5441,5448,5447
4286, 5098,5099,5106,5105,5441,5442,5449,5448
4287, 5099,5100,5107,5106,5442,5443,5450,5449
4288, 5100,5101,5108,5107,5443,5444,5451,5450
4289, 5101,5102,5109,5108,5444,5445,5452,5451
4290, 5102,5103,5110,5109,5445,5446,5453,5452
4291, 5104,5105,5112,5111,5447,5448,5455,5454
4292, 5105,5106,5113,5112,5448,5449,5456,5455
4293, 5106,5107,5114,5113,5449,5450,5457,5456
4294, 5107,5108,5115,5114,5450,5451,5458,5457
4295, 5108,5109,5116,5115,5451,5452,5459,5458
4296, 5109,5110,5117,5116,5452,5453,5460,5459
4297, 5111,5112,5119,5118,5454,5455,5462,5461
4298, 5112,5113,5120,5119,5455,5456,5463,5462
4299, 5113,5114,5121,5120,5456,5457,5464,5463
4300, 5114,5115,5122,5121,5457,5458,5465,5464
4301, 5115,5116,5123,5122,5458,5459,5466,5465
4302, 5116,5117,5124,5123,5459,5460,5467,5466
4303, 5118,5119,5126,5125,5461,5462,5469,5468
4304, 5119,5120,5127,5126,5462,5463,5470,5469
4305, 5120,5121,5128,5127,5463,5464,5471,5470
4306, 5121,5122,5129,5128,5464,5465,5472,5471
4307, 5122,5123,5130,5129,5465,5466,5473,5472
4308, 5123,5124,5131,5130,5466,5467,5474,5473
4309, 5125,5126,5133,5132,5468,5469,5476,5475
4310, 5126,5127,5134,5133,5469,5470,5477,5476
4311, 5127,5128,5135,5134,5470,5471,5478,5477
4312, 5128,5129,5136,5135,5471,5472,5479,5478
4313, 5129,5130,5137,5136,5472,5473,5480,5479
4314, 5130,5131,5138,5137,5473,5474,5481,5480
4315, 5132,5133,5140,5139,5475,5476,5483,5482
4316, 5133,5134,5141,5140,5476,5477,5484,5483
4317, 5134,5135,5142,5141,5477,5478,5485,5484
4318, 5135,5136,5143,5142,5478,5479,5486,5485
4319, 5136,5137,5144,5143,5479,5480,5487,5486
4320, 5137,5138,5145,5144,5480,5481,5488,5487
4321, 5146,5147,5154,5153,5489,5490,5497,5496
4322, 5147,5148,5155,5154,5490,5491,5498,5497
4323, 5148,5149,5156,5155,5491,5492,5499,5498
4324, 5149,5150,5157,5156,5492,5493,5500,5499
4325, 5150,5151,5158,5157,5493,5494,5501,5500
4326, 5151,5152,5159,5158,5494,5495,5502,5501
4327, 5153,5154,5161,5160,5496,5497,5504,5503
4328, 5154,5155,5162,5161,5497,5498,5505,5504
4329, 5155,5156,5163,5162,5498,5499,5506,5505
4330, 5156,5157,5164,5163,5499,5500,5507,5506
4331, 5157,5158,5165,5164,5500,5501,5508,5507
4332, 5158,5159,5166,5165,5501,5502,5509,5508
4333, 5160,5161,5168,5167,5503,5504,5511,5510
4334, 5161,5162,5169,5168,5504,5505,5512,5511
4335, 5162,5163,5170,5169,5505,5506,5513,5512
4336, 5163,5164,5171,5170,5506,5507,5514,5513
4337, 5164,5165,5172,5171,5507,5508,5515,5514
4338, 5165,5166,5173,5172,5508,5509,5516,5515
4339, 5167,5168,5175,5174,5510,5511,5518,5517
4340, 5168,5169,5176,5175,5511,5512,5519,5518
4341, 5169,5170,5177,5176,5512,5513,5520,5519
4342, 5170,5171,5178,5177,5513,5514,5521,5520
4343, 5171,5172,5179,5178,5514,5515,5522,5521
4344, 5172,5173,5180,5179,5515,5516,5523,5522
4345, 5174,5175,5182,5181,5517,5518,5525,5524
4346, 5175,5176,5183,5182,5518,5519,5526,5525
4347, 5176,5177,5184,5183,5519,5520,5527,5526
4348, 5177,5178,5185,5184,5520,5521,5528,5527
4349, 5178,5179,5186,5185,5521,5522,5529,5528
4350, 5179,5180,5187,5186,5522,5523,5530,5529
4351, 5181,5182,5189,5188,5524,5525,5532,5531
4352, 5182,5183,5190,5189,5525,5526,5533,5532
4353, 5183,5184,5191,5190,5526,5527,5534,5533
4354, 5184,5185,5192,5191,5527,5528,5535,5534
4355, 5185,5186,5193,5192,5528,5529,5536,5535
4356, 5186,5187,5194,5193,5529,5530,5537,5536
4357, 5188,5189,5196,5195,5531,5532,5539,5538
4358, 5189,5190,5197,5196,5532,5533,5540,5539
4359, 5190,5191,5198,5197,5533,5534,5541,5540
4360, 5191,5192,5199,5198,5534,5535,5542,5541
4361, 5192,5193,5200,5199,5535,5536,5543,5542
4362, 5193,5194,5201,5200,5536,5537,5544,5543
4363, 5195,5196,5203,5202,5538,5539,5546,5545
4364, 5196,5197,5204,5203,5539,5540,5547,5546
4365, 5197,5198,5205,5204,5540,5541,5548,5547
4366, 5198,5199,5206,5205,5541,5542,5549,5548
4367, 5199,5200,5207,5206,5542,5543,5550,5549
4368, 5200,5201,5208,5207,5543,5544,5551,5550
4369, 5202,5203,5210,5209,5545,5546,5553,5552
4370, 5203,5204,5211,5210,5546,5547,5554,5553
4371, 5204,5205,5212,5211,5547,5548,5555,5554
4372, 5205,5206,5213,5212,5548,5549,5556,5555
4373, 5206,5207,5214,5213,5549,5550,5557,5556
4374, 5207,5208,5215,5214,5550,5551,5558,5557
4375, 5209,5210,5217,5216,5552,5553,5560,5559
4376, 5210,5211,5218,5217,5553,5554,5561,5560
4377, 5211,5212,5219,5218,5554,5555,5562,5561
4378, 5212,5213,5220,5219,5555,5556,5563,5562
4379, 5213,5214,5221,5220,5556,5557,5564,5563
4380, 5214,5215,5222,5221,5557,5558,5565,5564
4381, 5216,5217,5224,5223,5559,5560,5567,5566
4382, 5217,5218,5225,5224,5560,5561,5568,5567
4383, 5218,5219,5226,5225,5561,5562,5569,5568
4384, 5219,5220,5227,5226,5562,5563,5570,5569
4385, 5220,5221,5228,5227,5563,5564,5571,5570
4386, 5221,5222,5229,5228,5564,5565,5572,5571
4387, 5223,5224,5231,5230,5566,5567,5574,5573
4388, 5224,5225,5232,5231,5567,5568,5575,5574
4389, 5225,5226,5233,5232,5568,5569,5576,5575
4390, 5226,5227,5234,5233,5569,5570,5577,5576
4391, 5227,5228,5235,5234,5570,5571,5578,5577
4392, 5228,5229,5236,5235,5571,5572,5579,5578
4393, 5230,5231,5238,5237,5573,5574,5581,5580
4394, 5231,5232,5239,5238,5574,5575,5582,5581
4395, 5232,5233,5240,5239,5575,5576,5583,5582
4396, 5233,5234,5241,5240,5576,5577,5584,5583
4397, 5234,5235,5242,5241,5577,5578,5585,5584
4398, 5235,5236,5243,5242,5578,5579,5586,5585
4399, 5237,5238,5245,5244,5580,5581,5588,5587
4400, 5238,5239,5246,5245,5581,5582,5589,5588
4401, 5239,5240,5247,5246,5582,5583,5590,5589
4402, 5240,5241,5248,5247,5583,5584,5591,5590
4403, 5241,5242,5249,5248,5584,5585,5592,5591
4404, 5242,5243,5250,5249,5585,5586,5593,5592
4405, 5244,5245,5252,5251,5587,5588,5595,5594
4406, 5245,5246,5253,5252,5588,5589,5596,5595
4407, 5246,5247,5254,5253,5589,5590,5597,5596
4408, 5247,5248,5255,5254,5590,5591,5598,5597
4409, 5248,5249,5256,5255,5591,5592,5599,5598
4410, 5249,5250,5257,5256,5592,5593,5600,5599
4411, 5251,5252,5259,5258,5594,5595,5602,5601
4412, 5252,5253,5260,5259,5595,5596,5603,5602
4413, 5253,5254,5261,5260,5596,5597,5604,5603
4414, 5254,5255,5262,5261,5597,5598,5605,5604
4415, 5255,5256,5263,5262,5598,5599,5606,5605
4416, 5256,5257,5264,5263,5599,5600,5607,5606
4417, 5258,5259,5266,5265,5601,5602,5609,5608
4418, 5259,5260,5267,5266,5602,5603,5610,5609
4419, 5260,5261,5268,5267,5603,5604,5611,5610
4420, 5261,5262,5269,5268,5604,5605,5612,5611
4421, 5262,5263,5270,5269,5605,5606,5613,5612
4422, 5263,5264,5271,5270,5606,5607,5614,5613
4423, 5265,5266,5273,5272,5608,5609,5616,5615
4424, 5266,5267,5274,5273,5609,5610,5617,5616
4425, 5267,5268,5275,5274,5610,5611,5618,5617
4426, 5268,5269,5276,5275,5611,5612,5619,5618
4427, 5269,5270,5277,5276,5612,5613,5620,5619
4428, 5270,5271,5278,5277,5613,5614,5621,5620
4429, 5272,5273,5280,5279,5615,5616,5623,5622
4430, 5273,5274,5281,5280,5616,5617,5624,5623
4431, 5274,5275,5282,5281,5617,5618,5625,5624
4432, 5275,5276,5283,5282,5618,5619,5626,5625
4433, 5276,5277,5284,5283,5619,5620,5627,5626
4434, 5277,5278,5285,5284,5620,5621,5628,5627
4435, 5279,5280,5287,5286,5622,5623,5630,5629
4436, 5280,5281,5288,5287,5623,5624,5631,5630
4437, 5281,5282,5289,5288,5624,5625,5632,5631
4438, 5282,5283,5290,5289,5625,5626,5633,5632
4439, 5283,5284,5291,5290,5626,5627,5634,5633
4440, 5284,5285,5292,5291,5627,5628,5635,5634
4441, 5286,5287,5294,5293,5629,5630,5637,5636
4442, 5287,5288,5295,5294,5630,5631,5638,5637
4443, 5288,5289,5296,5295,5631,5632,5639,5638
4444, 5289,5290,5297,5296,5632,5633,5640,5639
4445, 5290,5291,5298,5297,5633,5634,5641,5640
4446, 5291,5292,5299,5298,5634,5635,5642,5641
4447, 5293,5294,5301,5300,5636,5637,5644,5643
4448, 5294,5295,5302,5301,5637,5638,5645,5644
4449, 5295,5296,5303,5302,5638,5639,5646,5645
4450, 5296,5297,5304,5303,5639,5640,5647,5646
4451, 5297,5298,5305,5304,5640,5641,5648,5647
4452, 5298,5299,5306,5305,5641,5642,5649,5648
4453, 5300,5301,5308,5307,5643,5644,5651,5650
4454, 5301,5302,5309,5308,5644,5645,5652,5651
4455, 5302,5303,5310,5309,5645,5646,5653,5652
4456, 5303,5304,5311,5310,5646,5647,5654,5653
4457, 5304,5305,5312,5311,5647,5648,5655,5654
4458, 5305,5306,5313,5312,5648,5649,5656,5655
4459, 5307,5308,5315,5314,5650,5651,5658,5657
4460, 5308,5309,5316,5315,5651,5652,5659,5658
4461, 5309,5310,5317,5316,5652,5653,5660,5659
4462, 5310,5311,5318,5317,5653,5654,5661,5660
4463, 5311,5312,5319,5318,5654,5655,5662,5661
4464, 5312,5313,5320,5319,5655,5656,5663,5662
4465, 5314,5315,5322,5321,5657,5658,5665,5664
4466, 5315,5316,5323,5322,5658,5659,5666,5665
4467, 5316,5317,5324,5323,5659,5660,5667,5666
4468, 5317,5318,5325,5324,5660,5661,5668,5667
4469, 5318,5319,5326,5325,5661,5662,5669,5668
4470, 5319,5320,5327,5326,5662,5663,5670,5669
4471, 5321,5322,5329,5328,5664,5665,5672,5671
4472, 5322,5323,5330,5329,5665,5666,5673,5672
4473, 5323,5324,5331,5330,5666,5667,5674,5673
4474, 5324,5325,5332,5331,5667,5668,5675,5674
4475, 5325,5326,5333,5332,5668,5669,5676,5675
4476, 5326,5327,5334,5333,5669,5670,5677,5676
4477, 5328,5329,5336,5335,5671,5672,5679,5678
4478, 5329,5330,5337,5336,5672,5673,5680,5679
4479, 5330,5331,5338,5337,5673,5674,5681,5680
4480, 5331,5332,5339,5338,5674,5675,5682,5681
4481, 5332,5333,5340,5339,5675,5676,5683,5682
4482, 5333,5334,5341,5340,5676,5677,5684,5683
4483, 5335,5336,5343,5342,5678,5679,5686,5685
4484, 5336,5337,5344,5343,5679,5680,5687,5686
4485, 5337,5338,5345,5344,5680,5681,5688,5687
4486, 5338,5339,5346,5345,5681,5682,5689,5688
4487, 5339,5340,5347,5346,5682,5683,5690,5689
4488, 5340,5341,5348,5347,5683,5684,5691,5690
4489, 5342,5343,5350,5349,5685,5686,5693,5692
4490, 5343,5344,5351,5350,5686,5687,5694,5693
4491, 5344,5345,5352,5351,5687,5688,5695,5694
4492, 5345,5346,5353,5352,5688,5689,5696,5695
4493, 5346,5347,5354,5353,5689,5690,5697,5696
4494, 5347,5348,5355,5354,5690,5691,5698,5697
4495, 5349,5350,5357,5356,5692,5693,5700,5699
4496, 5350,5351,5358,5357,5693,5694,5701,5700
4497, 5351,5352,5359,5358,5694,5695,5702,5701
4498, 5352,5353,5360,5359,5695,5696,5703,5702
4499, 5353,5354,5361,5360,5696,5697,5704,5703
4500, 5354,5355,5362,5361,5697,5698,5705,5704
4501, 5356,5357,5364,5363,5699,5700,5707,5706
4502, 5357,5358,5365,5364,5700,5701,5708,5707
4503, 5358,5359,5366,5365,5701,5702,5709,5708
4504, 5359,5360,5367,5366,5702,5703,5710,5709
4505, 5360,5361,5368,5367,5703,5704,5711,5710
4506, 5361,5362,5369,5368,5704,5705,5712,5711
4507, 5363,5364,5371,5370,5706,5707,5714,5713
4508, 5364,5365,5372,5371,5707,5708,5715,5714
4509, 5365,5366,5373,5372,5708,5709,5716,5715
4510, 5366,5367,5374,5373,5709,5710,5717,5716
4511, 5367,5368,5375,5374,5710,5711,5718,5717
4512, 5368,5369,5376,5375,5711,5712,5719,5718
4513, 5370,5371,5378,5377,5713,5714,5721,5720
4514, 5371,5372,5379,5378,5714,5715,5722,5721
4515, 5372,5373,5380,5379,5715,5716,5723,5722
4516, 5373,5374,5381,5380,5716,5717,5724,5723
4517, 5374,5375,5382,5381,5717,5718,5725,5724
4518, 5375,5376,5383,5382,5718,5719,5726,5725
4519, 5377,5378,5385,5384,5720,5721,5728,5727
4520, 5378,5379,5386,5385,5721,5722,5729,5728
4521, 5379,5380,5387,5386,5722,5723,5730,5729
4522, 5380,5381,5388,5387,5723,5724,5731,5730
4523, 5381,5382,5389,5388,5724,5725,5732,5731
4524, 5382,5383,5390,5389,5725,5726,5733,5732
4525, 5384,5385,5392,5391,5727,5728,5735,5734
4526, 5385,5386,5393,5392,5728,5729,5736,5735
4527, 5386,5387,5394,5393,5729,5730,5737,5736
4528, 5387,5388,5395,5394,5730,5731,5738,5737
4529, 5388,5389,5396,5395,5731,5732,5739,5738
4530, 5389,5390,5397,5396,5732,5733,5740,5739
4531, 5391,5392,5399,5398,5734,5735,5742,5741
4532, 5392,5393,5400,5399,5735,5736,5743,5742
4533, 5393,5394,5401,5400,5736,5737,5744,5743
4534, 5394,5395,5402,5401,5737,5738,5745,5744
4535, 5395,5396,5403,5402,5738,5739,5746,5745
4536, 5396,5397,5404,5403,5739,5740,5747,5746
4537, 5398,5399,5406,5405,5741,5742,5749,5748
4538, 5399,5400,5407,5406,5742,5743,5750,5749
4539, 5400,5401,5408,5407,5743,5744,5751,5750
4540, 5401,5402,5409,5408,5744,5745,5752,5751
4541, 5402,5403,5410,5409,5745,5746,5753,5752
4542, 5403,5404,5411,5410,5746,5747,5754,5753
4543, 5405,5406,5413,5412,5748,5749,5756,5755
4544, 5406,5407,5414,5413,5749,5750,5757,5756
4545, 5407,5408,5415,5414,5750,5751,5758,5757
4546, 5408,5409,5416,5415,5751,5752,5759,5758
4547, 5409,5410,5417,5416,5752,5753,5760,5759
4548, 5410,5411,5418,5417,5753,5754,5761,5760
4549, 5412,5413,5420,5419,5755,5756,5763,5762
4550, 5413,5414,5421,5420,5756,5757,5764,5763
4551, 5414,5415,5422,5421,5757,5758,5765,5764
4552, 5415,5416,5423,5422,5758,5759,5766,5765
4553, 5416,5417,5424,5423,5759,5760,5767,5766
4554, 5417,5418,5425,5424,5760,5761,5768,5767
4555, 5419,5420,5427,5426,5762,5763,5770,5769
4556, 5420,5421,5428,5427,5763,5764,5771,5770
4557, 5421,5422,5429,5428,5764,5765,5772,5771
4558, 5422,5423,5430,5429,5765,5766,5773,5772
4559, 5423,5424,5431,5430,5766,5767,5774,5773
4560, 5424,5425,5432,5431,5767,5768,5775,5774
4561, 5426,5427,5434,5433,5769,5770,5777,5776
4562, 5427,5428,5435,5434,5770,5771,5778,5777
4563, 5428,5429,5436,5435,5771,5772,5779,5778
4564, 5429,5430,5437,5436,5772,5773,5780,5779
4565, 5430,5431,5438,5437,5773,5774,5781,5780
4566, 5431,5432,5439,5438,5774,5775,5782,5781
4567, 5433,5434,5441,5440,5776,5777,5784,5783
4568, 5434,5435,5442,5441,5777,5778,5785,5784
4569, 5435,5436,5443,5442,5778,5779,5786,5785
4570, 5436,5437,5444,5443,5779,5780,5787,5786
4571, 5437,5438,5445,5444,5780,5781,5788,5787
4572, 5438,5439,5446,5445,5781,5782,5789,5788
4573, 5440,5441,5448,5447,5783,5784,5791,5790
4574, 5441,5442,5449,5448,5784,5785,5792,5791
4575, 5442,5443,5450,5449,5785,5786,5793,5792
4576, 5443,5444,5451,5450,5786,5787,5794,5793
4577, 5444,5445,5452,5451,5787,5788,5795,5794
4578, 5445,5446,5453,5452,5788,5789,5796,5795
4579, 5447,5448,5455,5454,5790,5791,5798,5797
4580, 5448,5449,5456,5455,5791,5792,5799,5798
4581, 5449,5450,5457,5456,5792,5793,5800,5799
4582, 5450,5451,5458,5457,5793,5794,5801,5800
4583, 5451,5452,5459,5458,5794,5795,5802,5801
4584, 5452,5453,5460,5459,5795,5796,5803,5802
4585, 5454,5455,5462,5461,5797,5798,5805,5804
4586, 5455,5456,5463,5462,5798,5799,5806,5805
4587, 5456,5457,5464,5463,5799,5800,5807,5806
4588, 5457,5458,5465,5464,5800,5801,5808,5807
4589, 5458,5459,5466,5465,5801,5802,5809,5808
4590, 5459,5460,5467,5466,5802,5803,5810,5809
4591, 5461,5462,5469,5468,5804,5805,5812,5811
4592, 5462,5463,5470,5469,5805,5806,5813,5812
4593, 5463,5464,5471,5470,5806,5807,5814,5813
4594, 5464,5465,5472,5471,5807,5808,5815,5814
4595, 5465,5466,5473,5472,5808,5809,5816,5815
4596, 5466,5467,5474,5473,5809,5810,5817,5816
4597, 5468,5469,5476,5475,5811,5812,5819,5818
4598, 5469,5470,5477,5476,5812,5813,5820,5819
4599, 5470,5471,5478,5477,5813,5814,5821,5820
4600, 5471,5472,5479,5478,5814,5815,5822,5821
4601, 5472,5473,5480,5479,5815,5816,5823,5822
4602, 5473,5474,5481,5480,5816,5817,5824,5823
4603, 5475,5476,5483,5482,5818,5819,5826,5825
4604, 5476,5477,5484,5483,5819,5820,5827,5826
4605, 5477,5478,5485,5484,5820,5821,5828,5827
4606, 5478,5479,5486,5485,5821,5822,5829,5828
4607, 5479,5480,5487,5486,5822,5823,5830,5829
4608, 5480,5481,5488,5487,5823,5824,5831,5830
4609, 5489,5490,5497,5496,5832,5833,5840,5839
4610, 5490,5491,5498,5497,5833,5834,5841,5840
4611, 5491,5492,5499,5498,5834,5835,5842,5841
4612, 5492,5493,5500,5499,5835,5836,5843,5842
4613, 5493,5494,5501,5500,5836,5837,5844,5843
4614, 5494,5495,5502,5501,5837,5838,5845,5844
4615, 5496,5497,5504,5503,5839,5840,5847,5846
4616, 5497,5498,5505,5504,5840,5841,5848,5847
4617, 5498,5499,5506,5505,5841,5842,5849,5848
4618, 5499,5500,5507,5506,5842,5843,5850,5849
4619, 5500,5501,5508,5507,5843,5844,5851,5850
4620, 5501,5502,5509,5508,5844,5845,5852,5851
4621, 5503,5504,5511,5510,5846,5847,5854,5853
4622, 5504,5505,5512,5511,5847,5848,5855,5854
4623, 5505,5506,5513,5512,5848,5849,5856,5855
4624, 5506,5507,5514,5513,5849,5850,5857,5856
4625, 5507,5508,5515,5514,5850,5851,5858,5857
4626, 5508,5509,5516,5515,5851,5852,5859,5858
4627, 5510,5511,5518,5517,5853,5854,5861,5860
4628, 5511,5512,5519,5518,5854,5855,5862,5861
4629, 5512,5513,5520,5519,5855,5856,5863,5862
4630, 5513,5514,5521,5520,5856,5857,5864,5863
4631, 5514,5515,5522,5521,5857,5858,5865,5864
4632, 5515,5516,5523,5522,5858,5859,5866,5865
4633, 5517,5518,5525,5524,5860,5861,5868,5867
4634, 5518,5519,5526,5525,5861,5862,5869,5868
4635, 5519,5520,5527,5526,5862,5863,5870,5869
4636, 5520,5521,5528,5527,5863,5864,5871,5870
4637, 5521,5522,5529,5528,5864,5865,5872,5871
4638, 5522,5523,5530,5529,5865,5866,5873,5872
4639, 5524,5525,5532,5531,5867,5868,5875,5874
4640, 5525,5526,5533,5532,5868,5869,5876,5875
4641, 5526,5527,5534,5533,5869,5870,5877,5876
4642, 5527,5528,5535,5534,5870,5871,5878,5877
4643, 5528,5529,5536,5535,5871,5872,5879,5878
4644, 5529,5530,5537,5536,5872,5873,5880,5879
4645, 5531,5532,5539,5538,5874,5875,5882,5881
4646, 5532,5533,5540,5539,5875,5876,5883,5882
4647, 5533,5534,5541,5540,5876,5877,5884,5883
4648, 5534,5535,5542,5541,5877,5878,5885,5884
4649, 5535,5536,5543,5542,5878,5879,5886,5885
4650, 5536,5537,5544,5543,5879,5880,5887,5886
4651, 5538,5539,5546,5545,5881,5882,5889,5888
4652, 5539,5540,5547,5546,5882,5883,5890,5889
4653, 5540,5541,5548,5547,5883,5884,5891,5890
4654, 5541,5542,5549,5548,5884,5885,5892,5891
4655, 5542,5543,5550,5549,5885,5886,5893,5892
4656, 5543,5544,5551,5550,5886,5887,5894,5893
4657, 5545,5546,5553,5552,5888,5889,5896,5895
4658, 5546,5547,5554,5553,5889,5890,5897,5896
4659, 5547,5548,5555,5554,5890,5891,5898,5897
4660, 5548,5549,5556,5555,5891,5892,5899,5898
4661, 5549,5550,5557,5556,5892,5893,5900,5899
4662, 5550,5551,5558,5557,5893,5894,5901,5900
4663, 5552,5553,5560,5559,5895,5896,5903,5902
4664, 5553,5554,5561,5560,5896,5897,5904,5903
4665, 5554,5555,5562,5561,5897,5898,5905,5904
4666, 5555,5556,5563,5562,5898,5899,5906,5905
4667, 5556,5557,5564,5563,5899,5900,5907,5906
4668, 5557,5558,5565,5564,5900,5901,5908,5907
4669, 5559,5560,5567,5566,5902,5903,5910,5909
4670, 5560,5561,5568,5567,5903,5904,5911,5910
4671, 5561,5562,5569,5568,5904,5905,5912,5911
4672, 5562,5563,5570,5569,5905,5906,5913,5912
4673, 5563,5564,5571,5570,5906,5907,5914,5913
4674, 5564,5565,5572,5571,5907,5908,5915,5914
4675, 5566,5567,5574,5573,5909,5910,5917,5916
4676, 5567,5568,5575,5574,5910,5911,5918,5917
4677, 5568,5569,5576,5575,5911,5912,5919,5918
4678, 5569,5570,5577,5576,5912,5913,5920,5919
4679, 5570,5571,5578,5577,5913,5914,5921,5920
4680, 5571,5572,5579,5578,5914,5915,5922,5921
4681, 5573,5574,5581,5580,5916,5917,5924,5923
4682, 5574,5575,5582,5581,5917,5918,5925,5924
4683, 5575,5576,5583,5582,5918,5919,5926,5925
4684, 5576,5577,5584,5583,5919,5920,5927,5926
4685, 5577,5578,5585,5584,5920,5921,5928,5927
4686, 5578,5579,5586,5585,5921,5922,5929,5928
4687, 5580,5581,5588,5587,5923,5924,5931,5930
4688, 5581,5582,5589,5588,5924,5925,5932,5931
4689, 5582,5583,5590,5589,5925,5926,5933,5932
4690, 5583,5584,5591,5590,5926,5927,5934,5933
4691, 5584,5585,5592,5591,5927,5928,5935,5934
4692, 5585,5586,5593,5592,5928,5929,5936,5935
4693, 5587,5588,5595,5594,5930,5931,5938,5937
4694, 5588,5589,5596,5595,5931,5932,5939,5938
4695, 5589,5590,5597,5596,5932,5933,5940,5939
4696, 5590,5591,5598,5597,5933,5934,5941,5940
4697, 5591,5592,5599,5598,5934,5935,5942,5941
4698, 5592,5593,5600,5599,5935,5936,5943,5942
4699, 5594,5595,5602,5601,5937,5938,5945,5944
4700, 5595,5596,5603,5602,5938,5939,5946,5945
4701, 5596,5597,5604,5603,5939,5940,5947,5946
4702, 5597,5598,5605,5604,5940,5941,5948,5947
4703, 5598,5599,5606,5605,5941,5942,5949,5948
4704, 5599,5600,5607,5606,5942,5943,5950,5949
4705, 5601,5602,5609,5608,5944,5945,5952,5951
4706, 5602,5603,5610,5609,5945,5946,5953,5952
4707, 5603,5604,5611,5610,5946,5947,5954,5953
4708, 5604,5605,5612,5611,5947,5948,5955,5954
4709, 5605,5606,5613,5612,5948,5949,5956,5955
4710, 5606,5607,5614,5613,5949,5950,5957,5956
4711, 5608,5609,5616,5615,5951,5952,5959,5958
4712, 5609,5610,5617,5616,5952,5953,5960,5959
4713, 5610,5611,5618,5617,5953,5954,5961,5960
4714, 5611,5612,5619,5618,5954,5955,5962,5961
4715, 5612,5613,5620,5619,5955,5956,5963,5962
4716, 5613,5614,5621,5620,5956,5957,5964,5963
4717, 5615,5616,5623,5622,5958,5959,5966,5965
4718, 5616,5617,5624,5623,5959,5960,5967,5966
4719, 5617,5618,5625,5624,5960,5961,5968,5967
4720, 5618,5619,5626,5625,5961,5962,5969,5968
4721, 5619,5620,5627,5626,5962,5963,5970,5969
4722, 5620,5621,5628,5627,5963,5964,5971,5970
4723, 5622,5623,5630,5629,5965,5966,5973,5972
4724, 5623,5624,5631,5630,5966,5967,5974,5973
4725, 5624,5625,5632,5631,5967,5968,5975,5974
4726, 5625,5626,5633,5632,5968,5969,5976,5975
4727, 5626,5627,5634,5633,5969,5970,5977,5976
4728, 5627,5628,5635,5634,5970,5971,5978,5977
4729, 5629,5630,5637,5636,5972,5973,5980,5979
4730, 5630,5631,5638,5637,5973,5974,5981,5980
4731, 5631,5632,5639,5638,5974,5975,5982,5981
4732, 5632,5633,5640,5639,5975,5976,5983,5982
4733, 5633,5634,5641,5640,5976,5977,5984,5983
4734, 5634,5635,5642,5641,5977,5978,5985,5984
4735, 5636,5637,5644,5643,5979,5980,5987,5986
4736, 5637,5638,5645,5644,5980,5981,5988,5987
4737, 5638,5639,5646,5645,5981,5982,5989,5988
4738, 5639,5640,5647,5646,5982,5983,5990,5989
4739, 5640,5641,5648,5647,5983,5984,5991,5990
4740, 5641,5642,5649,5648,5984,5985,5992,5991
4741, 5643,5644,5651,5650,5986,5987,5994,5993
4742, 5644,5645,5652,5651,5987,5988,5995,5994
4743, 5645,5646,5653,5652,5988,5989,5996,5995
4744, 5646,5647,5654,5653,5989,5990,5997,5996
4745, 5647,5648,5655,5654,5990,5991,5998,5997
4746, 5648,5649,5656,5655,5991,5992,5999,5998
4747, 5650,5651,5658,5657,5993,5994,6001,6000
4748, 5651,5652,5659,5658,5994,5995,6002,6001
4749, 5652,5653,5660,5659,5995,5996,6003,6002
4750, 5653,5654,5661,5660,5996,5997,6004,6003
4751, 5654,5655,5662,5661,5997,5998,6005,6004
4752, 5655,5656,5663,5662,5998,5999,6006,6005
4753, 5657,5658,5665,5664,6000,6001,6008,6007
4754, 5658,5659,5666,5665,6001,6002,6009,6008
4755, 5659,5660,5667,5666,6002,6003,6010,6009
4756, 5660,5661,5668,5667,6003,6004,6011,6010
4757, 5661,5662,5669,5668,6004,6005,6012,6011
4758, 5662,5663,5670,5669,6005,6006,6013,6012
4759, 5664,5665,5672,5671,6007,6008,6015,6014
4760, 5665,5666,5673,5672,6008,6009,6016,6015
4761, 5666,5667,5674,5673,6009,6010,6017,6016
4762, 5667,5668,5675,5674,6010,6011,6018,6017
4763, 5668,5669,5676,5675,6011,6012,6019,6018
4764, 5669,5670,5677,5676,6012,6013,6020,6019
4765, 5671,5672,5679,5678,6014,6015,6022,6021
4766, 5672,5673,5680,5679,6015,6016,6023,6022
4767, 5673,5674,5681,5680,6016,6017,6024,6023
4768, 5674,5675,5682,5681,6017,6018,6025,6024
4769, 5675,5676,5683,5682,6018,6019,6026,6025
4770, 5676,5677,5684,5683,6019,6020,6027,6026
4771, 5678,5679,5686,5685,6021,6022,6029,6028
4772, 5679,5680,5687,5686,6022,6023,6030,6029
4773, 5680,5681,5688,5687,6023,6024,6031,6030
4774, 5681,5682,5689,5688,6024,6025,6032,6031
4775, 5682,5683,5690,5689,6025,6026,6033,6032
4776, 5683,5684,5691,5690,6026,6027,6034,6033
4777, 5685,5686,5693,5692,6028,6029,6036,6035
4778, 5686,5687,5694,5693,6029,6030,6037,6036
4779, 5687,5688,5695,5694,6030,6031,6038,6037
4780, 5688,5689,5696,5695,6031,6032,6039,6038
4781, 5689,5690,5697,5696,6032,6033,6040,6039
4782, 5690,5691,5698,5697,6033,6034,6041,6040
4783, 5692,5693,5700,5699,6035,6036,6043,6042
4784, 5693,5694,5701,5700,6036,6037,6044,6043
4785, 5694,5695,5702,5701,6037,6038,6045,6044
4786, 5695,5696,5703,5702,6038,6039,6046,6045
4787, 5696,5697,5704,5703,6039,6040,6047,6046
4788, 5697,5698,5705,5704,6040,6041,6048,6047
4789, 5699,5700,5707,5706,6042,6043,6050,6049
4790, 5700,5701,5708,5707,6043,6044,6051,6050
4791, 5701,5702,5709,5708,6044,6045,6052,6051
4792, 5702,5703,5710,5709,6045,6046,6053,6052
4793, 5703,5704,5711,5710,6046,6047,6054,6053
4794, 5704,5705,5712,5711,6047,6048,6055,6054
4795, 5706,5707,5714,5713,6049,6050,6057,6056
4796, 5707,5708,5715,5714,6050,6051,6058,6057
4797, 5708,5709,5716,5715,6051,6052,6059,6058
4798, 5709,5710,5717,5716,6052,6053,6060,6059
4799, 5710,5711,5718,5717,6053,6054,6061,6060
4800, 5711,5712,5719,5718,6054,6055,6062,6061
4801, 5713,5714,5721,5720,6056,6057,6064,6063
4802, 5714,5715,5722,5721,6057,6058,6065,6064
4803, 5715,5716,5723,5722,6058,6059,6066,6065
4804, 5716,5717,5724,5723,6059,6060,6067,6066
4805, 5717,5718,5725,5724,6060,6061,6068,6067
4806, 5718,5719,5726,5725,6061,6062,6069,6068
4807, 5720,5721,5728,5727,6063,6064,6071,6070
4808, 5721,5722,5729,5728,6064,6065,6072,6071
4809, 5722,5723,5730,5729,6065,6066,6073,6072
4810, 5723,5724,5731,5730,6066,6067,6074,6073
4811, 5724,5725,5732,5731,6067,6068,6075,6074
4812, 5725,5726,5733,5732,6068,6069,6076,6075
4813, 5727,5728,5735,5734,6070,6071,6078,6077
4814, 5728,5729,5736,5735,6071,6072,6079,6078
4815, 5729,5730,5737,5736,6072,6073,6080,6079
4816, 5730,5731,5738,5737,6073,6074,6081,6080
4817, 5731,5732,5739,5738,6074,6075,6082,6081
4818, 5732,5733,5740,5739,6075,6076,6083,6082
4819, 5734,5735,5742,5741,6077,6078,6085,6084
4820, 5735,5736,5743,5742,6078,6079,6086,6085
4821, 5736,5737,5744,5743,6079,6080,6087,6086
4822, 5737,5738,5745,5744,6080,6081,6088,6087
4823, 5738,5739,5746,5745,6081,6082,6089,6088
4824, 5739,5740,5747,5746,6082,6083,6090,6089
4825, 5741,5742,5749,5748,6084,6085,6092,6091
4826, 5742,5743,5750,5749,6085,6086,6093,6092
4827, 5743,5744,5751,5750,6086,6087,6094,6093
4828, 5744,5745,5752,5751,6087,6088,6095,6094
4829, 5745,5746,5753,5752,6088,6089,6096,6095
4830, 5746,5747,5754,5753,6089,6090,6097,6096
4831, 5748,5749,5756,5755,6091,6092,6099,6098
4832, 5749,5750,5757,5756,6092,6093,6100,6099
4833, 5750,5751,5758,5757,6093,6094,6101,6100
4834, 5751,5752,5759,5758,6094,6095,6102,6101
4835, 5752,5753,5760,5759,6095,6096,6103,6102
4836, 5753,5754,5761,5760,6096,6097,6104,6103
4837, 5755,5756,5763,5762,6098,6099,6106,6105
4838, 5756,5757,5764,5763,6099,6100,6107,6106
4839, 5757,5758,5765,5764,6100,6101,6108,6107
4840, 5758,5759,5766,5765,6101,6102,6109,6108
4841, 5759,5760,5767,5766,6102,6103,6110,6109
4842, 5760,5761,5768,5767,6103,6104,6111,6110
4843, 5762,5763,5770,5769,6105,6106,6113,6112
4844, 5763,5764,5771,5770,6106,6107,6114,6113
4845, 5764,5765,5772,5771,6107,6108,6115,6114
4846, 5765,5766,5773,5772,6108,6109,6116,6115
4847, 5766,5767,5774,5773,6109,6110,6117,6116
4848, 5767,5768,5775,5774,6110,6111,6118,6117
4849, 5769,5770,5777,5776,6112,6113,6120,6119
4850, 5770,5771,5778,5777,6113,6114,6121,6120
4851, 5771,5772,5779,5778,6114,6115,6122,6121
4852, 5772,5773,5780,5779,6115,6116,6123,6122
4853, 5773,5774,5781,5780,6116,6117,6124,6123
4854, 5774,5775,5782,5781,6117,6118,6125,6124
4855, 5776,5777,5784,5783,6119,6120,6127,6126
4856, 5777,5778,5785,5784,6120,6121,6128,6127
4857, 5778,5779,5786,5785,6121,6122,6129,6128
4858, 5779,5780,5787,5786,6122,6123,6130,6129
4859, 5780,5781,5788,5787,6123,6124,6131,6130
4860, 5781,5782,5789,5788,6124,6125,6132,6131
4861, 5783,5784,5791,5790,6126,6127,6134,6133
4862, 5784,5785,5792,5791,6127,6128,6135,6134
4863, 5785,5786,5793,5792,6128,6129,6136,6135
4864, 5786,5787,5794,5793,6129,6130,6137,6136
4865, 5787,5788,5795,5794,6130,6131,6138,6137
4866, 5788,5789,5796,5795,6131,6132,6139,6138
4867, 5790,5791,5798,5797,6133,6134,6141,6140
4868, 5791,5792,5799,5798,6134,6135,6142,6141
4869, 5792,5793,5800,5799,6135,6136,6143,6142
4870, 5793,5794,5801,5800,6136,6137,6144,6143
4871, 5794,5795,5802,5801,6137,6138,6145,6144
4872, 5795,5796,5803,5802,6138,6139,6146,6145
4873, 5797,5798,5805,5804,6140,6141,6148,6147
4874, 5798,5799,5806,5805,6141,6142,6149,6148
4875, 5799,5800,5807,5806,6142,6143,6150,6149
4876, 5800,5801,5808,5807,6143,6144,6151,6150
4877, 5801,5802,5809,5808,6144,6145,6152,6151
4878, 5802,5803,5810,5809,6145,6146,6153,6152
4879, 5804,5805,5812,5811,6147,6148,6155,6154
4880, 5805,5806,5813,5812,6148,6149,6156,6155
4881, 5806,5807,5814,5813,6149,6150,6157,6156
4882, 5807,5808,5815,5814,6150,6151,6158,6157
4883, 5808,5809,5816,5815,6151,6152,6159,6158
4884, 5809,5810,5817,5816,6152,6153,6160,6159
4885, 5811,5812,5819,5818,6154,6155,6162,6161
4886, 5812,5813,5820,5819,6155,6156,6163,6162
4887, 5813,5814,5821,5820,6156,6157,6164,6163
4888, 5814,5815,5822,5821,6157,6158,6165,6164
4889, 5815,5816,5823,5822,6158,6159,6166,6165
4890, 5816,5817,5824,5823,6159,6160,6167,6166
4891, 5818,5819,5826,5825,6161,6162,6169,6168
4892, 5819,5820,5827,5826,6162,6163,6170,6169
4893, 5820,5821,5828,5827,6163,6164,6171,6170
4894, 5821,5822,5829,5828,6164,6165,6172,6171
4895, 5822,5823,5830,5829,6165,6166,6173,6172
4896, 5823,5824,5831,5830,6166,6167,6174,6173
4897, 5832,5833,5840,5839,6175,6176,6183,6182
4898, 5833,5834,5841,5840,6176,6177,6184,6183
4899, 5834,5835,5842,5841,6177,6178,6185,6184
4900, 5835,5836,5843,5842,6178,6179,6186,6185
4901, 5836,5837,5844,5843,6179,6180,6187,6186
4902, 5837,5838,5845,5844,6180,6181,6188,6187
4903, 5839,5840,5847,5846,6182,6183,6190,6189
4904, 5840,5841,5848,5847,6183,6184,6191,6190
4905, 5841,5842,5849,5848,6184,6185,6192,6191
4906, 5842,5843,5850,5849,6185,6186,6193,6192
4907, 5843,5844,5851,5850,6186,6187,6194,6193
4908, 5844,5845,5852,5851,6187,6188,6195,6194
4909, 5846,5847,5854,5853,6189,6190,6197,6196
4910, 5847,5848,5855,5854,6190,6191,6198,6197
4911, 5848,5849,5856,5855,6191,6192,6199,6198
4912, 5849,5850,5857,5856,6192,6193,6200,6199
4913, 5850,5851,5858,5857,6193,6194,6201,6200
4914, 5851,5852,5859,5858,6194,6195,6202,6201
4915, 5853,5854,5861,5860,6196,6197,6204,6203
4916, 5854,5855,5862,5861,6197,6198,6205,6204
4917, 5855,5856,5863,5862,6198,6199,6206,6205
4918, 5856,5857,5864,5863,6199,6200,6207,6206
4919, 5857,5858,5865,5864,6200,6201,6208,6207
4920, 5858,5859,5866,5865,6201,6202,6209,6208
4921, 5860,5861,5868,5867,6203,6204,6211,6210
4922, 5861,5862,5869,5868,6204,6205,6212,6211
4923, 5862,5863,5870,5869,6205,6206,6213,6212
4924, 5863,5864,5871,5870,6206,6207,6214,6213
4925, 5864,5865,5872,5871,6207,6208,6215,6214
4926, 5865,5866,5873,5872,6208,6209,6216,6215
4927, 5867,5868,5875,5874,6210,6211,6218,6217
4928, 5868,5869,5876,5875,6211,6212,6219,6218
4929, 5869,5870,5877,5876,6212,6213,6220,6219
4930, 5870,5871,5878,5877,6213,6214,6221,6220
4931, 5871,5872,5879,5878,6214,6215,6222,6221
4932, 5872,5873,5880,5879,6215,6216,6223,6222
4933, 5874,5875,5882,5881,6217,6218,6225,6224
4934, 5875,5876,5883,5882,6218,6219,6226,6225
4935, 5876,5877,5884,5883,6219,6220,6227,6226
4936, 5877,5878,5885,5884,6220,6221,6228,6227
4937, 5878,5879,5886,5885,6221,6222,6229,6228
4938, 5879,5880,5887,5886,6222,6223,6230,6229
4939, 5881,5882,5889,5888,6224,6225,6232,6231
4940, 5882,5883,5890,5889,6225,6226,6233,6232
4941, 5883,5884,5891,5890,6226,6227,6234,6233
4942, 5884,5885,5892,5891,6227,6228,6235,6234
4943, 5885,5886,5893,5892,6228,6229,6236,6235
4944, 5886,5887,5894,5893,6229,6230,6237,6236
4945, 5888,5889,5896,5895,6231,6232,6239,6238
4946, 5889,5890,5897,5896,6232,6233,6240,6239
4947, 5890,5891,5898,5897,6233,6234,6241,6240
4948, 5891,5892,5899,5898,6234,6235,6242,6241
4949, 5892,5893,5900,5899,6235,6236,6243,6242
4950, 5893,5894,5901,5900,6236,6237,6244,6243
4951, 5895,5896,5903,5902,6238,6239,6246,6245
4952, 5896,5897,5904,5903,6239,6240,6247,6246
4953, 5897,5898,5905,5904,6240,6241,6248,6247
4954, 5898,5899,5906,5905,6241,6242,6249,6248
4955, 5899,5900,5907,5906,6242,6243,6250,6249
4956, 5900,5901,5908,5907,6243,6244,6251,6250
4957, 5902,5903,5910,5909,6245,6246,6253,6252
4958, 5903,5904,5911,5910,6246,6247,6254,6253
4959, 5904,5905,5912,5911,6247,6248,6255,6254
4960, 5905,5906,5913,5912,6248,6249,6256,6255
4961, 5906,5907,5914,5913,6249,6250,6257,6256
4962, 5907,5908,5915,5914,6250,6251,6258,6257
4963, 5909,5910,5917,5916,6252,6253,6260,6259
4964, 5910,5911,5918,5917,6253,6254,6261,6260
4965, 5911,5912,5919,5918,6254,6255,6262,6261
4966, 5912,5913,5920,5919,6255,6256,6263,6262
4967, 5913,5914,5921,5920,6256,6257,6264,6263
4968, 5914,5915,5922,5921,6257,6258,6265,6264
4969, 5916,5917,5924,5923,6259,6260,6267,6266
4970, 5917,5918,5925,5924,6260,6261,6268,6267
4971, 5918,5919,5926,5925,6261,6262,6269,6268
4972, 5919,5920,5927,5926,6262,6263,6270,6269
4973, 5920,5921,5928,5927,6263,6264,6271,6270
4974, 5921,5922,5929,5928,6264,6265,6272,6271
4975, 5923,5924,5931,5930,6266,6267,6274,6273
4976, 5924,5925,5932,5931,6267,6268,6275,6274
4977, 5925,5926,5933,5932,6268,6269,6276,6275
4978, 5926,5927,5934,5933,6269,6270,6277,6276
4979, 5927,5928,5935,5934,6270,6271,6278,6277
4980, 5928,5929,5936,5935,6271,6272,6279,6278
4981, 5930,5931,5938,5937,6273,6274,6281,6280
4982, 5931,5932,5939,5938,6274,6275,6282,6281
4983, 5932,5933,5940,5939,6275,6276,6283,6282
4984, 5933,5934,5941,5940,6276,6277,6284,6283
4985, 5934,5935,5942,5941,6277,6278,6285,6284
4986, 5935,5936,5943,5942,6278,6279,6286,6285
4987, 5937,5938,5945,5944,6280,6281,6288,6287
4988, 5938,5939,5946,5945,6281,6282,6289,6288
4989, 5939,5940,5947,5946,6282,6283,6290,6289
4990, 5940,5941,5948,5947,6283,6284,6291,6290
4991, 5941,5942,5949,5948,6284,6285,6292,6291
4992, 5942,5943,5950,5949,6285,6286,6293,6292
4993, 5944,5945,5952,5951,6287,6288,6295,6294
4994, 5945,5946,5953,5952,6288,6289,6296,6295
4995, 5946,5947,5954,5953,6289,6290,6297,6296
4996, 5947,5948,5955,5954,6290,6291,6298,6297
4997, 5948,5949,5956,5955,6291,6292,6299,6298
4998, 5949,5950,5957,5956,6292,6293,6300,6299
4999, 5951,5952,5959,5958,6294,6295,6302,6301
5000, 5952,5953,5960,5959,6295,6296,6303,6302
5001, 5953,5954,5961,5960,6296,6297,6304,6303
5002, 5954,5955,5962,5961,6297,6298,6305,6304
5003, 5955,5956,5963,5962,6298,6299,6306,6305
5004, 5956,5957,5964,5963,6299,6300,6307,6306
5005, 5958,5959,5966,5965,6301,6302,6309,6308
5006, 5959,5960,5967,5966,6302,6303,6310,6309
5007, 5960,5961,5968,5967,6303,6304,6311,6310
5008, 5961,5962,5969,5968,6304,6305,6312,6311
5009, 5962,5963,5970,5969,6305,6306,6313,6312
5010, 5963,5964,5971,5970,6306,6307,6314,6313
5011, 5965,5966,5973,5972,6308,6309,6316,6315
5012, 5966,5967,5974,5973,6309,6310,6317,6316
5013, 5967,5968,5975,5974,6310,6311,6318,6317
5014, 5968,5969,5976,5975,6311,6312,6319,6318
5015, 5969,5970,5977,5976,6312,6313,6320,6319
5016, 5970,5971,5978,5977,6313,6314,6321,6320
5017, 5972,5973,5980,5979,6315,6316,6323,6322
5018, 5973,5974,5981,5980,6316,6317,6324,6323
5019, 5974,5975,5982,5981,6317,6318,6325,6324
5020, 5975,5976,5983,5982,6318,6319,6326,6325
5021, 5976,5977,5984,5983,6319,6320,6327,6326
5022, 5977,5978,5985,5984,6320,6321,6328,6327
5023, 5979,5980,5987,5986,6322,6323,6330,6329
5024, 5980,5981,5988,5987,6323,6324,6331,6330
5025, 5981,5982,5989,5988,6324,6325,6332,6331
5026, 5982,5983,5990,5989,6325,6326,6333,6332
5027, 5983,5984,5991,5990,6326,6327,6334,6333
5028, 5984,5985,5992,5991,6327,6328,6335,6334
5029, 5986,5987,5994,5993,6329,6330,6337,6336
5030, 5987,5988,5995,5994,6330,6331,6338,6337
5031, 5988,5989,5996,5995,6331,6332,6339,6338
5032, 5989,5990,5997,5996,6332,6333,6340,6339
5033, 5990,5991,5998,5997,6333,6334,6341,6340
5034, 5991,5992,5999,5998,6334,6335,6342,6341
5035, 5993,5994,6001,6000,6336,6337,6344,6343
5036, 5994,5995,6002,6001,6337,6338,6345,6344
5037, 5995,5996,6003,6002,6338,6339,6346,6345
5038, 5996,5997,6004,6003,6339,6340,6347,6346
5039, 5997,5998,6005,6004,6340,6341,6348,6347
5040, 5998,5999,6006,6005,6341,6342,6349,6348
5041, 6000,6001,6008,6007,6343,6344,6351,6350
5042, 6001,6002,6009,6008,6344,6345,6352,6351
5043, 6002,6003,6010,6009,6345,6346,6353,6352
5044, 6003,6004,6011,6010,6346,6347,6354,6353
5045, 6004,6005,6012,6011,6347,6348,6355,6354
5046, 6005,6006,6013,6012,6348,6349,6356,6355
5047, 6007,6008,6015,6014,6350,6351,6358,6357
5048, 6008,6009,6016,6015,6351,6352,6359,6358
5049, 6009,6010,6017,6016,6352,6353,6360,6359
5050, 6010,6011,6018,6017,6353,6354,6361,6360
5051, 6011,6012,6019,6018,6354,6355,6362,6361
5052, 6012,6013,6020,6019,6355,6356,6363,6362
5053, 6014,6015,6022,6021,6357,6358,6365,6364
5054, 6015,6016,6023,6022,6358,6359,6366,6365
5055, 6016,6017,6024,6023,6359,6360,6367,6366
5056, 6017,6018,6025,6024,6360,6361,6368,6367
5057, 6018,6019,6026,6025,6361,6362,6369,6368
5058, 6019,6020,6027,6026,6362,6363,6370,6369
5059, 6021,6022,6029,6028,6364,6365,6372,6371
5060, 6022,6023,6030,6029,6365,6366,6373,6372
5061, 6023,6024,6031,6030,6366,6367,6374,6373
5062, 6024,6025,6032,6031,6367,6368,6375,6374
5063, 6025,6026,6033,6032,6368,6369,6376,6375
5064, 6026,6027,6034,6033,6369,6370,6377,6376
5065, 6028,6029,6036,6035,6371,6372,6379,6378
5066, 6029,6030,6037,6036,6372,6373,6380,6379
5067, 6030,6031,6038,6037,6373,6374,6381,6380
5068, 6031,6032,6039,6038,6374,6375,6382,6381
5069, 6032,6033,6040,6039,6375,6376,6383,6382
5070, 6033,6034,6041,6040,6376,6377,6384,6383
5071, 6035,6036,6043,6042,6378,6379,6386,6385
5072, 6036,6037,6044,6043,6379,6380,6387,6386
5073, 6037,6038,6045,6044,6380,6381,6388,6387
5074, 6038,6039,6046,6045,6381,6382,6389,6388
5075, 6039,6040,6047,6046,6382,6383,6390,6389
5076, 6040,6041,6048,6047,6383,6384,6391,6390
5077, 6042,6043,6050,6049,6385,6386,6393,6392
5078, 6043,6044,6051,6050,6386,6387,6394,6393
5079, 6044,6045,6052,6051,6387,6388,6395,6394
5080, 6045,6046,6053,6052,6388,6389,6396,6395
5081, 6046,6047,6054,6053,6389,6390,6397,6396
5082, 6047,6048,6055,6054,6390,6391,6398,6397
5083, 6049,6050,6057,6056,6392,6393,6400,6399
5084, 6050,6051,6058,6057,6393,6394,6401,6400
5085, 6051,6052,6059,6058,6394,6395,6402,6401
5086, 6052,6053,6060,6059,6395,6396,6403,6402
5087, 6053,6054,6061,6060,6396,6397,6404,6403
5088, 6054,6055,6062,6061,6397,6398,6405,6404
5089, 6056,6057,6064,6063,6399,6400,6407,6406
5090, 6057,6058,6065,6064,6400,6401,6408,6407
5091, 6058,6059,6066,6065,6401,6402,6409,6408
5092, 6059,6060,6067,6066,6402,6403,6410,6409
5093, 6060,6061,6068,6067,6403,6404,6411,6410
5094, 6061,6062,6069,6068,6404,6405,6412,6411
5095, 6063,6064,6071,6070,6406,6407,6414,6413
5096, 6064,6065,6072,6071,6407,6408,6415,6414
5097, 6065,6066,6073,6072,6408,6409,6416,6415
5098, 6066,6067,6074,6073,6409,6410,6417,6416
5099, 6067,6068,6075,6074,6410,6411,6418,6417
5100, 6068,6069,6076,6075,6411,6412,6419,6418
5101, 6070,6071,6078,6077,6413,6414,6421,6420
5102, 6071,6072,6079,6078,6414,6415,6422,6421
5103, 6072,6073,6080,6079,6415,6416,6423,6422
5104, 6073,6074,6081,6080,6416,6417,6424,6423
5105, 6074,6075,6082,6081,6417,6418,6425,6424
5106, 6075,6076,6083,6082,6418,6419,6426,6425
5107, 6077,6078,6085,6084,6420,6421,6428,6427
5108, 6078,6079,6086,6085,6421,6422,6429,6428
5109, 6079,6080,6087,6086,6422,6423,6430,6429
5110, 6080,6081,6088,6087,6423,6424,6431,6430
5111, 6081,6082,6089,6088,6424,6425,6432,6431
5112, 6082,6083,6090,6089,6425,6426,6433,6432
5113, 6084,6085,6092,6091,6427,6428,6435,6434
5114, 6085,6086,6093,6092,6428,6429,6436,6435
5115, 6086,6087,6094,6093,6429,6430,6437,6436
5116, 6087,6088,6095,6094,6430,6431,6438,6437
5117, 6088,6089,6096,6095,6431,6432,6439,6438
5118, 6089,6090,6097,6096,6432,6433,6440,6439
5119, 6091,6092,6099,6098,6434,6435,6442,6441
5120, 6092,6093,6100,6099,6435,6436,6443,6442
5121, 6093,6094,6101,6100,6436,6437,6444,6443
5122, 6094,6095,6102,6101,6437,6438,6445,6444
5123, 6095,6096,6103,6102,6438,6439,6446,6445
5124, 6096,6097,6104,6103,6439,6440,6447,6446
5125, 6098,6099,6106,6105,6441,6442,6449,6448
5126, 6099,6100,6107,6106,6442,6443,6450,6449
5127, 6100,6101,6108,6107,6443,6444,6451,6450
5128, 6101,6102,6109,6108,6444,6445,6452,6451
5129, 6102,6103,6110,6109,6445,6446,6453,6452
5130, 6103,6104,6111,6110,6446,6447,6454,6453
5131, 6105,6106,6113,6112,6448,6449,6456,6455
5132, 6106,6107,6114,6113,6449,6450,6457,6456
5133, 6107,6108,6115,6114,6450,6451,6458,6457
5134, 6108,6109,6116,6115,6451,6452,6459,6458
5135, 6109,6110,6117,6116,6452,6453,6460,6459
5136, 6110,6111,6118,6117,6453,6454,6461,6460
5137, 6112,6113,6120,6119,6455,6456,6463,6462
5138, 6113,6114,6121,6120,6456,6457,6464,6463
5139, 6114,6115,6122,6121,6457,6458,6465,6464
5140, 6115,6116,6123,6122,6458,6459,6466,6465
5141, 6116,6117,6124,6123,6459,6460,6467,6466
5142, 6117,6118,6125,6124,6460,6461,6468,6467
5143, 6119,6120,6127,6126,6462,6463,6470,6469
5144, 6120,6121,6128,6127,6463,6464,6471,6470
5145, 6121,6122,6129,6128,6464,6465,6472,6471
5146, 6122,6123,6130,6129,6465,6466,6473,6472
5147, 6123,6124,6131,6130,6466,6467,6474,6473
5148, 6124,6125,6132,6131,6467,6468,6475,6474
5149, 6126,6127,6134,6133,6469,6470,6477,6476
5150, 6127,6128,6135,6134,6470,6471,6478,6477
5151, 6128,6129,6136,6135,6471,6472,6479,6478
5152, 6129,6130,6137,6136,6472,6473,6480,6479
5153, 6130,6131,6138,6137,6473,6474,6481,6480
5154, 6131,6132,6139,6138,6474,6475,6482,6481
5155, 6133,6134,6141,6140,6476,6477,6484,6483
5156, 6134,6135,6142,6141,6477,6478,6485,6484
5157, 6135,6136,6143,6142,6478,6479,6486,6485
5158, 6136,6137,6144,6143,6479,6480,6487,6486
5159, 6137,6138,6145,6144,6480,6481,6488,6487
5160, 6138,6139,6146,6145,6481,6482,6489,6488
5161, 6140,6141,6148,6147,6483,6484,6491,6490
5162, 6141,6142,6149,6148,6484,6485,6492,6491
5163, 6142,6143,6150,6149,6485,6486,6493,6492
5164, 6143,6144,6151,6150,6486,6487,6494,6493
5165, 6144,6145,6152,6151,6487,6488,6495,6494
5166, 6145,6146,6153,6152,6488,6489,6496,6495
5167, 6147,6148,6155,6154,6490,6491,6498,6497
5168, 6148,6149,6156,6155,6491,6492,6499,6498
5169, 6149,6150,6157,6156,6492,6493,6500,6499
5170, 6150,6151,6158,6157,6493,6494,6501,6500
5171, 6151,6152,6159,6158,6494,6495,6502,6501
5172, 6152,6153,6160,6159,6495,6496,6503,6502
5173, 6154,6155,6162,6161,6497,6498,6505,6504
5174, 6155,6156,6163,6162,6498,6499,6506,6505
5175, 6156,6157,6164,6163,6499,6500,6507,6506
5176, 6157,6158,6165,6164,6500,6501,6508,6507
5177, 6158,6159,6166,6165,6501,6502,6509,6508
5178, 6159,6160,6167,6166,6502,6503,6510,6509
5179, 6161,6162,6169,6168,6504,6505,6512,6511
5180, 6162,6163,6170,6169,6505,6506,6513,6512
5181, 6163,6164,6171,6170,6506,6507,6514,6513
5182, 6164,6165,6172,6171,6507,6508,6515,6514
5183, 6165,6166,6173,6172,6508,6509,6516,6515
5184, 6166,6167,6174,6173,6509,6510,6517,6516
5185, 6175,6176,6183,6182,6518,6519,6526,6525
5186, 6176,6177,6184,6183,6519,6520,6527,6526
5187, 6177,6178,6185,6184,6520,6521,6528,6527
5188, 6178,6179,6186,6185,6521,6522,6529,6528
5189, 6179,6180,6187,6186,6522,6523,6530,6529
5190, 6180,6181,6188,6187,6523,6524,6531,6530
5191, 6182,6183,6190,6189,6525,6526,6533,6532
5192, 6183,6184,6191,6190,6526,6527,6534,6533
5193, 6184,6185,6192,6191,6527,6528,6535,6534
5194, 6185,6186,6193,6192,6528,6529,6536,6535
5195, 6186,6187,6194,6193,6529,6530,6537,6536
5196, 6187,6188,6195,6194,6530,6531,6538,6537
5197, 6189,6190,6197,6196,6532,6533,6540,6539
5198, 6190,6191,6198,6197,6533,6534,6541,6540
5199, 6191,6192,6199,6198,6534,6535,6542,6541
5200, 6192,6193,6200,6199,6535,6536,6543,6542
5201, 6193,6194,6201,6200,6536,6537,6544,6543
5202, 6194,6195,6202,6201,6537,6538,6545,6544
5203, 6196,6197,6204,6203,6539,6540,6547,6546
5204, 6197,6198,6205,6204,6540,6541,6548,6547
5205, 6198,6199,6206,6205,6541,6542,6549,6548
5206, 6199,6200,6207,6206,6542,6543,6550,6549
5207, 6200,6201,6208,6207,6543,6544,6551,6550
5208, 6201,6202,6209,6208,6544,6545,6552,6551
5209, 6203,6204,6211,6210,6546,6547,6554,6553
5210, 6204,6205,6212,6211,6547,6548,6555,6554
5211, 6205,6206,6213,6212,6548,6549,6556,6555
5212, 6206,6207,6214,6213,6549,6550,6557,6556
5213, 6207,6208,6215,6214,6550,6551,6558,6557
5214, 6208,6209,6216,6215,6551,6552,6559,6558
5215, 6210,6211,6218,6217,6553,6554,6561,6560
5216, 6211,6212,6219,6218,6554,6555,6562,6561
5217, 6212,6213,6220,6219,6555,6556,6563,6562
5218, 6213,6214,6221,6220,6556,6557,6564,6563
5219, 6214,6215,6222,6221,6557,6558,6565,6564
5220, 6215,6216,6223,6222,6558,6559,6566,6565
5221, 6217,6218,6225,6224,6560,6561,6568,6567
5222, 6218,6219,6226,6225,6561,6562,6569,6568
5223, 6219,6220,6227,6226,6562,6563,6570,6569
5224, 6220,6221,6228,6227,6563,6564,6571,6570
5225, 6221,6222,6229,6228,6564,6565,6572,6571
5226, 6222,6223,6230,6229,6565,6566,6573,6572
5227, 6224,6225,6232,6231,6567,6568,6575,6574
5228, 6225,6226,6233,6232,6568,6569,6576,6575
5229, 6226,6227,6234,6233,6569,6570,6577,6576
5230, 6227,6228,6235,6234,6570,6571,6578,6577
5231, 6228,6229,6236,6235,6571,6572,6579,6578
5232, 6229,6230,6237,6236,6572,6573,6580,6579
5233, 6231,6232,6239,6238,6574,6575,6582,6581
5234, 6232,6233,6240,6239,6575,6576,6583,6582
5235, 6233,6234,6241,6240,6576,6577,6584,6583
5236, 6234,6235,6242,6241,6577,6578,6585,6584
5237, 6235,6236,6243,6242,6578,6579,6586,6585
5238, 6236,6237,6244,6243,6579,6580,6587,6586
5239, 6238,6239,6246,6245,6581,6582,6589,6588
5240, 6239,6240,6247,6246,6582,6583,6590,6589
5241, 6240,6241,6248,6247,6583,6584,6591,6590
5242, 6241,6242,6249,6248,6584,6585,6592,6591
5243, 6242,6243,6250,6249,6585,6586,6593,6592
5244, 6243,6244,6251,6250,6586,6587,6594,6593
5245, 6245,6246,6253,6252,6588,6589,6596,6595
5246, 6246,6247,6254,6253,6589,6590,6597,6596
5247, 6247,6248,6255,6254,6590,6591,6598,6597
5248, 6248,6249,6256,6255,6591,6592,6599,6598
5249, 6249,6250,6257,6256,6592,6593,6600,6599
5250, 6250,6251,6258,6257,6593,6594,6601,6600
5251, 6252,6253,6260,6259,6595,6596,6603,6602
5252, 6253,6254,6261,6260,6596,6597,6604,6603
5253, 6254,6255,6262,6261,6597,6598,6605,6604
5254, 6255,6256,6263,6262,6598,6599,6606,6605
5255, 6256,6257,6264,6263,6599,6600,6607,6606
5256, 6257,6258,6265,6264,6600,6601,6608,6607
5257, 6259,6260,6267,6266,6602,6603,6610,6609
5258, 6260,6261,6268,6267,6603,6604,6611,6610
5259, 6261,6262,6269,6268,6604,6605,6612,6611
5260, 6262,6263,6270,6269,6605,6606,6613,6612
5261, 6263,6264,6271,6270,6606,6607,6614,6613
5262, 6264,6265,6272,6271,6607,6608,6615,6614
5263, 6266,6267,6274,6273,6609,6610,6617,6616
5264, 6267,6268,6275,6274,6610,6611,6618,6617
5265, 6268,6269,6276,6275,6611,6612,6619,6618
5266, 6269,6270,6277,6276,6612,6613,6620,6619
5267, 6270,6271,6278,6277,6613,6614,6621,6620
5268, 6271,6272,6279,6278,6614,6615,6622,6621
5269, 6273,6274,6281,6280,6616,6617,6624,6623
5270, 6274,6275,6282,6281,6617,6618,6625,6624
5271, 6275,6276,6283,6282,6618,6619,6626,6625
5272, 6276,6277,6284,6283,6619,6620,6627,6626
5273, 6277,6278,6285,6284,6620,6621,6628,6627
5274, 6278,6279,6286,6285,6621,6622,6629,6628
5275, 6280,6281,6288,6287,6623,6624,6631,6630
5276, 6281,6282,6289,6288,6624,6625,6632,6631
5277, 6282,6283,6290,6289,6625,6626,6633,6632
5278, 6283,6284,6291,6290,6626,6627,6634,6633
5279, 6284,6285,6292,6291,6627,6628,6635,6634
5280, 6285,6286,6293,6292,6628,6629,6636,6635
5281, 6287,6288,6295,6294,6630,6631,6638,6637
5282, 6288,6289,6296,6295,6631,6632,6639,6638
5283, 6289,6290,6297,6296,6632,6633,6640,6639
5284, 6290,6291,6298,6297,6633,6634,6641,6640
5285, 6291,6292,6299,6298,6634,6635,6642,6641
5286, 6292,6293,6300,6299,6635,6636,6643,6642
5287, 6294,6295,6302,6301,6637,6638,6645,6644
5288, 6295,6296,6303,6302,6638,6639,6646,6645
5289, 6296,6297,6304,6303,6639,6640,6647,6646
5290, 6297,6298,6305,6304,6640,6641,6648,6647
5291, 6298,6299,6306,6305,6641,6642,6649,6648
5292, 6299,6300,6307,6306,6642,6643,6650,6649
5293, 6301,6302,6309,6308,6644,6645,6652,6651
5294, 6302,6303,6310,6309,6645,6646,6653,6652
5295, 6303,6304,6311,6310,6646,6647,6654,6653
5296, 6304,6305,6312,6311,6647,6648,6655,6654
5297, 6305,6306,6313,6312,6648,6649,6656,6655
5298, 6306,6307,6314,6313,6649,6650,6657,6656
5299, 6308,6309,6316,6315,6651,6652,6659,6658
5300, 6309,6310,6317,6316,6652,6653,6660,6659
5301, 6310,6311,6318,6317,6653,6654,6661,6660
5302, 6311,6312,6319,6318,6654,6655,6662,6661
5303, 6312,6313,6320,6319,6655,6656,6663,6662
5304, 6313,6314,6321,6320,6656,6657,6664,6663
5305, 6315,6316,6323,6322,6658,6659,6666,6665
5306, 6316,6317,6324,6323,6659,6660,6667,6666
5307, 6317,6318,6325,6324,6660,6661,6668,6667
5308, 6318,6319,6326,6325,6661,6662,6669,6668
5309, 6319,6320,6327,6326,6662,6663,6670,6669
5310, 6320,6321,6328,6327,6663,6664,6671,6670
5311, 6322,6323,6330,6329,6665,6666,6673,6672
5312, 6323,6324,6331,6330,6666,6667,6674,6673
5313, 6324,6325,6332,6331,6667,6668,6675,6674
5314, 6325,6326,6333,6332,6668,6669,6676,6675
5315, 6326,6327,6334,6333,6669,6670,6677,6676
5316, 6327,6328,6335,6334,6670,6671,6678,6677
5317, 6329,6330,6337,6336,6672,6673,6680,6679
5318, 6330,6331,6338,6337,6673,6674,6681,6680
5319, 6331,6332,6339,6338,6674,6675,6682,6681
5320, 6332,6333,6340,6339,6675,6676,6683,6682
5321, 6333,6334,6341,6340,6676,6677,6684,6683
5322, 6334,6335,6342,6341,6677,6678,6685,6684
5323, 6336,6337,6344,6343,6679,6680,6687,6686
5324, 6337,6338,6345,6344,6680,6681,6688,6687
5325, 6338,6339,6346,6345,6681,6682,6689,6688
5326, 6339,6340,6347,6346,6682,6683,6690,6689
5327, 6340,6341,6348,6347,6683,6684,6691,6690
5328, 6341,6342,6349,6348,6684,6685,6692,6691
5329, 6343,6344,6351,6350,6686,6687,6694,6693
5330, 6344,6345,6352,6351,6687,6688,6695,6694
5331, 6345,6346,6353,6352,6688,6689,6696,6695
5332, 6346,6347,6354,6353,6689,6690,6697,6696
5333, 6347,6348,6355,6354,6690,6691,6698,6697
5334, 6348,6349,6356,6355,6691,6692,6699,6698
5335, 6350,6351,6358,6357,6693,6694,6701,6700
5336, 6351,6352,6359,6358,6694,6695,6702,6701
5337, 6352,6353,6360,6359,6695,6696,6703,6702
5338, 6353,6354,6361,6360,6696,6697,6704,6703
5339, 6354,6355,6362,6361,6697,6698,6705,6704
5340, 6355,6356,6363,6362,6698,6699,6706,6705
5341, 6357,6358,6365,6364,6700,6701,6708,6707
5342, 6358,6359,6366,6365,6701,6702,6709,6708
5343, 6359,6360,6367,6366,6702,6703,6710,6709
5344, 6360,6361,6368,6367,6703,6704,6711,6710
5345, 6361,6362,6369,6368,6704,6705,6712,6711
5346, 6362,6363,6370,6369,6705,6706,6713,6712
5347, 6364,6365,6372,6371,6707,6708,6715,6714
5348, 6365,6366,6373,6372,6708,6709,6716,6715
5349, 6366,6367,6374,6373,6709,6710,6717,6716
5350, 6367,6368,6375,6374,6710,6711,6718,6717
5351, 6368,6369,6376,6375,6711,6712,6719,6718
5352, 6369,6370,6377,6376,6712,6713,6720,6719
5353, 6371,6372,6379,6378,6714,6715,6722,6721
5354, 6372,6373,6380,6379,6715,6716,6723,6722
5355, 6373,6374,6381,6380,6716,6717,6724,6723
5356, 6374,6375,6382,6381,6717,6718,6725,6724
5357, 6375,6376,6383,6382,6718,6719,6726,6725
5358, 6376,6377,6384,6383,6719,6720,6727,6726
5359, 6378,6379,6386,6385,6721,6722,6729,6728
5360, 6379,6380,6387,6386,6722,6723,6730,6729
5361, 6380,6381,6388,6387,6723,6724,6731,6730
5362, 6381,6382,6389,6388,6724,6725,6732,6731
5363, 6382,6383,6390,6389,6725,6726,6733,6732
5364, 6383,6384,6391,6390,6726,6727,6734,6733
5365, 6385,6386,6393,6392,6728,6729,6736,6735
5366, 6386,6387,6394,6393,6729,6730,6737,6736
5367, 6387,6388,6395,6394,6730,6731,6738,6737
5368, 6388,6389,6396,6395,6731,6732,6739,6738
5369, 6389,6390,6397,6396,6732,6733,6740,6739
5370, 6390,6391,6398,6397,6733,6734,6741,6740
5371, 6392,6393,6400,6399,6735,6736,6743,6742
5372, 6393,6394,6401,6400,6736,6737,6744,6743
5373, 6394,6395,6402,6401,6737,6738,6745,6744
5374, 6395,6396,6403,6402,6738,6739,6746,6745
5375, 6396,6397,6404,6403,6739,6740,6747,6746
5376, 6397,6398,6405,6404,6740,6741,6748,6747
5377, 6399,6400,6407,6406,6742,6743,6750,6749
5378, 6400,6401,6408,6407,6743,6744,6751,6750
5379, 6401,6402,6409,6408,6744,6745,6752,6751
5380, 6402,6403,6410,6409,6745,6746,6753,6752
5381, 6403,6404,6411,6410,6746,6747,6754,6753
5382, 6404,6405,6412,6411,6747,6748,6755,6754
5383, 6406,6407,6414,6413,6749,6750,6757,6756
5384, 6407,6408,6415,6414,6750,6751,6758,6757
5385, 6408,6409,6416,6415,6751,6752,6759,6758
5386, 6409,6410,6417,6416,6752,6753,6760,6759
5387, 6410,6411,6418,6417,6753,6754,6761,6760
5388, 6411,6412,6419,6418,6754,6755,6762,6761
5389, 6413,6414,6421,6420,6756,6757,6764,6763
5390, 6414,6415,6422,6421,6757,6758,6765,6764
5391, 6415,6416,6423,6422,6758,6759,6766,6765
5392, 6416,6417,6424,6423,6759,6760,6767,6766
5393, 6417,6418,6425,6424,6760,6761,6768,6767
5394, 6418,6419,6426,6425,6761,6762,6769,6768
5395, 6420,6421,6428,6427,6763,6764,6771,6770
5396, 6421,6422,6429,6428,6764,6765,6772,6771
5397, 6422,6423,6430,6429,6765,6766,6773,6772
5398, 6423,6424,6431,6430,6766,6767,6774,6773
5399, 6424,6425,6432,6431,6767,6768,6775,6774
5400, 6425,6426,6433,6432,6768,6769,6776,6775
5401, 6427,6428,6435,6434,6770,6771,6778,6777
5402, 6428,6429,6436,6435,6771,6772,6779,6778
5403, 6429,6430,6437,6436,6772,6773,6780,6779
5404, 6430,6431,6438,6437,6773,6774,6781,6780
5405, 6431,6432,6439,6438,6774,6775,6782,6781
5406, 6432,6433,6440,6439,6775,6776,6783,6782
5407, 6434,6435,6442,6441,6777,6778,6785,6784
5408, 6435,6436,6443,6442,6778,6779,6786,6785
5409, 6436,6437,6444,6443,6779,6780,6787,6786
5410, 6437,6438,6445,6444,6780,6781,6788,6787
5411, 6438,6439,6446,6445,6781,6782,6789,6788
5412, 6439,6440,6447,6446,6782,6783,6790,6789
5413, 6441,6442,6449,6448,6784,6785,6792,6791
5414, 6442,6443,6450,6449,6785,6786,6793,6792
5415, 6443,6444,6451,6450,6786,6787,6794,6793
5416, 6444,6445,6452,6451,6787,6788,6795,6794
5417, 6445,6446,6453,6452,6788,6789,6796,6795
5418, 6446,6447,6454,6453,6789,6790,6797,6796
5419, 6448,6449,6456,6455,6791,6792,6799,6798
5420, 6449,6450,6457,6456,6792,6793,6800,6799
5421, 6450,6451,6458,6457,6793,6794,6801,6800
5422, 6451,6452,6459,6458,6794,6795,6802,6801
5423, 6452,6453,6460,6459,6795,6796,6803,6802
5424, 6453,6454,6461,6460,6796,6797,6804,6803
5425, 6455,6456,6463,6462,6798,6799,6806,6805
5426, 6456,6457,6464,6463,6799,6800,6807,6806
5427, 6457,6458,6465,6464,6800,6801,6808,6807
5428, 6458,6459,6466,6465,6801,6802,6809,6808
5429, 6459,6460,6467,6466,6802,6803,6810,6809
5430, 6460,6461,6468,6467,6803,6804,6811,6810
5431, 6462,6463,6470,6469,6805,6806,6813,6812
5432, 6463,6464,6471,6470,6806,6807,6814,6813
5433, 6464,6465,6472,6471,6807,6808,6815,6814
5434, 6465,6466,6473,6472,6808,6809,6816,6815
5435, 6466,6467,6474,6473,6809,6810,6817,6816
5436, 6467,6468,6475,6474,6810,6811,6818,6817
5437, 6469,6470,6477,6476,6812,6813,6820,6819
5438, 6470,6471,6478,6477,6813,6814,6821,6820
5439, 6471,6472,6479,6478,6814,6815,6822,6821
5440, 6472,6473,6480,6479,6815,6816,6823,6822
5441, 6473,6474,6481,6480,6816,6817,6824,6823
5442, 6474,6475,6482,6481,6817,6818,6825,6824
5443, 6476,6477,6484,6483,6819,6820,6827,6826
5444, 6477,6478,6485,6484,6820,6821,6828,6827
5445, 6478,6479,6486,6485,6821,6822,6829,6828
5446, 6479,6480,6487,6486,6822,6823,6830,6829
5447, 6480,6481,6488,6487,6823,6824,6831,6830
5448, 6481,6482,6489,6488,6824,6825,6832,6831
5449, 6483,6484,6491,6490,6826,6827,6834,6833
5450, 6484,6485,6492,6491,6827,6828,6835,6834
5451, 6485,6486,6493,6492,6828,6829,6836,6835
5452, 6486,6487,6494,6493,6829,6830,6837,6836
5453, 6487,6488,6495,6494,6830,6831,6838,6837
5454, 6488,6489,6496,6495,6831,6832,6839,6838
5455, 6490,6491,6498,6497,6833,6834,6841,6840
5456, 6491,6492,6499,6498,6834,6835,6842,6841
5457, 6492,6493,6500,6499,6835,6836,6843,6842
5458, 6493,6494,6501,6500,6836,6837,6844,6843
5459, 6494,6495,6502,6501,6837,6838,6845,6844
5460, 6495,6496,6503,6502,6838,6839,6846,6845
5461, 6497,6498,6505,6504,6840,6841,6848,6847
5462, 6498,6499,6506,6505,6841,6842,6849,6848
5463, 6499,6500,6507,6506,6842,6843,6850,6849
5464, 6500,6501,6508,6507,6843,6844,6851,6850
5465, 6501,6502,6509,6508,6844,6845,6852,6851
5466, 6502,6503,6510,6509,6845,6846,6853,6852
5467, 6504,6505,6512,6511,6847,6848,6855,6854
5468, 6505,6506,6513,6512,6848,6849,6856,6855
5469, 6506,6507,6514,6513,6849,6850,6857,6856
5470, 6507,6508,6515,6514,6850,6851,6858,6857
5471, 6508,6509,6516,6515,6851,6852,6859,6858
5472, 6509,6510,6517,6516,6852,6853,6860,6859
5473, 6518,6519,6526,6525,6861,6862,6869,6868
5474, 6519,6520,6527,6526,6862,6863,6870,6869
5475, 6520,6521,6528,6527,6863,6864,6871,6870
5476, 6521,6522,6529,6528,6864,6865,6872,6871
5477, 6522,6523,6530,6529,6865,6866,6873,6872
5478, 6523,6524,6531,6530,6866,6867,6874,6873
5479, 6525,6526,6533,6532,6868,6869,6876,6875
5480, 6526,6527,6534,6533,6869,6870,6877,6876
5481, 6527,6528,6535,6534,6870,6871,6878,6877
5482, 6528,6529,6536,6535,6871,6872,6879,6878
5483, 6529,6530,6537,6536,6872,6873,6880,6879
5484, 6530,6531,6538,6537,6873,6874,6881,6880
5485, 6532,6533,6540,6539,6875,6876,6883,6882
5486, 6533,6534,6541,6540,6876,6877,6884,6883
5487, 6534,6535,6542,6541,6877,6878,6885,6884
5488, 6535,6536,6543,6542,6878,6879,6886,6885
5489, 6536,6537,6544,6543,6879,6880,6887,6886
5490, 6537,6538,6545,6544,6880,6881,6888,6887
5491, 6539,6540,6547,6546,6882,6883,6890,6889
5492, 6540,6541,6548,6547,6883,6884,6891,6890
5493, 6541,6542,6549,6548,6884,6885,6892,6891
5494, 6542,6543,6550,6549,6885,6886,6893,6892
5495, 6543,6544,6551,6550,6886,6887,6894,6893
5496, 6544,6545,6552,6551,6887,6888,6895,6894
5497, 6546,6547,6554,6553,6889,6890,6897,6896
5498, 6547,6548,6555,6554,6890,6891,6898,6897
5499, 6548,6549,6556,6555,6891,6892,6899,6898
5500, 6549,6550,6557,6556,6892,6893,6900,6899
5501, 6550,6551,6558,6557,6893,6894,6901,6900
5502, 6551,6552,6559,6558,6894,6895,6902,6901
5503, 6553,6554,6561,6560,6896,6897,6904,6903
5504, 6554,6555,6562,6561,6897,6898,6905,6904
5505, 6555,6556,6563,6562,6898,6899,6906,6905
5506, 6556,6557,6564,6563,6899,6900,6907,6906
5507, 6557,6558,6565,6564,6900,6901,6908,6907
5508, 6558,6559,6566,6565,6901,6902,6909,6908
5509, 6560,6561,6568,6567,6903,6904,6911,6910
5510, 6561,6562,6569,6568,6904,6905,6912,6911
5511, 6562,6563,6570,6569,6905,6906,6913,6912
5512, 6563,6564,6571,6570,6906,6907,6914,6913
5513, 6564,6565,6572,6571,6907,6908,6915,6914
5514, 6565,6566,6573,6572,6908,6909,6916,6915
5515, 6567,6568,6575,6574,6910,6911,6918,6917
5516, 6568,6569,6576,6575,6911,6912,6919,6918
5517, 6569,6570,6577,6576,6912,6913,6920,6919
5518, 6570,6571,6578,6577,6913,6914,6921,6920
5519, 6571,6572,6579,6578,6914,6915,6922,6921
5520, 6572,6573,6580,6579,6915,6916,6923,6922
5521, 6574,6575,6582,6581,6917,6918,6925,6924
5522, 6575,6576,6583,6582,6918,6919,6926,6925
5523, 6576,6577,6584,6583,6919,6920,6927,6926
5524, 6577,6578,6585,6584,6920,6921,6928,6927
5525, 6578,6579,6586,6585,6921,6922,6929,6928
5526, 6579,6580,6587,6586,6922,6923,6930,6929
5527, 6581,6582,6589,6588,6924,6925,6932,6931
5528, 6582,6583,6590,6589,6925,6926,6933,6932
5529, 6583,6584,6591,6590,6926,6927,6934,6933
5530, 6584,6585,6592,6591,6927,6928,6935,6934
5531, 6585,6586,6593,6592,6928,6929,6936,6935
5532, 6586,6587,6594,6593,6929,6930,6937,6936
5533, 6588,6589,6596,6595,6931,6932,6939,6938
5534, 6589,6590,6597,6596,6932,6933,6940,6939
5535, 6590,6591,6598,6597,6933,6934,6941,6940
5536, 6591,6592,6599,6598,6934,6935,6942,6941
5537, 6592,6593,6600,6599,6935,6936,6943,6942
5538, 6593,6594,6601,6600,6936,6937,6944,6943
5539, 6595,6596,6603,6602,6938,6939,6946,6945
5540, 6596,6597,6604,6603,6939,6940,6947,6946
5541, 6597,6598,6605,6604,6940,6941,6948,6947
5542, 6598,6599,6606,6605,6941,6942,6949,6948
5543, 6599,6600,6607,6606,6942,6943,6950,6949
5544, 6600,6601,6608,6607,6943,6944,6951,6950
5545, 6602,6603,6610,6609,6945,6946,6953,6952
5546, 6603,6604,6611,6610,6946,6947,6954,6953
5547, 6604,6605,6612,6611,6947,6948,6955,6954
5548, 6605,6606,6613,6612,6948,6949,6956,6955
5549, 6606,6607,6614,6613,6949,6950,6957,6956
5550, 6607,6608,6615,6614,6950,6951,6958,6957
5551, 6609,6610,6617,6616,6952,6953,6960,6959
5552, 6610,6611,6618,6617,6953,6954,6961,6960
5553, 6611,6612,6619,6618,6954,6955,6962,6961
5554, 6612,6613,6620,6619,6955,6956,6963,6962
5555, 6613,6614,6621,6620,6956,6957,6964,6963
5556, 6614,6615,6622,6621,6957,6958,6965,6964
5557, 6616,6617,6624,6623,6959,6960,6967,6966
5558, 6617,6618,6625,6624,6960,6961,6968,6967
5559, 6618,6619,6626,6625,6961,6962,6969,6968
5560, 6619,6620,6627,6626,6962,6963,6970,6969
5561, 6620,6621,6628,6627,6963,6964,6971,6970
5562, 6621,6622,6629,6628,6964,6965,6972,6971
5563, 6623,6624,6631,6630,6966,6967,6974,6973
5564, 6624,6625,6632,6631,6967,6968,6975,6974
5565, 6625,6626,6633,6632,6968,6969,6976,6975
5566, 6626,6627,6634,6633,6969,6970,6977,6976
5567, 6627,6628,6635,6634,6970,6971,6978,6977
5568, 6628,6629,6636,6635,6971,6972,6979,6978
5569, 6630,6631,6638,6637,6973,6974,6981,6980
5570, 6631,6632,6639,6638,6974,6975,6982,6981
5571, 6632,6633,6640,6639,6975,6976,6983,6982
5572, 6633,6634,6641,6640,6976,6977,6984,6983
5573, 6634,6635,6642,6641,6977,6978,6985,6984
5574, 6635,6636,6643,6642,6978,6979,6986,6985
5575, 6637,6638,6645,6644,6980,6981,6988,6987
5576, 6638,6639,6646,6645,6981,6982,6989,6988
5577, 6639,6640,6647,6646,6982,6983,6990,6989
5578, 6640,6641,6648,6647,6983,6984,6991,6990
5579, 6641,6642,6649,6648,6984,6985,6992,6991
5580, 6642,6643,6650,6649,6985,6986,6993,6992
5581, 6644,6645,6652,6651,6987,6988,6995,6994
5582, 6645,6646,6653,6652,6988,6989,6996,6995
5583, 6646,6647,6654,6653,6989,6990,6997,6996
5584, 6647,6648,6655,6654,6990,6991,6998,6997
5585, 6648,6649,6656,6655,6991,6992,6999,6998
5586, 6649,6650,6657,6656,6992,6993,7000,6999
5587, 6651,6652,6659,6658,6994,6995,7002,7001
5588, 6652,6653,6660,6659,6995,6996,7003,7002
5589, 6653,6654,6661,6660,6996,6997,7004,7003
5590, 6654,6655,6662,6661,6997,6998,7005,7004
5591, 6655,6656,6663,6662,6998,6999,7006,7005
5592, 6656,6657,6664,6663,6999,7000,7007,7006
5593, 6658,6659,6666,6665,7001,7002,7009,7008
5594, 6659,6660,6667,6666,7002,7003,7010,7009
5595, 6660,6661,6668,6667,7003,7004,7011,7010
5596, 6661,6662,6669,6668,7004,7005,7012,7011
5597, 6662,6663,6670,6669,7005,7006,7013,7012
5598, 6663,6664,6671,6670,7006,7007,7014,7013
5599, 6665,6666,6673,6672,7008,7009,7016,7015
5600, 6666,6667,6674,6673,7009,7010,7017,7016
5601, 6667,6668,6675,6674,7010,7011,7018,7017
5602, 6668,6669,6676,6675,7011,7012,7019,7018
5603, 6669,6670,6677,6676,7012,7013,7020,7019
5604, 6670,6671,6678,6677,7013,7014,7021,7020
5605, 6672,6673,6680,6679,7015,7016,7023,7022
5606, 6673,6674,6681,6680,7016,7017,7024,7023
5607, 6674,6675,6682,6681,7017,7018,7025,7024
5608, 6675,6676,6683,6682,7018,7019,7026,7025
5609, 6676,6677,6684,6683,7019,7020,7027,7026
5610, 6677,6678,6685,6684,7020,7021,7028,7027
5611, 6679,6680,6687,6686,7022,7023,7030,7029
5612, 6680,6681,6688,6687,7023,7024,7031,7030
5613, 6681,6682,6689,6688,7024,7025,7032,7031
5614, 6682,6683,6690,6689,7025,7026,7033,7032
5615, 6683,6684,6691,6690,7026,7027,7034,7033
5616, 6684,6685,6692,6691,7027,7028,7035,7034
5617, 6686,6687,6694,6693,7029,7030,7037,7036
5618, 6687,6688,6695,6694,7030,7031,7038,7037
5619, 6688,6689,6696,6695,7031,7032,7039,7038
5620, 6689,6690,6697,6696,7032,7033,7040,7039
5621, 6690,6691,6698,6697,7033,7034,7041,7040
5622, 6691,6692,6699,6698,7034,7035,7042,7041
5623, 6693,6694,6701,6700,7036,7037,7044,7043
5624, 6694,6695,6702,6701,7037,7038,7045,7044
5625, 6695,6696,6703,6702,7038,7039,7046,7045
5626, 6696,6697,6704,6703,7039,7040,7047,7046
5627, 6697,6698,6705,6704,7040,7041,7048,7047
5628, 6698,6699,6706,6705,7041,7042,7049,7048
5629, 6700,6701,6708,6707,7043,7044,7051,7050
5630, 6701,6702,6709,6708,7044,7045,7052,7051
5631, 6702,6703,6710,6709,7045,7046,7053,7052
5632, 6703,6704,6711,6710,7046,7047,7054,7053
5633, 6704,6705,6712,6711,7047,7048,7055,7054
5634, 6705,6706,6713,6712,7048,7049,7056,7055
5635, 6707,6708,6715,6714,7050,7051,7058,7057
5636, 6708,6709,6716,6715,7051,7052,7059,7058
5637, 6709,6710,6717,6716,7052,7053,7060,7059
5638, 6710,6711,6718,6717,7053,7054,7061,7060
5639, 6711,6712,6719,6718,7054,7055,7062,7061
5640, 6712,6713,6720,6719,7055,7056,7063,7062
5641, 6714,6715,6722,6721,7057,7058,7065,7064
5642, 6715,6716,6723,6722,7058,7059,7066,7065
5643, 6716,6717,6724,6723,7059,7060,7067,7066
5644, 6717,6718,6725,6724,7060,7061,7068,7067
5645, 6718,6719,6726,6725,7061,7062,7069,7068
5646, 6719,6720,6727,6726,7062,7063,7070,7069
5647, 6721,6722,6729,6728,7064,7065,7072,7071
5648, 6722,6723,6730,6729,7065,7066,7073,7072
5649, 6723,6724,6731,6730,7066,7067,7074,7073
5650, 6724,6725,6732,6731,7067,7068,7075,7074
5651, 6725,6726,6733,6732,7068,7069,7076,7075
5652, 6726,6727,6734,6733,7069,7070,7077,7076
5653, 6728,6729,6736,6735,7071,7072,7079,7078
5654, 6729,6730,6737,6736,7072,7073,7080,7079
5655, 6730,6731,6738,6737,7073,7074,7081,7080
5656, 6731,6732,6739,6738,7074,7075,7082,7081
5657, 6732,6733,6740,6739,7075,7076,7083,7082
5658, 6733,6734,6741,6740,7076,7077,7084,7083
5659, 6735,6736,6743,6742,7078,7079,7086,7085
5660, 6736,6737,6744,6743,7079,7080,7087,7086
5661, 6737,6738,6745,6744,7080,7081,7088,7087
5662, 6738,6739,6746,6745,7081,7082,7089,7088
5663, 6739,6740,6747,6746,7082,7083,7090,7089
5664, 6740,6741,6748,6747,7083,7084,7091,7090
5665, 6742,6743,6750,6749,7085,7086,7093,7092
5666, 6743,6744,6751,6750,7086,7087,7094,7093
5667, 6744,6745,6752,6751,7087,7088,7095,7094
5668, 6745,6746,6753,6752,7088,7089,7096,7095
5669, 6746,6747,6754,6753,7089,7090,7097,7096
5670, 6747,6748,6755,6754,7090,7091,7098,7097
5671, 6749,6750,6757,6756,7092,7093,7100,7099
5672, 6750,6751,6758,6757,7093,7094,7101,7100
5673, 6751,6752,6759,6758,7094,7095,7102,7101
5674, 6752,6753,6760,6759,7095,7096,7103,7102
5675, 6753,6754,6761,6760,7096,7097,7104,7103
5676, 6754,6755,6762,6761,7097,7098,7105,7104
5677, 6756,6757,6764,6763,7099,7100,7107,7106
5678, 6757,6758,6765,6764,7100,7101,7108,7107
5679, 6758,6759,6766,6765,7101,7102,7109,7108
5680, 6759,6760,6767,6766,7102,7103,7110,7109
5681, 6760,6761,6768,6767,7103,7104,7111,7110
5682, 6761,6762,6769,6768,7104,7105,7112,7111
5683, 6763,6764,6771,6770,7106,7107,7114,7113
5684, 6764,6765,6772,6771,7107,7108,7115,7114
5685, 6765,6766,6773,6772,7108,7109,7116,7115
5686, 6766,6767,6774,6773,7109,7110,7117,7116
5687, 6767,6768,6775,6774,7110,7111,7118,7117
5688, 6768,6769,6776,6775,7111,7112,7119,7118
5689, 6770,6771,6778,6777,7113,7114,7121,7120
5690, 6771,6772,6779,6778,7114,7115,7122,7121
5691, 6772,6773,6780,6779,7115,7116,7123,7122
5692, 6773,6774,6781,6780,7116,7117,7124,7123
5693, 6774,6775,6782,6781,7117,7118,7125,7124
5694, 6775,6776,6783,6782,7118,7119,7126,7125
5695, 6777,6778,6785,6784,7120,7121,7128,7127
5696, 6778,6779,6786,6785,7121,7122,7129,7128
5697, 6779,6780,6787,6786,7122,7123,7130,7129
5698, 6780,6781,6788,6787,7123,7124,7131,7130
5699, 6781,6782,6789,6788,7124,7125,7132,7131
5700, 6782,6783,6790,6789,7125,7126,7133,7132
5701, 6784,6785,6792,6791,7127,7128,7135,7134
5702, 6785,6786,6793,6792,7128,7129,7136,7135
5703, 6786,6787,6794,6793,7129,7130,7137,7136
5704, 6787,6788,6795,6794,7130,7131,7138,7137
5705, 6788,6789,6796,6795,7131,7132,7139,7138
5706, 6789,6790,6797,6796,7132,7133,7140,7139
5707, 6791,6792,6799,6798,7134,7135,7142,7141
5708, 6792,6793,6800,6799,7135,7136,7143,7142
5709, 6793,6794,6801,6800,7136,7137,7144,7143
5710, 6794,6795,6802,6801,7137,7138,7145,7144
5711, 6795,6796,6803,6802,7138,7139,7146,7145
5712, 6796,6797,6804,6803,7139,7140,7147,7146
5713, 6798,6799,6806,6805,7141,7142,7149,7148
5714, 6799,6800,6807,6806,7142,7143,7150,7149
5715, 6800,6801,6808,6807,7143,7144,7151,7150
5716, 6801,6802,6809,6808,7144,7145,7152,7151
5717, 6802,6803,6810,6809,7145,7146,7153,7152
5718, 6803,6804,6811,6810,7146,7147,7154,7153
5719, 6805,6806,6813,6812,7148,7149,7156,7155
5720, 6806,6807,6814,6813,7149,7150,7157,7156
5721, 6807,6808,6815,6814,7150,7151,7158,7157
5722, 6808,6809,6816,6815,7151,7152,7159,7158
5723, 6809,6810,6817,6816,7152,7153,7160,7159
5724, 6810,6811,6818,6817,7153,7154,7161,7160
5725, 6812,6813,6820,6819,7155,7156,7163,7162
5726, 6813,6814,6821,6820,7156,7157,7164,7163
5727, 6814,6815,6822,6821,7157,7158,7165,7164
5728, 6815,6816,6823,6822,7158,7159,7166,7165
5729, 6816,6817,6824,6823,7159,7160,7167,7166
5730, 6817,6818,6825,6824,7160,7161,7168,7167
5731, 6819,6820,6827,6826,7162,7163,7170,7169
5732, 6820,6821,6828,6827,7163,7164,7171,7170
5733, 6821,6822,6829,6828,7164,7165,7172,7171
5734, 6822,6823,6830,6829,7165,7166,7173,7172
5735, 6823,6824,6831,6830,7166,7167,7174,7173
5736, 6824,6825,6832,6831,7167,7168,7175,7174
5737, 6826,6827,6834,6833,7169,7170,7177,7176
5738, 6827,6828,6835,6834,7170,7171,7178,7177
5739, 6828,6829,6836,6835,7171,7172,7179,7178
5740, 6829,6830,6837,6836,7172,7173,7180,7179
5741, 6830,6831,6838,6837,7173,7174,7181,7180
5742, 6831,6832,6839,6838,7174,7175,7182,7181
5743, 6833,6834,6841,6840,7176,7177,7184,7183
5744, 6834,6835,6842,6841,7177,7178,7185,7184
5745, 6835,6836,6843,6842,7178,7179,7186,7185
5746, 6836,6837,6844,6843,7179,7180,7187,7186
5747, 6837,6838,6845,6844,7180,7181,7188,7187
5748, 6838,6839,6846,6845,7181,7182,7189,7188
5749, 6840,6841,6848,6847,7183,7184,7191,7190
5750, 6841,6842,6849,6848,7184,7185,7192,7191
5751, 6842,6843,6850,6849,7185,7186,7193,7192
5752, 6843,6844,6851,6850,7186,7187,7194,7193
5753, 6844,6845,6852,6851,7187,7188,7195,7194
5754, 6845,6846,6853,6852,7188,7189,7196,7195
5755, 6847,6848,6855,6854,7190,7191,7198,7197
5756, 6848,6849,6856,6855,7191,7192,7199,7198
5757, 6849,6850,6857,6856,7192,7193,7200,7199
5758, 6850,6851,6858,6857,7193,7194,7201,7200
5759, 6851,6852,6859,6858,7194,7195,7202,7201
5760, 6852,6853,6860,6859,7195,7196,7203,7202
5761, 6861,6862,6869,6868,7204,7205,7212,7211
5762, 6862,6863,6870,6869,7205,7206,7213,7212
5763, 6863,6864,6871,6870,7206,7207,7214,7213
5764, 6864,6865,6872,6871,7207,7208,7215,7214
5765, 6865,6866,6873,6872,7208,7209,7216,7215
5766, 6866,6867,6874,6873,7209,7210,7217,7216
5767, 6868,6869,6876,6875,7211,7212,7219,7218
5768, 6869,6870,6877,6876,7212,7213,7220,7219
5769, 6870,6871,6878,6877,7213,7214,7221,7220
5770, 6871,6872,6879,6878,7214,7215,7222,7221
5771, 6872,6873,6880,6879,7215,7216,7223,7222
5772, 6873,6874,6881,6880,7216,7217,7224,7223
5773, 6875,6876,6883,6882,7218,7219,7226,7225
5774, 6876,6877,6884,6883,7219,7220,7227,7226
5775, 6877,6878,6885,6884,7220,7221,7228,7227
5776, 6878,6879,6886,6885,7221,7222,7229,7228
5777, 6879,6880,6887,6886,7222,7223,7230,7229
5778, 6880,6881,6888,6887,7223,7224,7231,7230
5779, 6882,6883,6890,6889,7225,7226,7233,7232
5780, 6883,6884,6891,6890,7226,7227,7234,7233
5781, 6884,6885,6892,6891,7227,7228,7235,7234
5782, 6885,6886,6893,6892,7228,7229,7236,7235
5783, 6886,6887,6894,6893,7229,7230,7237,7236
5784, 6887,6888,6895,6894,7230,7231,7238,7237
5785, 6889,6890,6897,6896,7232,7233,7240,7239
5786, 6890,6891,6898,6897,7233,7234,7241,7240
5787, 6891,6892,6899,6898,7234,7235,7242,7241
5788, 6892,6893,6900,6899,7235,7236,7243,7242
5789, 6893,6894,6901,6900,7236,7237,7244,7243
5790, 6894,6895,6902,6901,7237,7238,7245,7244
5791, 6896,6897,6904,6903,7239,7240,7247,7246
5792, 6897,6898,6905,6904,7240,7241,7248,7247
5793, 6898,6899,6906,6905,7241,7242,7249,7248
5794, 6899,6900,6907,6906,7242,7243,7250,7249
5795, 6900,6901,6908,6907,7243,7244,7251,7250
5796, 6901,6902,6909,6908,7244,7245,7252,7251
5797, 6903,6904,6911,6910,7246,7247,7254,7253
5798, 6904,6905,6912,6911,7247,7248,7255,7254
5799, 6905,6906,6913,6912,7248,7249,7256,7255
5800, 6906,6907,6914,6913,7249,7250,7257,7256
5801, 6907,6908,6915,6914,7250,7251,7258,7257
5802, 6908,6909,6916,6915,7251,7252,7259,7258
5803, 6910,6911,6918,6917,7253,7254,7261,7260
5804, 6911,6912,6919,6918,7254,7255,7262,7261
5805, 6912,6913,6920,6919,7255,7256,7263,7262
5806, 6913,6914,6921,6920,7256,7257,7264,7263
5807, 6914,6915,6922,6921,7257,7258,7265,7264
5808, 6915,6916,6923,6922,7258,7259,7266,7265
5809, 6917,6918,6925,6924,7260,7261,7268,7267
5810, 6918,6919,6926,6925,7261,7262,7269,7268
5811, 6919,6920,6927,6926,7262,7263,7270,7269
5812, 6920,6921,6928,6927,7263,7264,7271,7270
5813, 6921,6922,6929,6928,7264,7265,7272,7271
5814, 6922,6923,6930,6929,7265,7266,7273,7272
5815, 6924,6925,6932,6931,7267,7268,7275,7274
5816, 6925,6926,6933,6932,7268,7269,7276,7275
5817, 6926,6927,6934,6933,7269,7270,7277,7276
5818, 6927,6928,6935,6934,7270,7271,7278,7277
5819, 6928,6929,6936,6935,7271,7272,7279,7278
5820, 6929,6930,6937,6936,7272,7273,7280,7279
5821, 6931,6932,6939,6938,7274,7275,7282,7281
5822, 6932,6933,6940,6939,7275,7276,7283,7282
5823, 6933,6934,6941,6940,7276,7277,7284,7283
5824, 6934,6935,6942,6941,7277,7278,7285,7284
5825, 6935,6936,6943,6942,7278,7279,7286,7285
5826, 6936,6937,6944,6943,7279,7280,7287,7286
5827, 6938,6939,6946,6945,7281,7282,7289,7288
5828, 6939,6940,6947,6946,7282,7283,7290,7289
5829, 6940,6941,6948,6947,7283,7284,7291,7290
5830, 6941,6942,6949,6948,7284,7285,7292,7291
5831, 6942,6943,6950,6949,7285,7286,7293,7292
5832, 6943,6944,6951,6950,7286,7287,7294,7293
5833, 6945,6946,6953,6952,7288,7289,7296,7295
5834, 6946,6947,6954,6953,7289,7290,7297,7296
5835, 6947,6948,6955,6954,7290,7291,7298,7297
5836, 6948,6949,6956,6955,7291,7292,7299,7298
5837, 6949,6950,6957,6956,7292,7293,7300,7299
5838, 6950,6951,6958,6957,7293,7294,7301,7300
5839, 6952,6953,6960,6959,7295,7296,7303,7302
5840, 6953,6954,6961,6960,7296,7297,7304,7303
5841, 6954,6955,6962,6961,7297,7298,7305,7304
5842, 6955,6956,6963,6962,7298,7299,7306,7305
5843, 6956,6957,6964,6963,7299,7300,7307,7306
5844, 6957,6958,6965,6964,7300,7301,7308,7307
5845, 6959,6960,6967,6966,7302,7303,7310,7309
5846, 6960,6961,6968,6967,7303,7304,7311,7310
5847, 6961,6962,6969,6968,7304,7305,7312,7311
5848, 6962,6963,6970,6969,7305,7306,7313,7312
5849, 6963,6964,6971,6970,7306,7307,7314,7313
5850, 6964,6965,6972,6971,7307,7308,7315,7314
5851, 6966,6967,6974,6973,7309,7310,7317,7316
5852, 6967,6968,6975,6974,7310,7311,7318,7317
5853, 6968,6969,6976,6975,7311,7312,7319,7318
5854, 6969,6970,6977,6976,7312,7313,7320,7319
5855, 6970,6971,6978,6977,7313,7314,7321,7320
5856, 6971,6972,6979,6978,7314,7315,7322,7321
5857, 6973,6974,6981,6980,7316,7317,7324,7323
5858, 6974,6975,6982,6981,7317,7318,7325,7324
5859, 6975,6976,6983,6982,7318,7319,7326,7325
5860, 6976,6977,6984,6983,7319,7320,7327,7326
5861, 6977,6978,6985,6984,7320,7321,7328,7327
5862, 6978,6979,6986,6985,7321,7322,7329,7328
5863, 6980,6981,6988,6987,7323,7324,7331,7330
5864, 6981,6982,6989,6988,7324,7325,7332,7331
5865, 6982,6983,6990,6989,7325,7326,7333,7332
5866, 6983,6984,6991,6990,7326,7327,7334,7333
5867, 6984,6985,6992,6991,7327,7328,7335,7334
5868, 6985,6986,6993,6992,7328,7329,7336,7335
5869, 6987,6988,6995,6994,7330,7331,7338,7337
5870, 6988,6989,6996,6995,7331,7332,7339,7338
5871, 6989,6990,6997,6996,7332,7333,7340,7339
5872, 6990,6991,6998,6997,7333,7334,7341,7340
5873, 6991,6992,6999,6998,7334,7335,7342,7341
5874, 6992,6993,7000,6999,7335,7336,7343,7342
5875, 6994,6995,7002,7001,7337,7338,7345,7344
5876, 6995,6996,7003,7002,7338,7339,7346,7345
5877, 6996,6997,7004,7003,7339,7340,7347,7346
5878, 6997,6998,7005,7004,7340,7341,7348,7347
5879, 6998,6999,7006,7005,7341,7342,7349,7348
5880, 6999,7000,7007,7006,7342,7343,7350,7349
5881, 7001,7002,7009,7008,7344,7345,7352,7351
5882, 7002,7003,7010,7009,7345,7346,7353,7352
5883, 7003,7004,7011,7010,7346,7347,7354,7353
5884, 7004,7005,7012,7011,7347,7348,7355,7354
5885, 7005,7006,7013,7012,7348,7349,7356,7355
5886, 7006,7007,7014,7013,7349,7350,7357,7356
5887, 7008,7009,7016,7015,7351,7352,7359,7358
5888, 7009,7010,7017,7016,7352,7353,7360,7359
5889, 7010,7011,7018,7017,7353,7354,7361,7360
5890, 7011,7012,7019,7018,7354,7355,7362,7361
5891, 7012,7013,7020,7019,7355,7356,7363,7362
5892, 7013,7014,7021,7020,7356,7357,7364,7363
5893, 7015,7016,7023,7022,7358,7359,7366,7365
5894, 7016,7017,7024,7023,7359,7360,7367,7366
5895, 7017,7018,7025,7024,7360,7361,7368,7367
5896, 7018,7019,7026,7025,7361,7362,7369,7368
5897, 7019,7020,7027,7026,7362,7363,7370,7369
5898, 7020,7021,7028,7027,7363,7364,7371,7370
5899, 7022,7023,7030,7029,7365,7366,7373,7372
5900, 7023,7024,7031,7030,7366,7367,7374,7373
5901, 7024,7025,7032,7031,7367,7368,7375,7374
5902, 7025,7026,7033,7032,7368,7369,7376,7375
5903, 7026,7027,7034,7033,7369,7370,7377,7376
5904, 7027,7028,7035,7034,7370,7371,7378,7377
5905, 7029,7030,7037,7036,7372,7373,7380,7379
5906, 7030,7031,7038,7037,7373,7374,7381,7380
5907, 7031,7032,7039,7038,7374,7375,7382,7381
5908, 7032,7033,7040,7039,7375,7376,7383,7382
5909, 7033,7034,7041,7040,7376,7377,7384,7383
5910, 7034,7035,7042,7041,7377,7378,7385,7384
5911, 7036,7037,7044,7043,7379,7380,7387,7386
5912, 7037,7038,7045,7044,7380,7381,7388,7387
5913, 7038,7039,7046,7045,7381,7382,7389,7388
5914, 7039,7040,7047,7046,7382,7383,7390,7389
5915, 7040,7041,7048,7047,7383,7384,7391,7390
5916, 7041,7042,7049,7048,7384,7385,7392,7391
5917, 7043,7044,7051,7050,7386,7387,7394,7393
5918, 7044,7045,7052,7051,7387,7388,7395,7394
5919, 7045,7046,7053,7052,7388,7389,7396,7395
5920, 7046,7047,7054,7053,7389,7390,7397,7396
5921, 7047,7048,7055,7054,7390,7391,7398,7397
5922, 7048,7049,7056,7055,7391,7392,7399,7398
5923, 7050,7051,7058,7057,7393,7394,7401,7400
5924, 7051,7052,7059,7058,7394,7395,7402,7401
5925, 7052,7053,7060,7059,7395,7396,7403,7402
5926, 7053,7054,7061,7060,7396,7397,7404,7403
5927, 7054,7055,7062,7061,7397,7398,7405,7404
5928, 7055,7056,7063,7062,7398,7399,7406,7405
5929, 7057,7058,7065,7064,7400,7401,7408,7407
5930, 7058,7059,7066,7065,7401,7402,7409,7408
5931, 7059,7060,7067,7066,7402,7403,7410,7409
5932, 7060,7061,7068,7067,7403,7404,7411,7410
5933, 7061,7062,7069,7068,7404,7405,7412,7411
5934, 7062,7063,7070,7069,7405,7406,7413,7412
5935, 7064,7065,7072,7071,7407,7408,7415,7414
5936, 7065,7066,7073,7072,7408,7409,7416,7415
5937, 7066,7067,7074,7073,7409,7410,7417,7416
5938, 7067,7068,7075,7074,7410,7411,7418,7417
5939, 7068,7069,7076,7075,7411,7412,7419,7418
5940, 7069,7070,7077,7076,7412,7413,7420,7419
5941, 7071,7072,7079,7078,7414,7415,7422,7421
5942, 7072,7073,7080,7079,7415,7416,7423,7422
5943, 7073,7074,7081,7080,7416,7417,7424,7423
5944, 7074,7075,7082,7081,7417,7418,7425,7424
5945, 7075,7076,7083,7082,7418,7419,7426,7425
5946, 7076,7077,7084,7083,7419,7420,7427,7426
5947, 7078,7079,7086,7085,7421,7422,7429,7428
5948, 7079,7080,7087,7086,7422,7423,7430,7429
5949, 7080,7081,7088,7087,7423,7424,7431,7430
5950, 7081,7082,7089,7088,7424,7425,7432,7431
5951, 7082,7083,7090,7089,7425,7426,7433,7432
5952, 7083,7084,7091,7090,7426,7427,7434,7433
5953, 7085,7086,7093,7092,7428,7429,7436,7435
5954, 7086,7087,7094,7093,7429,7430,7437,7436
5955, 7087,7088,7095,7094,7430,7431,7438,7437
5956, 7088,7089,7096,7095,7431,7432,7439,7438
5957, 7089,7090,7097,7096,7432,7433,7440,7439
5958, 7090,7091,7098,7097,7433,7434,7441,7440
5959, 7092,7093,7100,7099,7435,7436,7443,7442
5960, 7093,7094,7101,7100,7436,7437,7444,7443
5961, 7094,7095,7102,7101,7437,7438,7445,7444
5962, 7095,7096,7103,7102,7438,7439,7446,7445
5963, 7096,7097,7104,7103,7439,7440,7447,7446
5964, 7097,7098,7105,7104,7440,7441,7448,7447
5965, 7099,7100,7107,7106,7442,7443,7450,7449
5966, 7100,7101,7108,7107,7443,7444,7451,7450
5967, 7101,7102,7109,7108,7444,7445,7452,7451
5968, 7102,7103,7110,7109,7445,7446,7453,7452
5969, 7103,7104,7111,7110,7446,7447,7454,7453
5970, 7104,7105,7112,7111,7447,7448,7455,7454
5971, 7106,7107,7114,7113,7449,7450,7457,7456
5972, 7107,7108,7115,7114,7450,7451,7458,7457
5973, 7108,7109,7116,7115,7451,7452,7459,7458
5974, 7109,7110,7117,7116,7452,7453,7460,7459
5975, 7110,7111,7118,7117,7453,7454,7461,7460
5976, 7111,7112,7119,7118,7454,7455,7462,7461
5977, 7113,7114,7121,7120,7456,7457,7464,7463
5978, 7114,7115,7122,7121,7457,7458,7465,7464
5979, 7115,7116,7123,7122,7458,7459,7466,7465
5980, 7116,7117,7124,7123,7459,7460,7467,7466
5981, 7117,7118,7125,7124,7460,7461,7468,7467
5982, 7118,7119,7126,7125,7461,7462,7469,7468
5983, 7120,7121,7128,7127,7463,7464,7471,7470
5984, 7121,7122,7129,7128,7464,7465,7472,7471
5985, 7122,7123,7130,7129,7465,7466,7473,7472
5986, 7123,7124,7131,7130,7466,7467,7474,7473
5987, 7124,7125,7132,7131,7467,7468,7475,7474
5988, 7125,7126,7133,7132,7468,7469,7476,7475
5989, 7127,7128,7135,7134,7470,7471,7478,7477
5990, 7128,7129,7136,7135,7471,7472,7479,7478
5991, 7129,7130,7137,7136,7472,7473,7480,7479
5992, 7130,7131,7138,7137,7473,7474,7481,7480
5993, 7131,7132,7139,7138,7474,7475,7482,7481
5994, 7132,7133,7140,7139,7475,7476,7483,7482
5995, 7134,7135,7142,7141,7477,7478,7485,7484
5996, 7135,7136,7143,7142,7478,7479,7486,7485
5997, 7136,7137,7144,7143,7479,7480,7487,7486
5998, 7137,7138,7145,7144,7480,7481,7488,7487
5999, 7138,7139,7146,7145,7481,7482,7489,7488
6000, 7139,7140,7147,7146,7482,7483,7490,7489
6001, 7141,7142,7149,7148,7484,7485,7492,7491
6002, 7142,7143,7150,7149,7485,7486,7493,7492
6003, 7143,7144,7151,7150,7486,7487,7494,7493
6004, 7144,7145,7152,7151,7487,7488,7495,7494
6005, 7145,7146,7153,7152,7488,7489,7496,7495
6006, 7146,7147,7154,7153,7489,7490,7497,7496
6007, 7148,7149,7156,7155,7491,7492,7499,7498
6008, 7149,7150,7157,7156,7492,7493,7500,7499
6009, 7150,7151,7158,7157,7493,7494,7501,7500
6010, 7151,7152,7159,7158,7494,7495,7502,7501
6011, 7152,7153,7160,7159,7495,7496,7503,7502
6012, 7153,7154,7161,7160,7496,7497,7504,7503
6013, 7155,7156,7163,7162,7498,7499,7506,7505
6014, 7156,7157,7164,7163,7499,7500,7507,7506
6015, 7157,7158,7165,7164,7500,7501,7508,7507
6016, 7158,7159,7166,7165,7501,7502,7509,7508
6017, 7159,7160,7167,7166,7502,7503,7510,7509
6018, 7160,7161,7168,7167,7503,7504,7511,7510
6019, 7162,7163,7170,7169,7505,7506,7513,7512
6020, 7163,7164,7171,7170,7506,7507,7514,7513
6021, 7164,7165,7172,7171,7507,7508,7515,7514
6022, 7165,7166,7173,7172,7508,7509,7516,7515
6023, 7166,7167,7174,7173,7509,7510,7517,7516
6024, 7167,7168,7175,7174,7510,7511,7518,7517
6025, 7169,7170,7177,7176,7512,7513,7520,7519
6026, 7170,7171,7178,7177,7513,7514,7521,7520
6027, 7171,7172,7179,7178,7514,7515,7522,7521
6028, 7172,7173,7180,7179,7515,7516,7523,7522
6029, 7173,7174,7181,7180,7516,7517,7524,7523
6030, 7174,7175,7182,7181,7517,7518,7525,7524
6031, 7176,7177,7184,7183,7519,7520,7527,7526
6032, 7177,7178,7185,7184,7520,7521,7528,7527
6033, 7178,7179,7186,7185,7521,7522,7529,7528
6034, 7179,7180,7187,7186,7522,7523,7530,7529
6035, 7180,7181,7188,7187,7523,7524,7531,7530
6036, 7181,7182,7189,7188,7524,7525,7532,7531
6037, 7183,7184,7191,7190,7526,7527,7534,7533
6038, 7184,7185,7192,7191,7527,7528,7535,7534
6039, 7185,7186,7193,7192,7528,7529,7536,7535
6040, 7186,7187,7194,7193,7529,7530,7537,7536
6041, 7187,7188,7195,7194,7530,7531,7538,7537
6042, 7188,7189,7196,7195,7531,7532,7539,7538
6043, 7190,7191,7198,7197,7533,7534,7541,7540
6044, 7191,7192,7199,7198,7534,7535,7542,7541
6045, 7192,7193,7200,7199,7535,7536,7543,7542
6046, 7193,7194,7201,7200,7536,7537,7544,7543
6047, 7194,7195,7202,7201,7537,7538,7545,7544
6048, 7195,7196,7203,7202,7538,7539,7546,7545
6049, 7204,7205,7212,7211,7547,7548,7555,7554
6050, 7205,7206,7213,7212,7548,7549,7556,7555
6051, 7206,7207,7214,7213,7549,7550,7557,7556
6052, 7207,7208,7215,7214,7550,7551,7558,7557
6053, 7208,7209,7216,7215,7551,7552,7559,7558
6054, 7209,7210,7217,7216,7552,7553,7560,7559
6055, 7211,7212,7219,7218,7554,7555,7562,7561
6056, 7212,7213,7220,7219,7555,7556,7563,7562
6057, 7213,7214,7221,7220,7556,7557,7564,7563
6058, 7214,7215,7222,7221,7557,7558,7565,7564
6059, 7215,7216,7223,7222,7558,7559,7566,7565
6060, 7216,7217,7224,7223,7559,7560,7567,7566
6061, 7218,7219,7226,7225,7561,7562,7569,7568
6062, 7219,7220,7227,7226,7562,7563,7570,7569
6063, 7220,7221,7228,7227,7563,7564,7571,7570
6064, 7221,7222,7229,7228,7564,7565,7572,7571
6065, 7222,7223,7230,7229,7565,7566,7573,7572
6066, 7223,7224,7231,7230,7566,7567,7574,7573
6067, 7225,7226,7233,7232,7568,7569,7576,7575
6068, 7226,7227,7234,7233,7569,7570,7577,7576
6069, 7227,7228,7235,7234,7570,7571,7578,7577
6070, 7228,7229,7236,7235,7571,7572,7579,7578
6071, 7229,7230,7237,7236,7572,7573,7580,7579
6072, 7230,7231,7238,7237,7573,7574,7581,7580
6073, 7232,7233,7240,7239,7575,7576,7583,7582
6074, 7233,7234,7241,7240,7576,7577,7584,7583
6075, 7234,7235,7242,7241,7577,7578,7585,7584
6076, 7235,7236,7243,7242,7578,7579,7586,7585
6077, 7236,7237,7244,7243,7579,7580,7587,7586
6078, 7237,7238,7245,7244,7580,7581,7588,7587
6079, 7239,7240,7247,7246,7582,7583,7590,7589
6080, 7240,7241,7248,7247,7583,7584,7591,7590
6081, 7241,7242,7249,7248,7584,7585,7592,7591
6082, 7242,7243,7250,7249,7585,7586,7593,7592
6083, 7243,7244,7251,7250,7586,7587,7594,7593
6084, 7244,7245,7252,7251,7587,7588,7595,7594
6085, 7246,7247,7254,7253,7589,7590,7597,7596
6086, 7247,7248,7255,7254,7590,7591,7598,7597
6087, 7248,7249,7256,7255,7591,7592,7599,7598
6088, 7249,7250,7257,7256,7592,7593,7600,7599
6089, 7250,7251,7258,7257,7593,7594,7601,7600
6090, 7251,7252,7259,7258,7594,7595,7602,7601
6091, 7253,7254,7261,7260,7596,7597,7604,7603
6092, 7254,7255,7262,7261,7597,7598,7605,7604
6093, 7255,7256,7263,7262,7598,7599,7606,7605
6094, 7256,7257,7264,7263,7599,7600,7607,7606
6095, 7257,7258,7265,7264,7600,7601,7608,7607
6096, 7258,7259,7266,7265,7601,7602,7609,7608
6097, 7260,7261,7268,7267,7603,7604,7611,7610
6098, 7261,7262,7269,7268,7604,7605,7612,7611
6099, 7262,7263,7270,7269,7605,7606,7613,7612
6100, 7263,7264,7271,7270,7606,7607,7614,7613
6101, 7264,7265,7272,7271,7607,7608,7615,7614
6102, 7265,7266,7273,7272,7608,7609,7616,7615
6103, 7267,7268,7275,7274,7610,7611,7618,7617
6104, 7268,7269,7276,7275,7611,7612,7619,7618
6105, 7269,7270,7277,7276,7612,7613,7620,7619
6106, 7270,7271,7278,7277,7613,7614,7621,7620
6107, 7271,7272,7279,7278,7614,7615,7622,7621
6108, 7272,7273,7280,7279,7615,7616,7623,7622
6109, 7274,7275,7282,7281,7617,7618,7625,7624
6110, 7275,7276,7283,7282,7618,7619,7626,7625
6111, 7276,7277,7284,7283,7619,7620,7627,7626
6112, 7277,7278,7285,7284,7620,7621,7628,7627
6113, 7278,7279,7286,7285,7621,7622,7629,7628
6114, 7279,7280,7287,7286,7622,7623,7630,7629
6115, 7281,7282,7289,7288,7624,7625,7632,7631
6116, 7282,7283,7290,7289,7625,7626,7633,7632
6117, 7283,7284,7291,7290,7626,7627,7634,7633
6118, 7284,7285,7292,7291,7627,7628,7635,7634
6119, 7285,7286,7293,7292,7628,7629,7636,7635
6120, 7286,7287,7294,7293,7629,7630,7637,7636
6121, 7288,7289,7296,7295,7631,7632,7639,7638
6122, 7289,7290,7297,7296,7632,7633,7640,7639
6123, 7290,7291,7298,7297,7633,7634,7641,7640
6124, 7291,7292,7299,7298,7634,7635,7642,7641
6125, 7292,7293,7300,7299,7635,7636,7643,7642
6126, 7293,7294,7301,7300,7636,7637,7644,7643
6127, 7295,7296,7303,7302,7638,7639,7646,7645
6128, 7296,7297,7304,7303,7639,7640,7647,7646
6129, 7297,7298,7305,7304,7640,7641,7648,7647
6130, 7298,7299,7306,7305,7641,7642,7649,7648
6131, 7299,7300,7307,7306,7642,7643,7650,7649
6132, 7300,7301,7308,7307,7643,7644,7651,7650
6133, 7302,7303,7310,7309,7645,7646,7653,7652
6134, 7303,7304,7311,7310,7646,7647,7654,7653
6135, 7304,7305,7312,7311,7647,7648,7655,7654
6136, 7305,7306,7313,7312,7648,7649,7656,7655
6137, 7306,7307,7314,7313,7649,7650,7657,7656
6138, 7307,7308,7315,7314,7650,7651,7658,7657
6139, 7309,7310,7317,7316,7652,7653,7660,7659
6140, 7310,7311,7318,7317,7653,7654,7661,7660
6141, 7311,7312,7319,7318,7654,7655,7662,7661
6142, 7312,7313,7320,7319,7655,7656,7663,7662
6143, 7313,7314,7321,7320,7656,7657,7664,7663
6144, 7314,7315,7322,7321,7657,7658,7665,7664
6145, 7316,7317,7324,7323,7659,7660,7667,7666
6146, 7317,7318,7325,7324,7660,7661,7668,7667
6147, 7318,7319,7326,7325,7661,7662,7669,7668
6148, 7319,7320,7327,7326,7662,7663,7670,7669
6149, 7320,7321,7328,7327,7663,7664,7671,7670
6150, 7321,7322,7329,7328,7664,7665,7672,7671
6151, 7323,7324,7331,7330,7666,7667,7674,7673
6152, 7324,7325,7332,7331,7667,7668,7675,7674
6153, 7325,7326,7333,7332,7668,7669,7676,7675
6154, 7326,7327,7334,7333,7669,7670,7677,7676
6155, 7327,7328,7335,7334,7670,7671,7678,7677
6156, 7328,7329,7336,7335,7671,7672,7679,7678
6157, 7330,7331,7338,7337,7673,7674,7681,7680
6158, 7331,7332,7339,7338,7674,7675,7682,7681
6159, 7332,7333,7340,7339,7675,7676,7683,7682
6160, 7333,7334,7341,7340,7676,7677,7684,7683
6161, 7334,7335,7342,7341,7677,7678,7685,7684
6162, 7335,7336,7343,7342,7678,7679,7686,7685
6163, 7337,7338,7345,7344,7680,7681,7688,7687
6164, 7338,7339,7346,7345,7681,7682,7689,7688
6165, 7339,7340,7347,7346,7682,7683,7690,7689
6166, 7340,7341,7348,7347,7683,7684,7691,7690
6167, 7341,7342,7349,7348,7684,7685,7692,7691
6168, 7342,7343,7350,7349,7685,7686,7693,7692
6169, 7344,7345,7352,7351,7687,7688,7695,7694
6170, 7345,7346,7353,7352,7688,7689,7696,7695
6171, 7346,7347,7354,7353,7689,7690,7697,7696
6172, 7347,7348,7355,7354,7690,7691,7698,7697
6173, 7348,7349,7356,7355,7691,7692,7699,7698
6174, 7349,7350,7357,7356,7692,7693,7700,7699
6175, 7351,7352,7359,7358,7694,7695,7702,7701
6176, 7352,7353,7360,7359,7695,7696,7703,7702
6177, 7353,7354,7361,7360,7696,7697,7704,7703
6178, 7354,7355,7362,7361,7697,7698,7705,7704
6179, 7355,7356,7363,7362,7698,7699,7706,7705
6180, 7356,7357,7364,7363,7699,7700,7707,7706
6181, 7358,7359,7366,7365,7701,7702,7709,7708
6182, 7359,7360,7367,7366,7702,7703,7710,7709
6183, 7360,7361,7368,7367,7703,7704,7711,7710
6184, 7361,7362,7369,7368,7704,7705,7712,7711
6185, 7362,7363,7370,7369,7705,7706,7713,7712
6186, 7363,7364,7371,7370,7706,7707,7714,7713
6187, 7365,7366,7373,7372,7708,7709,7716,7715
6188, 7366,7367,7374,7373,7709,7710,7717,7716
6189, 7367,7368,7375,7374,7710,7711,7718,7717
6190, 7368,7369,7376,7375,7711,7712,7719,7718
6191, 7369,7370,7377,7376,7712,7713,7720,7719
6192, 7370,7371,7378,7377,7713,7714,7721,7720
6193, 7372,7373,7380,7379,7715,7716,7723,7722
6194, 7373,7374,7381,7380,7716,7717,7724,7723
6195, 7374,7375,7382,7381,7717,7718,7725,7724
6196, 7375,7376,7383,7382,7718,7719,7726,7725
6197, 7376,7377,7384,7383,7719,7720,7727,7726
6198, 7377,7378,7385,7384,7720,7721,7728,7727
6199, 7379,7380,7387,7386,7722,7723,7730,7729
6200, 7380,7381,7388,7387,7723,7724,7731,7730
6201, 7381,7382,7389,7388,7724,7725,7732,7731
6202, 7382,7383,7390,7389,7725,7726,7733,7732
6203, 7383,7384,7391,7390,7726,7727,7734,7733
6204, 7384,7385,7392,7391,7727,7728,7735,7734
6205, 7386,7387,7394,7393,7729,7730,7737,7736
6206, 7387,7388,7395,7394,7730,7731,7738,7737
6207, 7388,7389,7396,7395,7731,7732,7739,7738
6208, 7389,7390,7397,7396,7732,7733,7740,7739
6209, 7390,7391,7398,7397,7733,7734,7741,7740
6210, 7391,7392,7399,7398,7734,7735,7742,7741
6211, 7393,7394,7401,7400,7736,7737,7744,7743
6212, 7394,7395,7402,7401,7737,7738,7745,7744
6213, 7395,7396,7403,7402,7738,7739,7746,7745
6214, 7396,7397,7404,7403,7739,7740,7747,7746
6215, 7397,7398,7405,7404,7740,7741,7748,7747
6216, 7398,7399,7406,7405,7741,7742,7749,7748
6217, 7400,7401,7408,7407,7743,7744,7751,7750
6218, 7401,7402,7409,7408,7744,7745,7752,7751
6219, 7402,7403,7410,7409,7745,7746,7753,7752
6220, 7403,7404,7411,7410,7746,7747,7754,7753
6221, 7404,7405,7412,7411,7747,7748,7755,7754
6222, 7405,7406,7413,7412,7748,7749,7756,7755
6223, 7407,7408,7415,7414,7750,7751,7758,7757
6224, 7408,7409,7416,7415,7751,7752,7759,7758
6225, 7409,7410,7417,7416,7752,7753,7760,7759
6226, 7410,7411,7418,7417,7753,7754,7761,7760
6227, 7411,7412,7419,7418,7754,7755,7762,7761
6228, 7412,7413,7420,7419,7755,7756,7763,7762
6229, 7414,7415,7422,7421,7757,7758,7765,7764
6230, 7415,7416,7423,7422,7758,7759,7766,7765
6231, 7416,7417,7424,7423,7759,7760,7767,7766
6232, 7417,7418,7425,7424,7760,7761,7768,7767
6233, 7418,7419,7426,7425,7761,7762,7769,7768
6234, 7419,7420,7427,7426,7762,7763,7770,7769
6235, 7421,7422,7429,7428,7764,7765,7772,7771
6236, 7422,7423,7430,7429,7765,7766,7773,7772
6237, 7423,7424,7431,7430,7766,7767,7774,7773
6238, 7424,7425,7432,7431,7767,7768,7775,7774
6239, 7425,7426,7433,7432,7768,7769,7776,7775
6240, 7426,7427,7434,7433,7769,7770,7777,7776
6241, 7428,7429,7436,7435,7771,7772,7779,7778
6242, 7429,7430,7437,7436,7772,7773,7780,7779
6243, 7430,7431,7438,7437,7773,7774,7781,7780
6244, 7431,7432,7439,7438,7774,7775,7782,7781
6245, 7432,7433,7440,7439,7775,7776,7783,7782
6246, 7433,7434,7441,7440,7776,7777,7784,7783
6247, 7435,7436,7443,7442,7778,7779,7786,7785
6248, 7436,7437,7444,7443,7779,7780,7787,7786
6249, 7437,7438,7445,7444,7780,7781,7788,7787
6250, 7438,7439,7446,7445,7781,7782,7789,7788
6251, 7439,7440,7447,7446,7782,7783,7790,7789
6252, 7440,7441,7448,7447,7783,7784,7791,7790
6253, 7442,7443,7450,7449,7785,7786,7793,7792
6254, 7443,7444,7451,7450,7786,7787,7794,7793
6255, 7444,7445,7452,7451,7787,7788,7795,7794
6256, 7445,7446,7453,7452,7788,7789,7796,7795
6257, 7446,7447,7454,7453,7789,7790,7797,7796
6258, 7447,7448,7455,7454,7790,7791,7798,7797
6259, 7449,7450,7457,7456,7792,7793,7800,7799
6260, 7450,7451,7458,7457,7793,7794,7801,7800
6261, 7451,7452,7459,7458,7794,7795,7802,7801
6262, 7452,7453,7460,7459,7795,7796,7803,7802
6263, 7453,7454,7461,7460,7796,7797,7804,7803
6264, 7454,7455,7462,7461,7797,7798,7805,7804
6265, 7456,7457,7464,7463,7799,7800,7807,7806
6266, 7457,7458,7465,7464,7800,7801,7808,7807
6267, 7458,7459,7466,7465,7801,7802,7809,7808
6268, 7459,7460,7467,7466,7802,7803,7810,7809
6269, 7460,7461,7468,7467,7803,7804,7811,7810
6270, 7461,7462,7469,7468,7804,7805,7812,7811
6271, 7463,7464,7471,7470,7806,7807,7814,7813
6272, 7464,7465,7472,7471,7807,7808,7815,7814
6273, 7465,7466,7473,7472,7808,7809,7816,7815
6274, 7466,7467,7474,7473,7809,7810,7817,7816
6275, 7467,7468,7475,7474,7810,7811,7818,7817
6276, 7468,7469,7476,7475,7811,7812,7819,7818
6277, 7470,7471,7478,7477,7813,7814,7821,7820
6278, 7471,7472,7479,7478,7814,7815,7822,7821
6279, 7472,7473,7480,7479,7815,7816,7823,7822
6280, 7473,7474,7481,7480,7816,7817,7824,7823
6281, 7474,7475,7482,7481,7817,7818,7825,7824
6282, 7475,7476,7483,7482,7818,7819,7826,7825
6283, 7477,7478,7485,7484,7820,7821,7828,7827
6284, 7478,7479,7486,7485,7821,7822,7829,7828
6285, 7479,7480,7487,7486,7822,7823,7830,7829
6286, 7480,7481,7488,7487,7823,7824,7831,7830
6287, 7481,7482,7489,7488,7824,7825,7832,7831
6288, 7482,7483,7490,7489,7825,7826,7833,7832
6289, 7484,7485,7492,7491,7827,7828,7835,7834
6290, 7485,7486,7493,7492,7828,7829,7836,7835
6291, 7486,7487,7494,7493,7829,7830,7837,7836
6292, 7487,7488,7495,7494,7830,7831,7838,7837
6293, 7488,7489,7496,7495,7831,7832,7839,7838
6294, 7489,7490,7497,7496,7832,7833,7840,7839
6295, 7491,7492,7499,7498,7834,7835,7842,7841
6296, 7492,7493,7500,7499,7835,7836,7843,7842
6297, 7493,7494,7501,7500,7836,7837,7844,7843
6298, 7494,7495,7502,7501,7837,7838,7845,7844
6299, 7495,7496,7503,7502,7838,7839,7846,7845
6300, 7496,7497,7504,7503,7839,7840,7847,7846
6301, 7498,7499,7506,7505,7841,7842,7849,7848
6302, 7499,7500,7507,7506,7842,7843,7850,7849
6303, 7500,7501,7508,7507,7843,7844,7851,7850
6304, 7501,7502,7509,7508,7844,7845,7852,7851
6305, 7502,7503,7510,7509,7845,7846,7853,7852
6306, 7503,7504,7511,7510,7846,7847,7854,7853
6307, 7505,7506,7513,7512,7848,7849,7856,7855
6308, 7506,7507,7514,7513,7849,7850,7857,7856
6309, 7507,7508,7515,7514,7850,7851,7858,7857
6310, 7508,7509,7516,7515,7851,7852,7859,7858
6311, 7509,7510,7517,7516,7852,7853,7860,7859
6312, 7510,7511,7518,7517,7853,7854,7861,7860
6313, 7512,7513,7520,7519,7855,7856,7863,7862
6314, 7513,7514,7521,7520,7856,7857,7864,7863
6315, 7514,7515,7522,7521,7857,7858,7865,7864
6316, 7515,7516,7523,7522,7858,7859,7866,7865
6317, 7516,7517,7524,7523,7859,7860,7867,7866
6318, 7517,7518,7525,7524,7860,7861,7868,7867
6319, 7519,7520,7527,7526,7862,7863,7870,7869
6320, 7520,7521,7528,7527,7863,7864,7871,7870
6321, 7521,7522,7529,7528,7864,7865,7872,7871
6322, 7522,7523,7530,7529,7865,7866,7873,7872
6323, 7523,7524,7531,7530,7866,7867,7874,7873
6324, 7524,7525,7532,7531,7867,7868,7875,7874
6325, 7526,7527,7534,7533,7869,7870,7877,7876
6326, 7527,7528,7535,7534,7870,7871,7878,7877
6327, 7528,7529,7536,7535,7871,7872,7879,7878
6328, 7529,7530,7537,7536,7872,7873,7880,7879
6329, 7530,7531,7538,7537,7873,7874,7881,7880
6330, 7531,7532,7539,7538,7874,7875,7882,7881
6331, 7533,7534,7541,7540,7876,7877,7884,7883
6332, 7534,7535,7542,7541,7877,7878,7885,7884
6333, 7535,7536,7543,7542,7878,7879,7886,7885
6334, 7536,7537,7544,7543,7879,7880,7887,7886
6335, 7537,7538,7545,7544,7880,7881,7888,7887
6336, 7538,7539,7546,7545,7881,7882,7889,7888
6337, 7547,7548,7555,7554,7890,7891,7898,7897
6338, 7548,7549,7556,7555,7891,7892,7899,7898
6339, 7549,7550,7557,7556,7892,7893,7900,7899
6340, 7550,7551,7558,7557,7893,7894,7901,7900
6341, 7551,7552,7559,7558,7894,7895,7902,7901
6342, 7552,7553,7560,7559,7895,7896,7903,7902
6343, 7554,7555,7562,7561,7897,7898,7905,7904
6344, 7555,7556,7563,7562,7898,7899,7906,7905
6345, 7556,7557,7564,7563,7899,7900,7907,7906
6346, 7557,7558,7565,7564,7900,7901,7908,7907
6347, 7558,7559,7566,7565,7901,7902,7909,7908
6348, 7559,7560,7567,7566,7902,7903,7910,7909
6349, 7561,7562,7569,7568,7904,7905,7912,7911
6350, 7562,7563,7570,7569,7905,7906,7913,7912
6351, 7563,7564,7571,7570,7906,7907,7914,7913
6352, 7564,7565,7572,7571,7907,7908,7915,7914
6353, 7565,7566,7573,7572,7908,7909,7916,7915
6354, 7566,7567,7574,7573,7909,7910,7917,7916
6355, 7568,7569,7576,7575,7911,7912,7919,7918
6356, 7569,7570,7577,7576,7912,7913,7920,7919
6357, 7570,7571,7578,7577,7913,7914,7921,7920
6358, 7571,7572,7579,7578,7914,7915,7922,7921
6359, 7572,7573,7580,7579,7915,7916,7923,7922
6360, 7573,7574,7581,7580,7916,7917,7924,7923
6361, 7575,7576,7583,7582,7918,7919,7926,7925
6362, 7576,7577,7584,7583,7919,7920,7927,7926
6363, 7577,7578,7585,7584,7920,7921,7928,7927
6364, 7578,7579,7586,7585,7921,7922,7929,7928
6365, 7579,7580,7587,7586,7922,7923,7930,7929
6366, 7580,7581,7588,7587,7923,7924,7931,7930
6367, 7582,7583,7590,7589,7925,7926,7933,7932
6368, 7583,7584,7591,7590,7926,7927,7934,7933
6369, 7584,7585,7592,7591,7927,7928,7935,7934
6370, 7585,7586,7593,7592,7928,7929,7936,7935
6371, 7586,7587,7594,7593,7929,7930,7937,7936
6372, 7587,7588,7595,7594,7930,7931,7938,7937
6373, 7589,7590,7597,7596,7932,7933,7940,7939
6374, 7590,7591,7598,7597,7933,7934,7941,7940
6375, 7591,7592,7599,7598,7934,7935,7942,7941
6376, 7592,7593,7600,7599,7935,7936,7943,7942
6377, 7593,7594,7601,7600,7936,7937,7944,7943
6378, 7594,7595,7602,7601,7937,7938,7945,7944
6379, 7596,7597,7604,7603,7939,7940,7947,7946
6380, 7597,7598,7605,7604,7940,7941,7948,7947
6381, 7598,7599,7606,7605,7941,7942,7949,7948
6382, 7599,7600,7607,7606,7942,7943,7950,7949
6383, 7600,7601,7608,7607,7943,7944,7951,7950
6384, 7601,7602,7609,7608,7944,7945,7952,7951
6385, 7603,7604,7611,7610,7946,7947,7954,7953
6386, 7604,7605,7612,7611,7947,7948,7955,7954
6387, 7605,7606,7613,7612,7948,7949,7956,7955
6388, 7606,7607,7614,7613,7949,7950,7957,7956
6389, 7607,7608,7615,7614,7950,7951,7958,7957
6390, 7608,7609,7616,7615,7951,7952,7959,7958
6391, 7610,7611,7618,7617,7953,7954,7961,7960
6392, 7611,7612,7619,7618,7954,7955,7962,7961
6393, 7612,7613,7620,7619,7955,7956,7963,7962
6394, 7613,7614,7621,7620,7956,7957,7964,7963
6395, 7614,7615,7622,7621,7957,7958,7965,7964
6396, 7615,7616,7623,7622,7958,7959,7966,7965
6397, 7617,7618,7625,7624,7960,7961,7968,7967
6398, 7618,7619,7626,7625,7961,7962,7969,7968
6399, 7619,7620,7627,7626,7962,7963,7970,7969
6400, 7620,7621,7628,7627,7963,7964,7971,7970
6401, 7621,7622,7629,7628,7964,7965,7972,7971
6402, 7622,7623,7630,7629,7965,7966,7973,7972
6403, 7624,7625,7632,7631,7967,7968,7975,7974
6404, 7625,7626,7633,7632,7968,7969,7976,7975
6405, 7626,7627,7634,7633,7969,7970,7977,7976
6406, 7627,7628,7635,7634,7970,7971,7978,7977
6407, 7628,7629,7636,7635,7971,7972,7979,7978
6408, 7629,7630,7637,7636,7972,7973,7980,7979
6409, 7631,7632,7639,7638,7974,7975,7982,7981
6410, 7632,7633,7640,7639,7975,7976,7983,7982
6411, 7633,7634,7641,7640,7976,7977,7984,7983
6412, 7634,7635,7642,7641,7977,7978,7985,7984
6413, 7635,7636,7643,7642,7978,7979,7986,7985
6414, 7636,7637,7644,7643,7979,7980,7987,7986
6415, 7638,7639,7646,7645,7981,7982,7989,7988
6416, 7639,7640,7647,7646,7982,7983,7990,7989
6417, 7640,7641,7648,7647,7983,7984,7991,7990
6418, 7641,7642,7649,7648,7984,7985,7992,7991
6419, 7642,7643,7650,7649,7985,7986,7993,7992
6420, 7643,7644,7651,7650,7986,7987,7994,7993
6421, 7645,7646,7653,7652,7988,7989,7996,7995
6422, 7646,7647,7654,7653,7989,7990,7997,7996
6423, 7647,7648,7655,7654,7990,7991,7998,7997
6424, 7648,7649,7656,7655,7991,7992,7999,7998
6425, 7649,7650,7657,7656,7992,7993,8000,7999
6426, 7650,7651,7658,7657,7993,7994,8001,8000
6427, 7652,7653,7660,7659,7995,7996,8003,8002
6428, 7653,7654,7661,7660,7996,7997,8004,8003
6429, 7654,7655,7662,7661,7997,7998,8005,8004
6430, 7655,7656,7663,7662,7998,7999,8006,8005
6431, 7656,7657,7664,7663,7999,8000,8007,8006
6432, 7657,7658,7665,7664,8000,8001,8008,8007
6433, 7659,7660,7667,7666,8002,8003,8010,8009
6434, 7660,7661,7668,7667,8003,8004,8011,8010
6435, 7661,7662,7669,7668,8004,8005,8012,8011
6436, 7662,7663,7670,7669,8005,8006,8013,8012
6437, 7663,7664,7671,7670,8006,8007,8014,8013
6438, 7664,7665,7672,7671,8007,8008,8015,8014
6439, 7666,7667,7674,7673,8009,8010,8017,8016
6440, 7667,7668,7675,7674,8010,8011,8018,8017
6441, 7668,7669,7676,7675,8011,8012,8019,8018
6442, 7669,7670,7677,7676,8012,8013,8020,8019
6443, 7670,7671,7678,7677,8013,8014,8021,8020
6444, 7671,7672,7679,7678,8014,8015,8022,8021
6445, 7673,7674,7681,7680,8016,8017,8024,8023
6446, 7674,7675,7682,7681,8017,8018,8025,8024
6447, 7675,7676,7683,7682,8018,8019,8026,8025
6448, 7676,7677,7684,7683,8019,8020,8027,8026
6449, 7677,7678,7685,7684,8020,8021,8028,8027
6450, 7678,7679,7686,7685,8021,8022,8029,8028
6451, 7680,7681,7688,7687,8023,8024,8031,8030
6452, 7681,7682,7689,7688,8024,8025,8032,8031
6453, 7682,7683,7690,7689,8025,8026,8033,8032
6454, 7683,7684,7691,7690,8026,8027,8034,8033
6455, 7684,7685,7692,7691,8027,8028,8035,8034
6456, 7685,7686,7693,7692,8028,8029,8036,8035
6457, 7687,7688,7695,7694,8030,8031,8038,8037
6458, 7688,7689,7696,7695,8031,8032,8039,8038
6459, 7689,7690,7697,7696,8032,8033,8040,8039
6460, 7690,7691,7698,7697,8033,8034,8041,8040
6461, 7691,7692,7699,7698,8034,8035,8042,8041
6462, 7692,7693,7700,7699,8035,8036,8043,8042
6463, 7694,7695,7702,7701,8037,8038,8045,8044
6464, 7695,7696,7703,7702,8038,8039,8046,8045
6465, 7696,7697,7704,7703,8039,8040,8047,8046
6466, 7697,7698,7705,7704,8040,8041,8048,8047
6467, 7698,7699,7706,7705,8041,8042,8049,8048
6468, 7699,7700,7707,7706,8042,8043,8050,8049
6469, 7701,7702,7709,7708,8044,8045,8052,8051
6470, 7702,7703,7710,7709,8045,8046,8053,8052
6471, 7703,7704,7711,7710,8046,8047,8054,8053
6472, 7704,7705,7712,7711,8047,8048,8055,8054
6473, 7705,7706,7713,7712,8048,8049,8056,8055
6474, 7706,7707,7714,7713,8049,8050,8057,8056
6475, 7708,7709,7716,7715,8051,8052,8059,8058
6476, 7709,7710,7717,7716,8052,8053,8060,8059
6477, 7710,7711,7718,7717,8053,8054,8061,8060
6478, 7711,7712,7719,7718,8054,8055,8062,8061
6479, 7712,7713,7720,7719,8055,8056,8063,8062
6480, 7713,7714,7721,7720,8056,8057,8064,8063
6481, 7715,7716,7723,7722,8058,8059,8066,8065
6482, 7716,7717,7724,7723,8059,8060,8067,8066
6483, 7717,7718,7725,7724,8060,8061,8068,8067
6484, 7718,7719,7726,7725,8061,8062,8069,8068
6485, 7719,7720,7727,7726,8062,8063,8070,8069
6486, 7720,7721,7728,7727,8063,8064,8071,8070
6487, 7722,7723,7730,7729,8065,8066,8073,8072
6488, 7723,7724,7731,7730,8066,8067,8074,8073
6489, 7724,7725,7732,7731,8067,8068,8075,8074
6490, 7725,7726,7733,7732,8068,8069,8076,8075
6491, 7726,7727,7734,7733,8069,8070,8077,8076
6492, 7727,7728,7735,7734,8070,8071,8078,8077
6493, 7729,7730,7737,7736,8072,8073,8080,8079
6494, 7730,7731,7738,7737,8073,8074,8081,8080
6495, 7731,7732,7739,7738,8074,8075,8082,8081
6496, 7732,7733,7740,7739,8075,8076,8083,8082
6497, 7733,7734,7741,7740,8076,8077,8084,8083
6498, 7734,7735,7742,7741,8077,8078,8085,8084
6499, 7736,7737,7744,7743,8079,8080,8087,8086
6500, 7737,7738,7745,7744,8080,8081,8088,8087
6501, 7738,7739,7746,7745,8081,8082,8089,8088
6502, 7739,7740,7747,7746,8082,8083,8090,8089
6503, 7740,7741,7748,7747,8083,8084,8091,8090
6504, 7741,7742,7749,7748,8084,8085,8092,8091
6505, 7743,7744,7751,7750,8086,8087,8094,8093
6506, 7744,7745,7752,7751,8087,8088,8095,8094
6507, 7745,7746,7753,7752,8088,8089,8096,8095
6508, 7746,7747,7754,7753,8089,8090,8097,8096
6509, 7747,7748,7755,7754,8090,8091,8098,8097
6510, 7748,7749,7756,7755,8091,8092,8099,8098
6511, 7750,7751,7758,7757,8093,8094,8101,8100
6512, 7751,7752,7759,7758,8094,8095,8102,8101
6513, 7752,7753,7760,7759,8095,8096,8103,8102
6514, 7753,7754,7761,7760,8096,8097,8104,8103
6515, 7754,7755,7762,7761,8097,8098,8105,8104
6516, 7755,7756,7763,7762,8098,8099,8106,8105
6517, 7757,7758,7765,7764,8100,8101,8108,8107
6518, 7758,7759,7766,7765,8101,8102,8109,8108
6519, 7759,7760,7767,7766,8102,8103,8110,8109
6520, 7760,7761,7768,7767,8103,8104,8111,8110
6521, 7761,7762,7769,7768,8104,8105,8112,8111
6522, 7762,7763,7770,7769,8105,8106,8113,8112
6523, 7764,7765,7772,7771,8107,8108,8115,8114
6524, 7765,7766,7773,7772,8108,8109,8116,8115
6525, 7766,7767,7774,7773,8109,8110,8117,8116
6526, 7767,7768,7775,7774,8110,8111,8118,8117
6527, 7768,7769,7776,7775,8111,8112,8119,8118
6528, 7769,7770,7777,7776,8112,8113,8120,8119
6529, 7771,7772,7779,7778,8114,8115,8122,8121
6530, 7772,7773,7780,7779,8115,8116,8123,8122
6531, 7773,7774,7781,7780,8116,8117,8124,8123
6532, 7774,7775,7782,7781,8117,8118,8125,8124
6533, 7775,7776,7783,7782,8118,8119,8126,8125
6534, 7776,7777,7784,7783,8119,8120,8127,8126
6535, 7778,7779,7786,7785,8121,8122,8129,8128
6536, 7779,7780,7787,7786,8122,8123,8130,8129
6537, 7780,7781,7788,7787,8123,8124,8131,8130
6538, 7781,7782,7789,7788,8124,8125,8132,8131
6539, 7782,7783,7790,7789,8125,8126,8133,8132
6540, 7783,7784,7791,7790,8126,8127,8134,8133
6541, 7785,7786,7793,7792,8128,8129,8136,8135
6542, 7786,7787,7794,7793,8129,8130,8137,8136
6543, 7787,7788,7795,7794,8130,8131,8138,8137
6544, 7788,7789,7796,7795,8131,8132,8139,8138
6545, 7789,7790,7797,7796,8132,8133,8140,8139
6546, 7790,7791,7798,7797,8133,8134,8141,8140
6547, 7792,7793,7800,7799,8135,8136,8143,8142
6548, 7793,7794,7801,7800,8136,8137,8144,8143
6549, 7794,7795,7802,7801,8137,8138,8145,8144
6550, 7795,7796,7803,7802,8138,8139,8146,8145
6551, 7796,7797,7804,7803,8139,8140,8147,8146
6552, 7797,7798,7805,7804,8140,8141,8148,8147
6553, 7799,7800,7807,7806,8142,8143,8150,8149
6554, 7800,7801,7808,7807,8143,8144,8151,8150
6555, 7801,7802,7809,7808,8144,8145,8152,8151
6556, 7802,7803,7810,7809,8145,8146,8153,8152
6557, 7803,7804,7811,7810,8146,8147,8154,8153
6558, 7804,7805,7812,7811,8147,8148,8155,8154
6559, 7806,7807,7814,7813,8149,8150,8157,8156
6560, 7807,7808,7815,7814,8150,8151,8158,8157
6561, 7808,7809,7816,7815,8151,8152,8159,8158
6562, 7809,7810,7817,7816,8152,8153,8160,8159
6563, 7810,7811,7818,7817,8153,8154,8161,8160
6564, 7811,7812,7819,7818,8154,8155,8162,8161
6565, 7813,7814,7821,7820,8156,8157,8164,8163
6566, 7814,7815,7822,7821,8157,8158,8165,8164
6567, 7815,7816,7823,7822,8158,8159,8166,8165
6568, 7816,7817,7824,7823,8159,8160,8167,8166
6569, 7817,7818,7825,7824,8160,8161,8168,8167
6570, 7818,7819,7826,7825,8161,8162,8169,8168
6571, 7820,7821,7828,7827,8163,8164,8171,8170
6572, 7821,7822,7829,7828,8164,8165,8172,8171
6573, 7822,7823,7830,7829,8165,8166,8173,8172
6574, 7823,7824,7831,7830,8166,8167,8174,8173
6575, 7824,7825,7832,7831,8167,8168,8175,8174
6576, 7825,7826,7833,7832,8168,8169,8176,8175
6577, 7827,7828,7835,7834,8170,8171,8178,8177
6578, 7828,7829,7836,7835,8171,8172,8179,8178
6579, 7829,7830,7837,7836,8172,8173,8180,8179
6580, 7830,7831,7838,7837,8173,8174,8181,8180
6581, 7831,7832,7839,7838,8174,8175,8182,8181
6582, 7832,7833,7840,7839,8175,8176,8183,8182
6583, 7834,7835,7842,7841,8177,8178,8185,8184
6584, 7835,7836,7843,7842,8178,8179,8186,8185
6585, 7836,7837,7844,7843,8179,8180,8187,8186
6586, 7837,7838,7845,7844,8180,8181,8188,8187
6587, 7838,7839,7846,7845,8181,8182,8189,8188
6588, 7839,7840,7847,7846,8182,8183,8190,8189
6589, 7841,7842,7849,7848,8184,8185,8192,8191
6590, 7842,7843,7850,7849,8185,8186,8193,8192
6591, 7843,7844,7851,7850,8186,8187,8194,8193
6592, 7844,7845,7852,7851,8187,8188,8195,8194
6593, 7845,7846,7853,7852,8188,8189,8196,8195
6594, 7846,7847,7854,7853,8189,8190,8197,8196
6595, 7848,7849,7856,7855,8191,8192,8199,8198
6596, 7849,7850,7857,7856,8192,8193,8200,8199
6597, 7850,7851,7858,7857,8193,8194,8201,8200
6598, 7851,7852,7859,7858,8194,8195,8202,8201
6599, 7852,7853,7860,7859,8195,8196,8203,8202
6600, 7853,7854,7861,7860,8196,8197,8204,8203
6601, 7855,7856,7863,7862,8198,8199,8206,8205
6602, 7856,7857,7864,7863,8199,8200,8207,8206
6603, 7857,7858,7865,7864,8200,8201,8208,8207
6604, 7858,7859,7866,7865,8201,8202,8209,8208
6605, 7859,7860,7867,7866,8202,8203,8210,8209
6606, 7860,7861,7868,7867,8203,8204,8211,8210
6607, 7862,7863,7870,7869,8205,8206,8213,8212
6608, 7863,7864,7871,7870,8206,8207,8214,8213
6609, 7864,7865,7872,7871,8207,8208,8215,8214
6610, 7865,7866,7873,7872,8208,8209,8216,8215
6611, 7866,7867,7874,7873,8209,8210,8217,8216
6612, 7867,7868,7875,7874,8210,8211,8218,8217
6613, 7869,7870,7877,7876,8212,8213,8220,8219
6614, 7870,7871,7878,7877,8213,8214,8221,8220
6615, 7871,7872,7879,7878,8214,8215,8222,8221
6616, 7872,7873,7880,7879,8215,8216,8223,8222
6617, 7873,7874,7881,7880,8216,8217,8224,8223
6618, 7874,7875,7882,7881,8217,8218,8225,8224
6619, 7876,7877,7884,7883,8219,8220,8227,8226
6620, 7877,7878,7885,7884,8220,8221,8228,8227
6621, 7878,7879,7886,7885,8221,8222,8229,8228
6622, 7879,7880,7887,7886,8222,8223,8230,8229
6623, 7880,7881,7888,7887,8223,8224,8231,8230
6624, 7881,7882,7889,7888,8224,8225,8232,8231
6625, 7890,7891,7898,7897,8233,8234,8241,8240
6626, 7891,7892,7899,7898,8234,8235,8242,8241
6627, 7892,7893,7900,7899,8235,8236,8243,8242
6628, 7893,7894,7901,7900,8236,8237,8244,8243
6629, 7894,7895,7902,7901,8237,8238,8245,8244
6630, 7895,7896,7903,7902,8238,8239,8246,8245
6631, 7897,7898,7905,7904,8240,8241,8248,8247
6632, 7898,7899,7906,7905,8241,8242,8249,8248
6633, 7899,7900,7907,7906,8242,8243,8250,8249
6634, 7900,7901,7908,7907,8243,8244,8251,8250
6635, 7901,7902,7909,7908,8244,8245,8252,8251
6636, 7902,7903,7910,7909,8245,8246,8253,8252
6637, 7904,7905,7912,7911,8247,8248,8255,8254
6638, 7905,7906,7913,7912,8248,8249,8256,8255
6639, 7906,7907,7914,7913,8249,8250,8257,8256
6640, 7907,7908,7915,7914,8250,8251,8258,8257
6641, 7908,7909,7916,7915,8251,8252,8259,8258
6642, 7909,7910,7917,7916,8252,8253,8260,8259
6643, 7911,7912,7919,7918,8254,8255,8262,8261
6644, 7912,7913,7920,7919,8255,8256,8263,8262
6645, 7913,7914,7921,7920,8256,8257,8264,8263
6646, 7914,7915,7922,7921,8257,8258,8265,8264
6647, 7915,7916,7923,7922,8258,8259,8266,8265
6648, 7916,7917,7924,7923,8259,8260,8267,8266
6649, 7918,7919,7926,7925,8261,8262,8269,8268
6650, 7919,7920,7927,7926,8262,8263,8270,8269
6651, 7920,7921,7928,7927,8263,8264,8271,8270
6652, 7921,7922,7929,7928,8264,8265,8272,8271
6653, 7922,7923,7930,7929,8265,8266,8273,8272
6654, 7923,7924,7931,7930,8266,8267,8274,8273
6655, 7925,7926,7933,7932,8268,8269,8276,8275
6656, 7926,7927,7934,7933,8269,8270,8277,8276
6657, 7927,7928,7935,7934,8270,8271,8278,8277
6658, 7928,7929,7936,7935,8271,8272,8279,8278
6659, 7929,7930,7937,7936,8272,8273,8280,8279
6660, 7930,7931,7938,7937,8273,8274,8281,8280
6661, 7932,7933,7940,7939,8275,8276,8283,8282
6662, 7933,7934,7941,7940,8276,8277,8284,8283
6663, 7934,7935,7942,7941,8277,8278,8285,8284
6664, 7935,7936,7943,7942,8278,8279,8286,8285
6665, 7936,7937,7944,7943,8279,8280,8287,8286
6666, 7937,7938,7945,7944,8280,8281,8288,8287
6667, 7939,7940,7947,7946,8282,8283,8290,8289
6668, 7940,7941,7948,7947,8283,8284,8291,8290
6669, 7941,7942,7949,7948,8284,8285,8292,8291
6670, 7942,7943,7950,7949,8285,8286,8293,8292
6671, 7943,7944,7951,7950,8286,8287,8294,8293
6672, 7944,7945,7952,7951,8287,8288,8295,8294
6673, 7946,7947,7954,7953,8289,8290,8297,8296
6674, 7947,7948,7955,7954,8290,8291,8298,8297
6675, 7948,7949,7956,7955,8291,8292,8299,8298
6676, 7949,7950,7957,7956,8292,8293,8300,8299
6677, 7950,7951,7958,7957,8293,8294,8301,8300
6678, 7951,7952,7959,7958,8294,8295,8302,8301
6679, 7953,7954,7961,7960,8296,8297,8304,8303
6680, 7954,7955,7962,7961,8297,8298,8305,8304
6681, 7955,7956,7963,7962,8298,8299,8306,8305
6682, 7956,7957,7964,7963,8299,8300,8307,8306
6683, 7957,7958,7965,7964,8300,8301,8308,8307
6684, 7958,7959,7966,7965,8301,8302,8309,8308
6685, 7960,7961,7968,7967,8303,8304,8311,8310
6686, 7961,7962,7969,7968,8304,8305,8312,8311
6687, 7962,7963,7970,7969,8305,8306,8313,8312
6688, 7963,7964,7971,7970,8306,8307,8314,8313
6689, 7964,7965,7972,7971,8307,8308,8315,8314
6690, 7965,7966,7973,7972,8308,8309,8316,8315
6691, 7967,7968,7975,7974,8310,8311,8318,8317
6692, 7968,7969,7976,7975,8311,8312,8319,8318
6693, 7969,7970,7977,7976,8312,8313,8320,8319
6694, 7970,7971,7978,7977,8313,8314,8321,8320
6695, 7971,7972,7979,7978,8314,8315,8322,8321
6696, 7972,7973,7980,7979,8315,8316,8323,8322
6697, 7974,7975,7982,7981,8317,8318,8325,8324
6698, 7975,7976,7983,7982,8318,8319,8326,8325
6699, 7976,7977,7984,7983,8319,8320,8327,8326
6700, 7977,7978,7985,7984,8320,8321,8328,8327
6701, 7978,7979,7986,7985,8321,8322,8329,8328
6702, 7979,7980,7987,7986,8322,8323,8330,8329
6703, 7981,7982,7989,7988,8324,8325,8332,8331
6704, 7982,7983,7990,7989,8325,8326,8333,8332
6705, 7983,7984,7991,7990,8326,8327,8334,8333
6706, 7984,7985,7992,7991,8327,8328,8335,8334
6707, 7985,7986,7993,7992,8328,8329,8336,8335
6708, 7986,7987,7994,7993,8329,8330,8337,8336
6709, 7988,7989,7996,7995,8331,8332,8339,8338
6710, 7989,7990,7997,7996,8332,8333,8340,8339
6711, 7990,7991,7998,7997,8333,8334,8341,8340
6712, 7991,7992,7999,7998,8334,8335,8342,8341
6713, 7992,7993,8000,7999,8335,8336,8343,8342
6714, 7993,7994,8001,8000,8336,8337,8344,8343
6715, 7995,7996,8003,8002,8338,8339,8346,8345
6716, 7996,7997,8004,8003,8339,8340,8347,8346
6717, 7997,7998,8005,8004,8340,8341,8348,8347
6718, 7998,7999,8006,8005,8341,8342,8349,8348
6719, 7999,8000,8007,8006,8342,8343,8350,8349
6720, 8000,8001,8008,8007,8343,8344,8351,8350
6721, 8002,8003,8010,8009,8345,8346,8353,8352
6722, 8003,8004,8011,8010,8346,8347,8354,8353
6723, 8004,8005,8012,8011,8347,8348,8355,8354
6724, 8005,8006,8013,8012,8348,8349,8356,8355
6725, 8006,8007,8014,8013,8349,8350,8357,8356
6726, 8007,8008,8015,8014,8350,8351,8358,8357
6727, 8009,8010,8017,8016,8352,8353,8360,8359
6728, 8010,8011,8018,8017,8353,8354,8361,8360
6729, 8011,8012,8019,8018,8354,8355,8362,8361
6730, 8012,8013,8020,8019,8355,8356,8363,8362
6731, 8013,8014,8021,8020,8356,8357,8364,8363
6732, 8014,8015,8022,8021,8357,8358,8365,8364
6733, 8016,8017,8024,8023,8359,8360,8367,8366
6734, 8017,8018,8025,8024,8360,8361,8368,8367
6735, 8018,8019,8026,8025,8361,8362,8369,8368
6736, 8019,8020,8027,8026,8362,8363,8370,8369
6737, 8020,8021,8028,8027,8363,8364,8371,8370
6738, 8021,8022,8029,8028,8364,8365,8372,8371
6739, 8023,8024,8031,8030,8366,8367,8374,8373
6740, 8024,8025,8032,8031,8367,8368,8375,8374
6741, 8025,8026,8033,8032,8368,8369,8376,8375
6742, 8026,8027,8034,8033,8369,8370,8377,8376
6743, 8027,8028,8035,8034,8370,8371,8378,8377
6744, 8028,8029,8036,8035,8371,8372,8379,8378
6745, 8030,8031,8038,8037,8373,8374,8381,8380
6746, 8031,8032,8039,8038,8374,8375,8382,8381
6747, 8032,8033,8040,8039,8375,8376,8383,8382
6748, 8033,8034,8041,8040,8376,8377,8384,8383
6749, 8034,8035,8042,8041,8377,8378,8385,8384
6750, 8035,8036,8043,8042,8378,8379,8386,8385
6751, 8037,8038,8045,8044,8380,8381,8388,8387
6752, 8038,8039,8046,8045,8381,8382,8389,8388
6753, 8039,8040,8047,8046,8382,8383,8390,8389
6754, 8040,8041,8048,8047,8383,8384,8391,8390
6755, 8041,8042,8049,8048,8384,8385,8392,8391
6756, 8042,8043,8050,8049,8385,8386,8393,8392
6757, 8044,8045,8052,8051,8387,8388,8395,8394
6758, 8045,8046,8053,8052,8388,8389,8396,8395
6759, 8046,8047,8054,8053,8389,8390,8397,8396
6760, 8047,8048,8055,8054,8390,8391,8398,8397
6761, 8048,8049,8056,8055,8391,8392,8399,8398
6762, 8049,8050,8057,8056,8392,8393,8400,8399
6763, 8051,8052,8059,8058,8394,8395,8402,8401
6764, 8052,8053,8060,8059,8395,8396,8403,8402
6765, 8053,8054,8061,8060,8396,8397,8404,8403
6766, 8054,8055,8062,8061,8397,8398,8405,8404
6767, 8055,8056,8063,8062,8398,8399,8406,8405
6768, 8056,8057,8064,8063,8399,8400,8407,8406
6769, 8058,8059,8066,8065,8401,8402,8409,8408
6770, 8059,8060,8067,8066,8402,8403,8410,8409
6771, 8060,8061,8068,8067,8403,8404,8411,8410
6772, 8061,8062,8069,8068,8404,8405,8412,8411
6773, 8062,8063,8070,8069,8405,8406,8413,8412
6774, 8063,8064,8071,8070,8406,8407,8414,8413
6775, 8065,8066,8073,8072,8408,8409,8416,8415
6776, 8066,8067,8074,8073,8409,8410,8417,8416
6777, 8067,8068,8075,8074,8410,8411,8418,8417
6778, 8068,8069,8076,8075,8411,8412,8419,8418
6779, 8069,8070,8077,8076,8412,8413,8420,8419
6780, 8070,8071,8078,8077,8413,8414,8421,8420
6781, 8072,8073,8080,8079,8415,8416,8423,8422
6782, 8073,8074,8081,8080,8416,8417,8424,8423
6783, 8074,8075,8082,8081,8417,8418,8425,8424
6784, 8075,8076,8083,8082,8418,8419,8426,8425
6785, 8076,8077,8084,8083,8419,8420,8427,8426
6786, 8077,8078,8085,8084,8420,8421,8428,8427
6787, 8079,8080,8087,8086,8422,8423,8430,8429
6788, 8080,8081,8088,8087,8423,8424,8431,8430
6789, 8081,8082,8089,8088,8424,8425,8432,8431
6790, 8082,8083,8090,8089,8425,8426,8433,8432
6791, 8083,8084,8091,8090,8426,8427,8434,8433
6792, 8084,8085,8092,8091,8427,8428,8435,8434
6793, 8086,8087,8094,8093,8429,8430,8437,8436
6794, 8087,8088,8095,8094,8430,8431,8438,8437
6795, 8088,8089,8096,8095,8431,8432,8439,8438
6796, 8089,8090,8097,8096,8432,8433,8440,8439
6797, 8090,8091,8098,8097,8433,8434,8441,8440
6798, 8091,8092,8099,8098,8434,8435,8442,8441
6799, 8093,8094,8101,8100,8436,8437,8444,8443
6800, 8094,8095,8102,8101,8437,8438,8445,8444
6801, 8095,8096,8103,8102,8438,8439,8446,8445
6802, 8096,8097,8104,8103,8439,8440,8447,8446
6803, 8097,8098,8105,8104,8440,8441,8448,8447
6804, 8098,8099,8106,8105,8441,8442,8449,8448
6805, 8100,8101,8108,8107,8443,8444,8451,8450
6806, 8101,8102,8109,8108,8444,8445,8452,8451
6807, 8102,8103,8110,8109,8445,8446,8453,8452
6808, 8103,8104,8111,8110,8446,8447,8454,8453
6809, 8104,8105,8112,8111,8447,8448,8455,8454
6810, 8105,8106,8113,8112,8448,8449,8456,8455
6811, 8107,8108,8115,8114,8450,8451,8458,8457
6812, 8108,8109,8116,8115,8451,8452,8459,8458
6813, 8109,8110,8117,8116,8452,8453,8460,8459
6814, 8110,8111,8118,8117,8453,8454,8461,8460
6815, 8111,8112,8119,8118,8454,8455,8462,8461
6816, 8112,8113,8120,8119,8455,8456,8463,8462
6817, 8114,8115,8122,8121,8457,8458,8465,8464
6818, 8115,8116,8123,8122,8458,8459,8466,8465
6819, 8116,8117,8124,8123,8459,8460,8467,8466
6820, 8117,8118,8125,8124,8460,8461,8468,8467
6821, 8118,8119,8126,8125,8461,8462,8469,8468
6822, 8119,8120,8127,8126,8462,8463,8470,8469
6823, 8121,8122,8129,8128,8464,8465,8472,8471
6824, 8122,8123,8130,8129,8465,8466,8473,8472
6825, 8123,8124,8131,8130,8466,8467,8474,8473
6826, 8124,8125,8132,8131,8467,8468,8475,8474
6827, 8125,8126,8133,8132,8468,8469,8476,8475
6828, 8126,8127,8134,8133,8469,8470,8477,8476
6829, 8128,8129,8136,8135,8471,8472,8479,8478
6830, 8129,8130,8137,8136,8472,8473,8480,8479
6831, 8130,8131,8138,8137,8473,8474,8481,8480
6832, 8131,8132,8139,8138,8474,8475,8482,8481
6833, 8132,8133,8140,8139,8475,8476,8483,8482
6834, 8133,8134,8141,8140,8476,8477,8484,8483
6835, 8135,8136,8143,8142,8478,8479,8486,8485
6836, 8136,8137,8144,8143,8479,8480,8487,8486
6837, 8137,8138,8145,8144,8480,8481,8488,8487
6838, 8138,8139,8146,8145,8481,8482,8489,8488
6839, 8139,8140,8147,8146,8482,8483,8490,8489
6840, 8140,8141,8148,8147,8483,8484,8491,8490
6841, 8142,8143,8150,8149,8485,8486,8493,8492
6842, 8143,8144,8151,8150,8486,8487,8494,8493
6843, 8144,8145,8152,8151,8487,8488,8495,8494
6844, 8145,8146,8153,8152,8488,8489,8496,8495
6845, 8146,8147,8154,8153,8489,8490,8497,8496
6846, 8147,8148,8155,8154,8490,8491,8498,8497
6847, 8149,8150,8157,8156,8492,8493,8500,8499
6848, 8150,8151,8158,8157,8493,8494,8501,8500
6849, 8151,8152,8159,8158,8494,8495,8502,8501
6850, 8152,8153,8160,8159,8495,8496,8503,8502
6851, 8153,8154,8161,8160,8496,8497,8504,8503
6852, 8154,8155,8162,8161,8497,8498,8505,8504
6853, 8156,8157,8164,8163,8499,8500,8507,8506
6854, 8157,8158,8165,8164,8500,8501,8508,8507
6855, 8158,8159,8166,8165,8501,8502,8509,8508
6856, 8159,8160,8167,8166,8502,8503,8510,8509
6857, 8160,8161,8168,8167,8503,8504,8511,8510
6858, 8161,8162,8169,8168,8504,8505,8512,8511
6859, 8163,8164,8171,8170,8506,8507,8514,8513
6860, 8164,8165,8172,8171,8507,8508,8515,8514
6861, 8165,8166,8173,8172,8508,8509,8516,8515
6862, 8166,8167,8174,8173,8509,8510,8517,8516
6863, 8167,8168,8175,8174,8510,8511,8518,8517
6864, 8168,8169,8176,8175,8511,8512,8519,8518
6865, 8170,8171,8178,8177,8513,8514,8521,8520
6866, 8171,8172,8179,8178,8514,8515,8522,8521
6867, 8172,8173,8180,8179,8515,8516,8523,8522
6868, 8173,8174,8181,8180,8516,8517,8524,8523
6869, 8174,8175,8182,8181,8517,8518,8525,8524
6870, 8175,8176,8183,8182,8518,8519,8526,8525
6871, 8177,8178,8185,8184,8520,8521,8528,8527
6872, 8178,8179,8186,8185,8521,8522,8529,8528
6873, 8179,8180,8187,8186,8522,8523,8530,8529
6874, 8180,8181,8188,8187,8523,8524,8531,8530
6875, 8181,8182,8189,8188,8524,8525,8532,8531
6876, 8182,8183,8190,8189,8525,8526,8533,8532
6877, 8184,8185,8192,8191,8527,8528,8535,8534
6878, 8185,8186,8193,8192,8528,8529,8536,8535
6879, 8186,8187,8194,8193,8529,8530,8537,8536
6880, 8187,8188,8195,8194,8530,8531,8538,8537
6881, 8188,8189,8196,8195,8531,8532,8539,8538
6882, 8189,8190,8197,8196,8532,8533,8540,8539
6883, 8191,8192,8199,8198,8534,8535,8542,8541
6884, 8192,8193,8200,8199,8535,8536,8543,8542
6885, 8193,8194,8201,8200,8536,8537,8544,8543
6886, 8194,8195,8202,8201,8537,8538,8545,8544
6887, 8195,8196,8203,8202,8538,8539,8546,8545
6888, 8196,8197,8204,8203,8539,8540,8547,8546
6889, 8198,8199,8206,8205,8541,8542,8549,8548
6890, 8199,8200,8207,8206,8542,8543,8550,8549
6891, 8200,8201,8208,8207,8543,8544,8551,8550
6892, 8201,8202,8209,8208,8544,8545,8552,8551
6893, 8202,8203,8210,8209,8545,8546,8553,8552
6894, 8203,8204,8211,8210,8546,8547,8554,8553
6895, 8205,8206,8213,8212,8548,8549,8556,8555
6896, 8206,8207,8214,8213,8549,8550,8557,8556
6897, 8207,8208,8215,8214,8550,8551,8558,8557
6898, 8208,8209,8216,8215,8551,8552,8559,8558
6899, 8209,8210,8217,8216,8552,8553,8560,8559
6900, 8210,8211,8218,8217,8553,8554,8561,8560
6901, 8212,8213,8220,8219,8555,8556,8563,8562
6902, 8213,8214,8221,8220,8556,8557,8564,8563
6903, 8214,8215,8222,8221,8557,8558,8565,8564
6904, 8215,8216,8223,8222,8558,8559,8566,8565
6905, 8216,8217,8224,8223,8559,8560,8567,8566
6906, 8217,8218,8225,8224,8560,8561,8568,8567
6907, 8219,8220,8227,8226,8562,8563,8570,8569
6908, 8220,8221,8228,8227,8563,8564,8571,8570
6909, 8221,8222,8229,8228,8564,8565,8572,8571
6910, 8222,8223,8230,8229,8565,8566,8573,8572
6911, 8223,8224,8231,8230,8566,8567,8574,8573
6912, 8224,8225,8232,8231,8567,8568,8575,8574
*Solid Section, Elset=WPElemAll, Material=AISI_304
,
*Elset, Elset=WPElemAll
1, 2, 3, 4, 5, 6, 7, 8, 9, 10, 11, 12, 13, 14, 15, 16, 
17, 18, 19, 20, 21, 22, 23, 24, 25, 26, 27, 28, 29, 30, 31, 32, 
33, 34, 35, 36, 37, 38, 39, 40, 41, 42, 43, 44, 45, 46, 47, 48, 
49, 50, 51, 52, 53, 54, 55, 56, 57, 58, 59, 60, 61, 62, 63, 64, 
65, 66, 67, 68, 69, 70, 71, 72, 73, 74, 75, 76, 77, 78, 79, 80, 
81, 82, 83, 84, 85, 86, 87, 88, 89, 90, 91, 92, 93, 94, 95, 96, 
97, 98, 99, 100, 101, 102, 103, 104, 105, 106, 107, 108, 109, 110, 111, 112, 
113, 114, 115, 116, 117, 118, 119, 120, 121, 122, 123, 124, 125, 126, 127, 128, 
129, 130, 131, 132, 133, 134, 135, 136, 137, 138, 139, 140, 141, 142, 143, 144, 
145, 146, 147, 148, 149, 150, 151, 152, 153, 154, 155, 156, 157, 158, 159, 160, 
161, 162, 163, 164, 165, 166, 167, 168, 169, 170, 171, 172, 173, 174, 175, 176, 
177, 178, 179, 180, 181, 182, 183, 184, 185, 186, 187, 188, 189, 190, 191, 192, 
193, 194, 195, 196, 197, 198, 199, 200, 201, 202, 203, 204, 205, 206, 207, 208, 
209, 210, 211, 212, 213, 214, 215, 216, 217, 218, 219, 220, 221, 222, 223, 224, 
225, 226, 227, 228, 229, 230, 231, 232, 233, 234, 235, 236, 237, 238, 239, 240, 
241, 242, 243, 244, 245, 246, 247, 248, 249, 250, 251, 252, 253, 254, 255, 256, 
257, 258, 259, 260, 261, 262, 263, 264, 265, 266, 267, 268, 269, 270, 271, 272, 
273, 274, 275, 276, 277, 278, 279, 280, 281, 282, 283, 284, 285, 286, 287, 288, 
289, 290, 291, 292, 293, 294, 295, 296, 297, 298, 299, 300, 301, 302, 303, 304, 
305, 306, 307, 308, 309, 310, 311, 312, 313, 314, 315, 316, 317, 318, 319, 320, 
321, 322, 323, 324, 325, 326, 327, 328, 329, 330, 331, 332, 333, 334, 335, 336, 
337, 338, 339, 340, 341, 342, 343, 344, 345, 346, 347, 348, 349, 350, 351, 352, 
353, 354, 355, 356, 357, 358, 359, 360, 361, 362, 363, 364, 365, 366, 367, 368, 
369, 370, 371, 372, 373, 374, 375, 376, 377, 378, 379, 380, 381, 382, 383, 384, 
385, 386, 387, 388, 389, 390, 391, 392, 393, 394, 395, 396, 397, 398, 399, 400, 
401, 402, 403, 404, 405, 406, 407, 408, 409, 410, 411, 412, 413, 414, 415, 416, 
417, 418, 419, 420, 421, 422, 423, 424, 425, 426, 427, 428, 429, 430, 431, 432, 
433, 434, 435, 436, 437, 438, 439, 440, 441, 442, 443, 444, 445, 446, 447, 448, 
449, 450, 451, 452, 453, 454, 455, 456, 457, 458, 459, 460, 461, 462, 463, 464, 
465, 466, 467, 468, 469, 470, 471, 472, 473, 474, 475, 476, 477, 478, 479, 480, 
481, 482, 483, 484, 485, 486, 487, 488, 489, 490, 491, 492, 493, 494, 495, 496, 
497, 498, 499, 500, 501, 502, 503, 504, 505, 506, 507, 508, 509, 510, 511, 512, 
513, 514, 515, 516, 517, 518, 519, 520, 521, 522, 523, 524, 525, 526, 527, 528, 
529, 530, 531, 532, 533, 534, 535, 536, 537, 538, 539, 540, 541, 542, 543, 544, 
545, 546, 547, 548, 549, 550, 551, 552, 553, 554, 555, 556, 557, 558, 559, 560, 
561, 562, 563, 564, 565, 566, 567, 568, 569, 570, 571, 572, 573, 574, 575, 576, 
577, 578, 579, 580, 581, 582, 583, 584, 585, 586, 587, 588, 589, 590, 591, 592, 
593, 594, 595, 596, 597, 598, 599, 600, 601, 602, 603, 604, 605, 606, 607, 608, 
609, 610, 611, 612, 613, 614, 615, 616, 617, 618, 619, 620, 621, 622, 623, 624, 
625, 626, 627, 628, 629, 630, 631, 632, 633, 634, 635, 636, 637, 638, 639, 640, 
641, 642, 643, 644, 645, 646, 647, 648, 649, 650, 651, 652, 653, 654, 655, 656, 
657, 658, 659, 660, 661, 662, 663, 664, 665, 666, 667, 668, 669, 670, 671, 672, 
673, 674, 675, 676, 677, 678, 679, 680, 681, 682, 683, 684, 685, 686, 687, 688, 
689, 690, 691, 692, 693, 694, 695, 696, 697, 698, 699, 700, 701, 702, 703, 704, 
705, 706, 707, 708, 709, 710, 711, 712, 713, 714, 715, 716, 717, 718, 719, 720, 
721, 722, 723, 724, 725, 726, 727, 728, 729, 730, 731, 732, 733, 734, 735, 736, 
737, 738, 739, 740, 741, 742, 743, 744, 745, 746, 747, 748, 749, 750, 751, 752, 
753, 754, 755, 756, 757, 758, 759, 760, 761, 762, 763, 764, 765, 766, 767, 768, 
769, 770, 771, 772, 773, 774, 775, 776, 777, 778, 779, 780, 781, 782, 783, 784, 
785, 786, 787, 788, 789, 790, 791, 792, 793, 794, 795, 796, 797, 798, 799, 800, 
801, 802, 803, 804, 805, 806, 807, 808, 809, 810, 811, 812, 813, 814, 815, 816, 
817, 818, 819, 820, 821, 822, 823, 824, 825, 826, 827, 828, 829, 830, 831, 832, 
833, 834, 835, 836, 837, 838, 839, 840, 841, 842, 843, 844, 845, 846, 847, 848, 
849, 850, 851, 852, 853, 854, 855, 856, 857, 858, 859, 860, 861, 862, 863, 864, 
865, 866, 867, 868, 869, 870, 871, 872, 873, 874, 875, 876, 877, 878, 879, 880, 
881, 882, 883, 884, 885, 886, 887, 888, 889, 890, 891, 892, 893, 894, 895, 896, 
897, 898, 899, 900, 901, 902, 903, 904, 905, 906, 907, 908, 909, 910, 911, 912, 
913, 914, 915, 916, 917, 918, 919, 920, 921, 922, 923, 924, 925, 926, 927, 928, 
929, 930, 931, 932, 933, 934, 935, 936, 937, 938, 939, 940, 941, 942, 943, 944, 
945, 946, 947, 948, 949, 950, 951, 952, 953, 954, 955, 956, 957, 958, 959, 960, 
961, 962, 963, 964, 965, 966, 967, 968, 969, 970, 971, 972, 973, 974, 975, 976, 
977, 978, 979, 980, 981, 982, 983, 984, 985, 986, 987, 988, 989, 990, 991, 992, 
993, 994, 995, 996, 997, 998, 999, 1000, 1001, 1002, 1003, 1004, 1005, 1006, 1007, 1008, 
1009, 1010, 1011, 1012, 1013, 1014, 1015, 1016, 1017, 1018, 1019, 1020, 1021, 1022, 1023, 1024, 
1025, 1026, 1027, 1028, 1029, 1030, 1031, 1032, 1033, 1034, 1035, 1036, 1037, 1038, 1039, 1040, 
1041, 1042, 1043, 1044, 1045, 1046, 1047, 1048, 1049, 1050, 1051, 1052, 1053, 1054, 1055, 1056, 
1057, 1058, 1059, 1060, 1061, 1062, 1063, 1064, 1065, 1066, 1067, 1068, 1069, 1070, 1071, 1072, 
1073, 1074, 1075, 1076, 1077, 1078, 1079, 1080, 1081, 1082, 1083, 1084, 1085, 1086, 1087, 1088, 
1089, 1090, 1091, 1092, 1093, 1094, 1095, 1096, 1097, 1098, 1099, 1100, 1101, 1102, 1103, 1104, 
1105, 1106, 1107, 1108, 1109, 1110, 1111, 1112, 1113, 1114, 1115, 1116, 1117, 1118, 1119, 1120, 
1121, 1122, 1123, 1124, 1125, 1126, 1127, 1128, 1129, 1130, 1131, 1132, 1133, 1134, 1135, 1136, 
1137, 1138, 1139, 1140, 1141, 1142, 1143, 1144, 1145, 1146, 1147, 1148, 1149, 1150, 1151, 1152, 
1153, 1154, 1155, 1156, 1157, 1158, 1159, 1160, 1161, 1162, 1163, 1164, 1165, 1166, 1167, 1168, 
1169, 1170, 1171, 1172, 1173, 1174, 1175, 1176, 1177, 1178, 1179, 1180, 1181, 1182, 1183, 1184, 
1185, 1186, 1187, 1188, 1189, 1190, 1191, 1192, 1193, 1194, 1195, 1196, 1197, 1198, 1199, 1200, 
1201, 1202, 1203, 1204, 1205, 1206, 1207, 1208, 1209, 1210, 1211, 1212, 1213, 1214, 1215, 1216, 
1217, 1218, 1219, 1220, 1221, 1222, 1223, 1224, 1225, 1226, 1227, 1228, 1229, 1230, 1231, 1232, 
1233, 1234, 1235, 1236, 1237, 1238, 1239, 1240, 1241, 1242, 1243, 1244, 1245, 1246, 1247, 1248, 
1249, 1250, 1251, 1252, 1253, 1254, 1255, 1256, 1257, 1258, 1259, 1260, 1261, 1262, 1263, 1264, 
1265, 1266, 1267, 1268, 1269, 1270, 1271, 1272, 1273, 1274, 1275, 1276, 1277, 1278, 1279, 1280, 
1281, 1282, 1283, 1284, 1285, 1286, 1287, 1288, 1289, 1290, 1291, 1292, 1293, 1294, 1295, 1296, 
1297, 1298, 1299, 1300, 1301, 1302, 1303, 1304, 1305, 1306, 1307, 1308, 1309, 1310, 1311, 1312, 
1313, 1314, 1315, 1316, 1317, 1318, 1319, 1320, 1321, 1322, 1323, 1324, 1325, 1326, 1327, 1328, 
1329, 1330, 1331, 1332, 1333, 1334, 1335, 1336, 1337, 1338, 1339, 1340, 1341, 1342, 1343, 1344, 
1345, 1346, 1347, 1348, 1349, 1350, 1351, 1352, 1353, 1354, 1355, 1356, 1357, 1358, 1359, 1360, 
1361, 1362, 1363, 1364, 1365, 1366, 1367, 1368, 1369, 1370, 1371, 1372, 1373, 1374, 1375, 1376, 
1377, 1378, 1379, 1380, 1381, 1382, 1383, 1384, 1385, 1386, 1387, 1388, 1389, 1390, 1391, 1392, 
1393, 1394, 1395, 1396, 1397, 1398, 1399, 1400, 1401, 1402, 1403, 1404, 1405, 1406, 1407, 1408, 
1409, 1410, 1411, 1412, 1413, 1414, 1415, 1416, 1417, 1418, 1419, 1420, 1421, 1422, 1423, 1424, 
1425, 1426, 1427, 1428, 1429, 1430, 1431, 1432, 1433, 1434, 1435, 1436, 1437, 1438, 1439, 1440, 
1441, 1442, 1443, 1444, 1445, 1446, 1447, 1448, 1449, 1450, 1451, 1452, 1453, 1454, 1455, 1456, 
1457, 1458, 1459, 1460, 1461, 1462, 1463, 1464, 1465, 1466, 1467, 1468, 1469, 1470, 1471, 1472, 
1473, 1474, 1475, 1476, 1477, 1478, 1479, 1480, 1481, 1482, 1483, 1484, 1485, 1486, 1487, 1488, 
1489, 1490, 1491, 1492, 1493, 1494, 1495, 1496, 1497, 1498, 1499, 1500, 1501, 1502, 1503, 1504, 
1505, 1506, 1507, 1508, 1509, 1510, 1511, 1512, 1513, 1514, 1515, 1516, 1517, 1518, 1519, 1520, 
1521, 1522, 1523, 1524, 1525, 1526, 1527, 1528, 1529, 1530, 1531, 1532, 1533, 1534, 1535, 1536, 
1537, 1538, 1539, 1540, 1541, 1542, 1543, 1544, 1545, 1546, 1547, 1548, 1549, 1550, 1551, 1552, 
1553, 1554, 1555, 1556, 1557, 1558, 1559, 1560, 1561, 1562, 1563, 1564, 1565, 1566, 1567, 1568, 
1569, 1570, 1571, 1572, 1573, 1574, 1575, 1576, 1577, 1578, 1579, 1580, 1581, 1582, 1583, 1584, 
1585, 1586, 1587, 1588, 1589, 1590, 1591, 1592, 1593, 1594, 1595, 1596, 1597, 1598, 1599, 1600, 
1601, 1602, 1603, 1604, 1605, 1606, 1607, 1608, 1609, 1610, 1611, 1612, 1613, 1614, 1615, 1616, 
1617, 1618, 1619, 1620, 1621, 1622, 1623, 1624, 1625, 1626, 1627, 1628, 1629, 1630, 1631, 1632, 
1633, 1634, 1635, 1636, 1637, 1638, 1639, 1640, 1641, 1642, 1643, 1644, 1645, 1646, 1647, 1648, 
1649, 1650, 1651, 1652, 1653, 1654, 1655, 1656, 1657, 1658, 1659, 1660, 1661, 1662, 1663, 1664, 
1665, 1666, 1667, 1668, 1669, 1670, 1671, 1672, 1673, 1674, 1675, 1676, 1677, 1678, 1679, 1680, 
1681, 1682, 1683, 1684, 1685, 1686, 1687, 1688, 1689, 1690, 1691, 1692, 1693, 1694, 1695, 1696, 
1697, 1698, 1699, 1700, 1701, 1702, 1703, 1704, 1705, 1706, 1707, 1708, 1709, 1710, 1711, 1712, 
1713, 1714, 1715, 1716, 1717, 1718, 1719, 1720, 1721, 1722, 1723, 1724, 1725, 1726, 1727, 1728, 
1729, 1730, 1731, 1732, 1733, 1734, 1735, 1736, 1737, 1738, 1739, 1740, 1741, 1742, 1743, 1744, 
1745, 1746, 1747, 1748, 1749, 1750, 1751, 1752, 1753, 1754, 1755, 1756, 1757, 1758, 1759, 1760, 
1761, 1762, 1763, 1764, 1765, 1766, 1767, 1768, 1769, 1770, 1771, 1772, 1773, 1774, 1775, 1776, 
1777, 1778, 1779, 1780, 1781, 1782, 1783, 1784, 1785, 1786, 1787, 1788, 1789, 1790, 1791, 1792, 
1793, 1794, 1795, 1796, 1797, 1798, 1799, 1800, 1801, 1802, 1803, 1804, 1805, 1806, 1807, 1808, 
1809, 1810, 1811, 1812, 1813, 1814, 1815, 1816, 1817, 1818, 1819, 1820, 1821, 1822, 1823, 1824, 
1825, 1826, 1827, 1828, 1829, 1830, 1831, 1832, 1833, 1834, 1835, 1836, 1837, 1838, 1839, 1840, 
1841, 1842, 1843, 1844, 1845, 1846, 1847, 1848, 1849, 1850, 1851, 1852, 1853, 1854, 1855, 1856, 
1857, 1858, 1859, 1860, 1861, 1862, 1863, 1864, 1865, 1866, 1867, 1868, 1869, 1870, 1871, 1872, 
1873, 1874, 1875, 1876, 1877, 1878, 1879, 1880, 1881, 1882, 1883, 1884, 1885, 1886, 1887, 1888, 
1889, 1890, 1891, 1892, 1893, 1894, 1895, 1896, 1897, 1898, 1899, 1900, 1901, 1902, 1903, 1904, 
1905, 1906, 1907, 1908, 1909, 1910, 1911, 1912, 1913, 1914, 1915, 1916, 1917, 1918, 1919, 1920, 
1921, 1922, 1923, 1924, 1925, 1926, 1927, 1928, 1929, 1930, 1931, 1932, 1933, 1934, 1935, 1936, 
1937, 1938, 1939, 1940, 1941, 1942, 1943, 1944, 1945, 1946, 1947, 1948, 1949, 1950, 1951, 1952, 
1953, 1954, 1955, 1956, 1957, 1958, 1959, 1960, 1961, 1962, 1963, 1964, 1965, 1966, 1967, 1968, 
1969, 1970, 1971, 1972, 1973, 1974, 1975, 1976, 1977, 1978, 1979, 1980, 1981, 1982, 1983, 1984, 
1985, 1986, 1987, 1988, 1989, 1990, 1991, 1992, 1993, 1994, 1995, 1996, 1997, 1998, 1999, 2000, 
2001, 2002, 2003, 2004, 2005, 2006, 2007, 2008, 2009, 2010, 2011, 2012, 2013, 2014, 2015, 2016, 
2017, 2018, 2019, 2020, 2021, 2022, 2023, 2024, 2025, 2026, 2027, 2028, 2029, 2030, 2031, 2032, 
2033, 2034, 2035, 2036, 2037, 2038, 2039, 2040, 2041, 2042, 2043, 2044, 2045, 2046, 2047, 2048, 
2049, 2050, 2051, 2052, 2053, 2054, 2055, 2056, 2057, 2058, 2059, 2060, 2061, 2062, 2063, 2064, 
2065, 2066, 2067, 2068, 2069, 2070, 2071, 2072, 2073, 2074, 2075, 2076, 2077, 2078, 2079, 2080, 
2081, 2082, 2083, 2084, 2085, 2086, 2087, 2088, 2089, 2090, 2091, 2092, 2093, 2094, 2095, 2096, 
2097, 2098, 2099, 2100, 2101, 2102, 2103, 2104, 2105, 2106, 2107, 2108, 2109, 2110, 2111, 2112, 
2113, 2114, 2115, 2116, 2117, 2118, 2119, 2120, 2121, 2122, 2123, 2124, 2125, 2126, 2127, 2128, 
2129, 2130, 2131, 2132, 2133, 2134, 2135, 2136, 2137, 2138, 2139, 2140, 2141, 2142, 2143, 2144, 
2145, 2146, 2147, 2148, 2149, 2150, 2151, 2152, 2153, 2154, 2155, 2156, 2157, 2158, 2159, 2160, 
2161, 2162, 2163, 2164, 2165, 2166, 2167, 2168, 2169, 2170, 2171, 2172, 2173, 2174, 2175, 2176, 
2177, 2178, 2179, 2180, 2181, 2182, 2183, 2184, 2185, 2186, 2187, 2188, 2189, 2190, 2191, 2192, 
2193, 2194, 2195, 2196, 2197, 2198, 2199, 2200, 2201, 2202, 2203, 2204, 2205, 2206, 2207, 2208, 
2209, 2210, 2211, 2212, 2213, 2214, 2215, 2216, 2217, 2218, 2219, 2220, 2221, 2222, 2223, 2224, 
2225, 2226, 2227, 2228, 2229, 2230, 2231, 2232, 2233, 2234, 2235, 2236, 2237, 2238, 2239, 2240, 
2241, 2242, 2243, 2244, 2245, 2246, 2247, 2248, 2249, 2250, 2251, 2252, 2253, 2254, 2255, 2256, 
2257, 2258, 2259, 2260, 2261, 2262, 2263, 2264, 2265, 2266, 2267, 2268, 2269, 2270, 2271, 2272, 
2273, 2274, 2275, 2276, 2277, 2278, 2279, 2280, 2281, 2282, 2283, 2284, 2285, 2286, 2287, 2288, 
2289, 2290, 2291, 2292, 2293, 2294, 2295, 2296, 2297, 2298, 2299, 2300, 2301, 2302, 2303, 2304, 
2305, 2306, 2307, 2308, 2309, 2310, 2311, 2312, 2313, 2314, 2315, 2316, 2317, 2318, 2319, 2320, 
2321, 2322, 2323, 2324, 2325, 2326, 2327, 2328, 2329, 2330, 2331, 2332, 2333, 2334, 2335, 2336, 
2337, 2338, 2339, 2340, 2341, 2342, 2343, 2344, 2345, 2346, 2347, 2348, 2349, 2350, 2351, 2352, 
2353, 2354, 2355, 2356, 2357, 2358, 2359, 2360, 2361, 2362, 2363, 2364, 2365, 2366, 2367, 2368, 
2369, 2370, 2371, 2372, 2373, 2374, 2375, 2376, 2377, 2378, 2379, 2380, 2381, 2382, 2383, 2384, 
2385, 2386, 2387, 2388, 2389, 2390, 2391, 2392, 2393, 2394, 2395, 2396, 2397, 2398, 2399, 2400, 
2401, 2402, 2403, 2404, 2405, 2406, 2407, 2408, 2409, 2410, 2411, 2412, 2413, 2414, 2415, 2416, 
2417, 2418, 2419, 2420, 2421, 2422, 2423, 2424, 2425, 2426, 2427, 2428, 2429, 2430, 2431, 2432, 
2433, 2434, 2435, 2436, 2437, 2438, 2439, 2440, 2441, 2442, 2443, 2444, 2445, 2446, 2447, 2448, 
2449, 2450, 2451, 2452, 2453, 2454, 2455, 2456, 2457, 2458, 2459, 2460, 2461, 2462, 2463, 2464, 
2465, 2466, 2467, 2468, 2469, 2470, 2471, 2472, 2473, 2474, 2475, 2476, 2477, 2478, 2479, 2480, 
2481, 2482, 2483, 2484, 2485, 2486, 2487, 2488, 2489, 2490, 2491, 2492, 2493, 2494, 2495, 2496, 
2497, 2498, 2499, 2500, 2501, 2502, 2503, 2504, 2505, 2506, 2507, 2508, 2509, 2510, 2511, 2512, 
2513, 2514, 2515, 2516, 2517, 2518, 2519, 2520, 2521, 2522, 2523, 2524, 2525, 2526, 2527, 2528, 
2529, 2530, 2531, 2532, 2533, 2534, 2535, 2536, 2537, 2538, 2539, 2540, 2541, 2542, 2543, 2544, 
2545, 2546, 2547, 2548, 2549, 2550, 2551, 2552, 2553, 2554, 2555, 2556, 2557, 2558, 2559, 2560, 
2561, 2562, 2563, 2564, 2565, 2566, 2567, 2568, 2569, 2570, 2571, 2572, 2573, 2574, 2575, 2576, 
2577, 2578, 2579, 2580, 2581, 2582, 2583, 2584, 2585, 2586, 2587, 2588, 2589, 2590, 2591, 2592, 
2593, 2594, 2595, 2596, 2597, 2598, 2599, 2600, 2601, 2602, 2603, 2604, 2605, 2606, 2607, 2608, 
2609, 2610, 2611, 2612, 2613, 2614, 2615, 2616, 2617, 2618, 2619, 2620, 2621, 2622, 2623, 2624, 
2625, 2626, 2627, 2628, 2629, 2630, 2631, 2632, 2633, 2634, 2635, 2636, 2637, 2638, 2639, 2640, 
2641, 2642, 2643, 2644, 2645, 2646, 2647, 2648, 2649, 2650, 2651, 2652, 2653, 2654, 2655, 2656, 
2657, 2658, 2659, 2660, 2661, 2662, 2663, 2664, 2665, 2666, 2667, 2668, 2669, 2670, 2671, 2672, 
2673, 2674, 2675, 2676, 2677, 2678, 2679, 2680, 2681, 2682, 2683, 2684, 2685, 2686, 2687, 2688, 
2689, 2690, 2691, 2692, 2693, 2694, 2695, 2696, 2697, 2698, 2699, 2700, 2701, 2702, 2703, 2704, 
2705, 2706, 2707, 2708, 2709, 2710, 2711, 2712, 2713, 2714, 2715, 2716, 2717, 2718, 2719, 2720, 
2721, 2722, 2723, 2724, 2725, 2726, 2727, 2728, 2729, 2730, 2731, 2732, 2733, 2734, 2735, 2736, 
2737, 2738, 2739, 2740, 2741, 2742, 2743, 2744, 2745, 2746, 2747, 2748, 2749, 2750, 2751, 2752, 
2753, 2754, 2755, 2756, 2757, 2758, 2759, 2760, 2761, 2762, 2763, 2764, 2765, 2766, 2767, 2768, 
2769, 2770, 2771, 2772, 2773, 2774, 2775, 2776, 2777, 2778, 2779, 2780, 2781, 2782, 2783, 2784, 
2785, 2786, 2787, 2788, 2789, 2790, 2791, 2792, 2793, 2794, 2795, 2796, 2797, 2798, 2799, 2800, 
2801, 2802, 2803, 2804, 2805, 2806, 2807, 2808, 2809, 2810, 2811, 2812, 2813, 2814, 2815, 2816, 
2817, 2818, 2819, 2820, 2821, 2822, 2823, 2824, 2825, 2826, 2827, 2828, 2829, 2830, 2831, 2832, 
2833, 2834, 2835, 2836, 2837, 2838, 2839, 2840, 2841, 2842, 2843, 2844, 2845, 2846, 2847, 2848, 
2849, 2850, 2851, 2852, 2853, 2854, 2855, 2856, 2857, 2858, 2859, 2860, 2861, 2862, 2863, 2864, 
2865, 2866, 2867, 2868, 2869, 2870, 2871, 2872, 2873, 2874, 2875, 2876, 2877, 2878, 2879, 2880, 
2881, 2882, 2883, 2884, 2885, 2886, 2887, 2888, 2889, 2890, 2891, 2892, 2893, 2894, 2895, 2896, 
2897, 2898, 2899, 2900, 2901, 2902, 2903, 2904, 2905, 2906, 2907, 2908, 2909, 2910, 2911, 2912, 
2913, 2914, 2915, 2916, 2917, 2918, 2919, 2920, 2921, 2922, 2923, 2924, 2925, 2926, 2927, 2928, 
2929, 2930, 2931, 2932, 2933, 2934, 2935, 2936, 2937, 2938, 2939, 2940, 2941, 2942, 2943, 2944, 
2945, 2946, 2947, 2948, 2949, 2950, 2951, 2952, 2953, 2954, 2955, 2956, 2957, 2958, 2959, 2960, 
2961, 2962, 2963, 2964, 2965, 2966, 2967, 2968, 2969, 2970, 2971, 2972, 2973, 2974, 2975, 2976, 
2977, 2978, 2979, 2980, 2981, 2982, 2983, 2984, 2985, 2986, 2987, 2988, 2989, 2990, 2991, 2992, 
2993, 2994, 2995, 2996, 2997, 2998, 2999, 3000, 3001, 3002, 3003, 3004, 3005, 3006, 3007, 3008, 
3009, 3010, 3011, 3012, 3013, 3014, 3015, 3016, 3017, 3018, 3019, 3020, 3021, 3022, 3023, 3024, 
3025, 3026, 3027, 3028, 3029, 3030, 3031, 3032, 3033, 3034, 3035, 3036, 3037, 3038, 3039, 3040, 
3041, 3042, 3043, 3044, 3045, 3046, 3047, 3048, 3049, 3050, 3051, 3052, 3053, 3054, 3055, 3056, 
3057, 3058, 3059, 3060, 3061, 3062, 3063, 3064, 3065, 3066, 3067, 3068, 3069, 3070, 3071, 3072, 
3073, 3074, 3075, 3076, 3077, 3078, 3079, 3080, 3081, 3082, 3083, 3084, 3085, 3086, 3087, 3088, 
3089, 3090, 3091, 3092, 3093, 3094, 3095, 3096, 3097, 3098, 3099, 3100, 3101, 3102, 3103, 3104, 
3105, 3106, 3107, 3108, 3109, 3110, 3111, 3112, 3113, 3114, 3115, 3116, 3117, 3118, 3119, 3120, 
3121, 3122, 3123, 3124, 3125, 3126, 3127, 3128, 3129, 3130, 3131, 3132, 3133, 3134, 3135, 3136, 
3137, 3138, 3139, 3140, 3141, 3142, 3143, 3144, 3145, 3146, 3147, 3148, 3149, 3150, 3151, 3152, 
3153, 3154, 3155, 3156, 3157, 3158, 3159, 3160, 3161, 3162, 3163, 3164, 3165, 3166, 3167, 3168, 
3169, 3170, 3171, 3172, 3173, 3174, 3175, 3176, 3177, 3178, 3179, 3180, 3181, 3182, 3183, 3184, 
3185, 3186, 3187, 3188, 3189, 3190, 3191, 3192, 3193, 3194, 3195, 3196, 3197, 3198, 3199, 3200, 
3201, 3202, 3203, 3204, 3205, 3206, 3207, 3208, 3209, 3210, 3211, 3212, 3213, 3214, 3215, 3216, 
3217, 3218, 3219, 3220, 3221, 3222, 3223, 3224, 3225, 3226, 3227, 3228, 3229, 3230, 3231, 3232, 
3233, 3234, 3235, 3236, 3237, 3238, 3239, 3240, 3241, 3242, 3243, 3244, 3245, 3246, 3247, 3248, 
3249, 3250, 3251, 3252, 3253, 3254, 3255, 3256, 3257, 3258, 3259, 3260, 3261, 3262, 3263, 3264, 
3265, 3266, 3267, 3268, 3269, 3270, 3271, 3272, 3273, 3274, 3275, 3276, 3277, 3278, 3279, 3280, 
3281, 3282, 3283, 3284, 3285, 3286, 3287, 3288, 3289, 3290, 3291, 3292, 3293, 3294, 3295, 3296, 
3297, 3298, 3299, 3300, 3301, 3302, 3303, 3304, 3305, 3306, 3307, 3308, 3309, 3310, 3311, 3312, 
3313, 3314, 3315, 3316, 3317, 3318, 3319, 3320, 3321, 3322, 3323, 3324, 3325, 3326, 3327, 3328, 
3329, 3330, 3331, 3332, 3333, 3334, 3335, 3336, 3337, 3338, 3339, 3340, 3341, 3342, 3343, 3344, 
3345, 3346, 3347, 3348, 3349, 3350, 3351, 3352, 3353, 3354, 3355, 3356, 3357, 3358, 3359, 3360, 
3361, 3362, 3363, 3364, 3365, 3366, 3367, 3368, 3369, 3370, 3371, 3372, 3373, 3374, 3375, 3376, 
3377, 3378, 3379, 3380, 3381, 3382, 3383, 3384, 3385, 3386, 3387, 3388, 3389, 3390, 3391, 3392, 
3393, 3394, 3395, 3396, 3397, 3398, 3399, 3400, 3401, 3402, 3403, 3404, 3405, 3406, 3407, 3408, 
3409, 3410, 3411, 3412, 3413, 3414, 3415, 3416, 3417, 3418, 3419, 3420, 3421, 3422, 3423, 3424, 
3425, 3426, 3427, 3428, 3429, 3430, 3431, 3432, 3433, 3434, 3435, 3436, 3437, 3438, 3439, 3440, 
3441, 3442, 3443, 3444, 3445, 3446, 3447, 3448, 3449, 3450, 3451, 3452, 3453, 3454, 3455, 3456, 
3457, 3458, 3459, 3460, 3461, 3462, 3463, 3464, 3465, 3466, 3467, 3468, 3469, 3470, 3471, 3472, 
3473, 3474, 3475, 3476, 3477, 3478, 3479, 3480, 3481, 3482, 3483, 3484, 3485, 3486, 3487, 3488, 
3489, 3490, 3491, 3492, 3493, 3494, 3495, 3496, 3497, 3498, 3499, 3500, 3501, 3502, 3503, 3504, 
3505, 3506, 3507, 3508, 3509, 3510, 3511, 3512, 3513, 3514, 3515, 3516, 3517, 3518, 3519, 3520, 
3521, 3522, 3523, 3524, 3525, 3526, 3527, 3528, 3529, 3530, 3531, 3532, 3533, 3534, 3535, 3536, 
3537, 3538, 3539, 3540, 3541, 3542, 3543, 3544, 3545, 3546, 3547, 3548, 3549, 3550, 3551, 3552, 
3553, 3554, 3555, 3556, 3557, 3558, 3559, 3560, 3561, 3562, 3563, 3564, 3565, 3566, 3567, 3568, 
3569, 3570, 3571, 3572, 3573, 3574, 3575, 3576, 3577, 3578, 3579, 3580, 3581, 3582, 3583, 3584, 
3585, 3586, 3587, 3588, 3589, 3590, 3591, 3592, 3593, 3594, 3595, 3596, 3597, 3598, 3599, 3600, 
3601, 3602, 3603, 3604, 3605, 3606, 3607, 3608, 3609, 3610, 3611, 3612, 3613, 3614, 3615, 3616, 
3617, 3618, 3619, 3620, 3621, 3622, 3623, 3624, 3625, 3626, 3627, 3628, 3629, 3630, 3631, 3632, 
3633, 3634, 3635, 3636, 3637, 3638, 3639, 3640, 3641, 3642, 3643, 3644, 3645, 3646, 3647, 3648, 
3649, 3650, 3651, 3652, 3653, 3654, 3655, 3656, 3657, 3658, 3659, 3660, 3661, 3662, 3663, 3664, 
3665, 3666, 3667, 3668, 3669, 3670, 3671, 3672, 3673, 3674, 3675, 3676, 3677, 3678, 3679, 3680, 
3681, 3682, 3683, 3684, 3685, 3686, 3687, 3688, 3689, 3690, 3691, 3692, 3693, 3694, 3695, 3696, 
3697, 3698, 3699, 3700, 3701, 3702, 3703, 3704, 3705, 3706, 3707, 3708, 3709, 3710, 3711, 3712, 
3713, 3714, 3715, 3716, 3717, 3718, 3719, 3720, 3721, 3722, 3723, 3724, 3725, 3726, 3727, 3728, 
3729, 3730, 3731, 3732, 3733, 3734, 3735, 3736, 3737, 3738, 3739, 3740, 3741, 3742, 3743, 3744, 
3745, 3746, 3747, 3748, 3749, 3750, 3751, 3752, 3753, 3754, 3755, 3756, 3757, 3758, 3759, 3760, 
3761, 3762, 3763, 3764, 3765, 3766, 3767, 3768, 3769, 3770, 3771, 3772, 3773, 3774, 3775, 3776, 
3777, 3778, 3779, 3780, 3781, 3782, 3783, 3784, 3785, 3786, 3787, 3788, 3789, 3790, 3791, 3792, 
3793, 3794, 3795, 3796, 3797, 3798, 3799, 3800, 3801, 3802, 3803, 3804, 3805, 3806, 3807, 3808, 
3809, 3810, 3811, 3812, 3813, 3814, 3815, 3816, 3817, 3818, 3819, 3820, 3821, 3822, 3823, 3824, 
3825, 3826, 3827, 3828, 3829, 3830, 3831, 3832, 3833, 3834, 3835, 3836, 3837, 3838, 3839, 3840, 
3841, 3842, 3843, 3844, 3845, 3846, 3847, 3848, 3849, 3850, 3851, 3852, 3853, 3854, 3855, 3856, 
3857, 3858, 3859, 3860, 3861, 3862, 3863, 3864, 3865, 3866, 3867, 3868, 3869, 3870, 3871, 3872, 
3873, 3874, 3875, 3876, 3877, 3878, 3879, 3880, 3881, 3882, 3883, 3884, 3885, 3886, 3887, 3888, 
3889, 3890, 3891, 3892, 3893, 3894, 3895, 3896, 3897, 3898, 3899, 3900, 3901, 3902, 3903, 3904, 
3905, 3906, 3907, 3908, 3909, 3910, 3911, 3912, 3913, 3914, 3915, 3916, 3917, 3918, 3919, 3920, 
3921, 3922, 3923, 3924, 3925, 3926, 3927, 3928, 3929, 3930, 3931, 3932, 3933, 3934, 3935, 3936, 
3937, 3938, 3939, 3940, 3941, 3942, 3943, 3944, 3945, 3946, 3947, 3948, 3949, 3950, 3951, 3952, 
3953, 3954, 3955, 3956, 3957, 3958, 3959, 3960, 3961, 3962, 3963, 3964, 3965, 3966, 3967, 3968, 
3969, 3970, 3971, 3972, 3973, 3974, 3975, 3976, 3977, 3978, 3979, 3980, 3981, 3982, 3983, 3984, 
3985, 3986, 3987, 3988, 3989, 3990, 3991, 3992, 3993, 3994, 3995, 3996, 3997, 3998, 3999, 4000, 
4001, 4002, 4003, 4004, 4005, 4006, 4007, 4008, 4009, 4010, 4011, 4012, 4013, 4014, 4015, 4016, 
4017, 4018, 4019, 4020, 4021, 4022, 4023, 4024, 4025, 4026, 4027, 4028, 4029, 4030, 4031, 4032, 
4033, 4034, 4035, 4036, 4037, 4038, 4039, 4040, 4041, 4042, 4043, 4044, 4045, 4046, 4047, 4048, 
4049, 4050, 4051, 4052, 4053, 4054, 4055, 4056, 4057, 4058, 4059, 4060, 4061, 4062, 4063, 4064, 
4065, 4066, 4067, 4068, 4069, 4070, 4071, 4072, 4073, 4074, 4075, 4076, 4077, 4078, 4079, 4080, 
4081, 4082, 4083, 4084, 4085, 4086, 4087, 4088, 4089, 4090, 4091, 4092, 4093, 4094, 4095, 4096, 
4097, 4098, 4099, 4100, 4101, 4102, 4103, 4104, 4105, 4106, 4107, 4108, 4109, 4110, 4111, 4112, 
4113, 4114, 4115, 4116, 4117, 4118, 4119, 4120, 4121, 4122, 4123, 4124, 4125, 4126, 4127, 4128, 
4129, 4130, 4131, 4132, 4133, 4134, 4135, 4136, 4137, 4138, 4139, 4140, 4141, 4142, 4143, 4144, 
4145, 4146, 4147, 4148, 4149, 4150, 4151, 4152, 4153, 4154, 4155, 4156, 4157, 4158, 4159, 4160, 
4161, 4162, 4163, 4164, 4165, 4166, 4167, 4168, 4169, 4170, 4171, 4172, 4173, 4174, 4175, 4176, 
4177, 4178, 4179, 4180, 4181, 4182, 4183, 4184, 4185, 4186, 4187, 4188, 4189, 4190, 4191, 4192, 
4193, 4194, 4195, 4196, 4197, 4198, 4199, 4200, 4201, 4202, 4203, 4204, 4205, 4206, 4207, 4208, 
4209, 4210, 4211, 4212, 4213, 4214, 4215, 4216, 4217, 4218, 4219, 4220, 4221, 4222, 4223, 4224, 
4225, 4226, 4227, 4228, 4229, 4230, 4231, 4232, 4233, 4234, 4235, 4236, 4237, 4238, 4239, 4240, 
4241, 4242, 4243, 4244, 4245, 4246, 4247, 4248, 4249, 4250, 4251, 4252, 4253, 4254, 4255, 4256, 
4257, 4258, 4259, 4260, 4261, 4262, 4263, 4264, 4265, 4266, 4267, 4268, 4269, 4270, 4271, 4272, 
4273, 4274, 4275, 4276, 4277, 4278, 4279, 4280, 4281, 4282, 4283, 4284, 4285, 4286, 4287, 4288, 
4289, 4290, 4291, 4292, 4293, 4294, 4295, 4296, 4297, 4298, 4299, 4300, 4301, 4302, 4303, 4304, 
4305, 4306, 4307, 4308, 4309, 4310, 4311, 4312, 4313, 4314, 4315, 4316, 4317, 4318, 4319, 4320, 
4321, 4322, 4323, 4324, 4325, 4326, 4327, 4328, 4329, 4330, 4331, 4332, 4333, 4334, 4335, 4336, 
4337, 4338, 4339, 4340, 4341, 4342, 4343, 4344, 4345, 4346, 4347, 4348, 4349, 4350, 4351, 4352, 
4353, 4354, 4355, 4356, 4357, 4358, 4359, 4360, 4361, 4362, 4363, 4364, 4365, 4366, 4367, 4368, 
4369, 4370, 4371, 4372, 4373, 4374, 4375, 4376, 4377, 4378, 4379, 4380, 4381, 4382, 4383, 4384, 
4385, 4386, 4387, 4388, 4389, 4390, 4391, 4392, 4393, 4394, 4395, 4396, 4397, 4398, 4399, 4400, 
4401, 4402, 4403, 4404, 4405, 4406, 4407, 4408, 4409, 4410, 4411, 4412, 4413, 4414, 4415, 4416, 
4417, 4418, 4419, 4420, 4421, 4422, 4423, 4424, 4425, 4426, 4427, 4428, 4429, 4430, 4431, 4432, 
4433, 4434, 4435, 4436, 4437, 4438, 4439, 4440, 4441, 4442, 4443, 4444, 4445, 4446, 4447, 4448, 
4449, 4450, 4451, 4452, 4453, 4454, 4455, 4456, 4457, 4458, 4459, 4460, 4461, 4462, 4463, 4464, 
4465, 4466, 4467, 4468, 4469, 4470, 4471, 4472, 4473, 4474, 4475, 4476, 4477, 4478, 4479, 4480, 
4481, 4482, 4483, 4484, 4485, 4486, 4487, 4488, 4489, 4490, 4491, 4492, 4493, 4494, 4495, 4496, 
4497, 4498, 4499, 4500, 4501, 4502, 4503, 4504, 4505, 4506, 4507, 4508, 4509, 4510, 4511, 4512, 
4513, 4514, 4515, 4516, 4517, 4518, 4519, 4520, 4521, 4522, 4523, 4524, 4525, 4526, 4527, 4528, 
4529, 4530, 4531, 4532, 4533, 4534, 4535, 4536, 4537, 4538, 4539, 4540, 4541, 4542, 4543, 4544, 
4545, 4546, 4547, 4548, 4549, 4550, 4551, 4552, 4553, 4554, 4555, 4556, 4557, 4558, 4559, 4560, 
4561, 4562, 4563, 4564, 4565, 4566, 4567, 4568, 4569, 4570, 4571, 4572, 4573, 4574, 4575, 4576, 
4577, 4578, 4579, 4580, 4581, 4582, 4583, 4584, 4585, 4586, 4587, 4588, 4589, 4590, 4591, 4592, 
4593, 4594, 4595, 4596, 4597, 4598, 4599, 4600, 4601, 4602, 4603, 4604, 4605, 4606, 4607, 4608, 
4609, 4610, 4611, 4612, 4613, 4614, 4615, 4616, 4617, 4618, 4619, 4620, 4621, 4622, 4623, 4624, 
4625, 4626, 4627, 4628, 4629, 4630, 4631, 4632, 4633, 4634, 4635, 4636, 4637, 4638, 4639, 4640, 
4641, 4642, 4643, 4644, 4645, 4646, 4647, 4648, 4649, 4650, 4651, 4652, 4653, 4654, 4655, 4656, 
4657, 4658, 4659, 4660, 4661, 4662, 4663, 4664, 4665, 4666, 4667, 4668, 4669, 4670, 4671, 4672, 
4673, 4674, 4675, 4676, 4677, 4678, 4679, 4680, 4681, 4682, 4683, 4684, 4685, 4686, 4687, 4688, 
4689, 4690, 4691, 4692, 4693, 4694, 4695, 4696, 4697, 4698, 4699, 4700, 4701, 4702, 4703, 4704, 
4705, 4706, 4707, 4708, 4709, 4710, 4711, 4712, 4713, 4714, 4715, 4716, 4717, 4718, 4719, 4720, 
4721, 4722, 4723, 4724, 4725, 4726, 4727, 4728, 4729, 4730, 4731, 4732, 4733, 4734, 4735, 4736, 
4737, 4738, 4739, 4740, 4741, 4742, 4743, 4744, 4745, 4746, 4747, 4748, 4749, 4750, 4751, 4752, 
4753, 4754, 4755, 4756, 4757, 4758, 4759, 4760, 4761, 4762, 4763, 4764, 4765, 4766, 4767, 4768, 
4769, 4770, 4771, 4772, 4773, 4774, 4775, 4776, 4777, 4778, 4779, 4780, 4781, 4782, 4783, 4784, 
4785, 4786, 4787, 4788, 4789, 4790, 4791, 4792, 4793, 4794, 4795, 4796, 4797, 4798, 4799, 4800, 
4801, 4802, 4803, 4804, 4805, 4806, 4807, 4808, 4809, 4810, 4811, 4812, 4813, 4814, 4815, 4816, 
4817, 4818, 4819, 4820, 4821, 4822, 4823, 4824, 4825, 4826, 4827, 4828, 4829, 4830, 4831, 4832, 
4833, 4834, 4835, 4836, 4837, 4838, 4839, 4840, 4841, 4842, 4843, 4844, 4845, 4846, 4847, 4848, 
4849, 4850, 4851, 4852, 4853, 4854, 4855, 4856, 4857, 4858, 4859, 4860, 4861, 4862, 4863, 4864, 
4865, 4866, 4867, 4868, 4869, 4870, 4871, 4872, 4873, 4874, 4875, 4876, 4877, 4878, 4879, 4880, 
4881, 4882, 4883, 4884, 4885, 4886, 4887, 4888, 4889, 4890, 4891, 4892, 4893, 4894, 4895, 4896, 
4897, 4898, 4899, 4900, 4901, 4902, 4903, 4904, 4905, 4906, 4907, 4908, 4909, 4910, 4911, 4912, 
4913, 4914, 4915, 4916, 4917, 4918, 4919, 4920, 4921, 4922, 4923, 4924, 4925, 4926, 4927, 4928, 
4929, 4930, 4931, 4932, 4933, 4934, 4935, 4936, 4937, 4938, 4939, 4940, 4941, 4942, 4943, 4944, 
4945, 4946, 4947, 4948, 4949, 4950, 4951, 4952, 4953, 4954, 4955, 4956, 4957, 4958, 4959, 4960, 
4961, 4962, 4963, 4964, 4965, 4966, 4967, 4968, 4969, 4970, 4971, 4972, 4973, 4974, 4975, 4976, 
4977, 4978, 4979, 4980, 4981, 4982, 4983, 4984, 4985, 4986, 4987, 4988, 4989, 4990, 4991, 4992, 
4993, 4994, 4995, 4996, 4997, 4998, 4999, 5000, 5001, 5002, 5003, 5004, 5005, 5006, 5007, 5008, 
5009, 5010, 5011, 5012, 5013, 5014, 5015, 5016, 5017, 5018, 5019, 5020, 5021, 5022, 5023, 5024, 
5025, 5026, 5027, 5028, 5029, 5030, 5031, 5032, 5033, 5034, 5035, 5036, 5037, 5038, 5039, 5040, 
5041, 5042, 5043, 5044, 5045, 5046, 5047, 5048, 5049, 5050, 5051, 5052, 5053, 5054, 5055, 5056, 
5057, 5058, 5059, 5060, 5061, 5062, 5063, 5064, 5065, 5066, 5067, 5068, 5069, 5070, 5071, 5072, 
5073, 5074, 5075, 5076, 5077, 5078, 5079, 5080, 5081, 5082, 5083, 5084, 5085, 5086, 5087, 5088, 
5089, 5090, 5091, 5092, 5093, 5094, 5095, 5096, 5097, 5098, 5099, 5100, 5101, 5102, 5103, 5104, 
5105, 5106, 5107, 5108, 5109, 5110, 5111, 5112, 5113, 5114, 5115, 5116, 5117, 5118, 5119, 5120, 
5121, 5122, 5123, 5124, 5125, 5126, 5127, 5128, 5129, 5130, 5131, 5132, 5133, 5134, 5135, 5136, 
5137, 5138, 5139, 5140, 5141, 5142, 5143, 5144, 5145, 5146, 5147, 5148, 5149, 5150, 5151, 5152, 
5153, 5154, 5155, 5156, 5157, 5158, 5159, 5160, 5161, 5162, 5163, 5164, 5165, 5166, 5167, 5168, 
5169, 5170, 5171, 5172, 5173, 5174, 5175, 5176, 5177, 5178, 5179, 5180, 5181, 5182, 5183, 5184, 
5185, 5186, 5187, 5188, 5189, 5190, 5191, 5192, 5193, 5194, 5195, 5196, 5197, 5198, 5199, 5200, 
5201, 5202, 5203, 5204, 5205, 5206, 5207, 5208, 5209, 5210, 5211, 5212, 5213, 5214, 5215, 5216, 
5217, 5218, 5219, 5220, 5221, 5222, 5223, 5224, 5225, 5226, 5227, 5228, 5229, 5230, 5231, 5232, 
5233, 5234, 5235, 5236, 5237, 5238, 5239, 5240, 5241, 5242, 5243, 5244, 5245, 5246, 5247, 5248, 
5249, 5250, 5251, 5252, 5253, 5254, 5255, 5256, 5257, 5258, 5259, 5260, 5261, 5262, 5263, 5264, 
5265, 5266, 5267, 5268, 5269, 5270, 5271, 5272, 5273, 5274, 5275, 5276, 5277, 5278, 5279, 5280, 
5281, 5282, 5283, 5284, 5285, 5286, 5287, 5288, 5289, 5290, 5291, 5292, 5293, 5294, 5295, 5296, 
5297, 5298, 5299, 5300, 5301, 5302, 5303, 5304, 5305, 5306, 5307, 5308, 5309, 5310, 5311, 5312, 
5313, 5314, 5315, 5316, 5317, 5318, 5319, 5320, 5321, 5322, 5323, 5324, 5325, 5326, 5327, 5328, 
5329, 5330, 5331, 5332, 5333, 5334, 5335, 5336, 5337, 5338, 5339, 5340, 5341, 5342, 5343, 5344, 
5345, 5346, 5347, 5348, 5349, 5350, 5351, 5352, 5353, 5354, 5355, 5356, 5357, 5358, 5359, 5360, 
5361, 5362, 5363, 5364, 5365, 5366, 5367, 5368, 5369, 5370, 5371, 5372, 5373, 5374, 5375, 5376, 
5377, 5378, 5379, 5380, 5381, 5382, 5383, 5384, 5385, 5386, 5387, 5388, 5389, 5390, 5391, 5392, 
5393, 5394, 5395, 5396, 5397, 5398, 5399, 5400, 5401, 5402, 5403, 5404, 5405, 5406, 5407, 5408, 
5409, 5410, 5411, 5412, 5413, 5414, 5415, 5416, 5417, 5418, 5419, 5420, 5421, 5422, 5423, 5424, 
5425, 5426, 5427, 5428, 5429, 5430, 5431, 5432, 5433, 5434, 5435, 5436, 5437, 5438, 5439, 5440, 
5441, 5442, 5443, 5444, 5445, 5446, 5447, 5448, 5449, 5450, 5451, 5452, 5453, 5454, 5455, 5456, 
5457, 5458, 5459, 5460, 5461, 5462, 5463, 5464, 5465, 5466, 5467, 5468, 5469, 5470, 5471, 5472, 
5473, 5474, 5475, 5476, 5477, 5478, 5479, 5480, 5481, 5482, 5483, 5484, 5485, 5486, 5487, 5488, 
5489, 5490, 5491, 5492, 5493, 5494, 5495, 5496, 5497, 5498, 5499, 5500, 5501, 5502, 5503, 5504, 
5505, 5506, 5507, 5508, 5509, 5510, 5511, 5512, 5513, 5514, 5515, 5516, 5517, 5518, 5519, 5520, 
5521, 5522, 5523, 5524, 5525, 5526, 5527, 5528, 5529, 5530, 5531, 5532, 5533, 5534, 5535, 5536, 
5537, 5538, 5539, 5540, 5541, 5542, 5543, 5544, 5545, 5546, 5547, 5548, 5549, 5550, 5551, 5552, 
5553, 5554, 5555, 5556, 5557, 5558, 5559, 5560, 5561, 5562, 5563, 5564, 5565, 5566, 5567, 5568, 
5569, 5570, 5571, 5572, 5573, 5574, 5575, 5576, 5577, 5578, 5579, 5580, 5581, 5582, 5583, 5584, 
5585, 5586, 5587, 5588, 5589, 5590, 5591, 5592, 5593, 5594, 5595, 5596, 5597, 5598, 5599, 5600, 
5601, 5602, 5603, 5604, 5605, 5606, 5607, 5608, 5609, 5610, 5611, 5612, 5613, 5614, 5615, 5616, 
5617, 5618, 5619, 5620, 5621, 5622, 5623, 5624, 5625, 5626, 5627, 5628, 5629, 5630, 5631, 5632, 
5633, 5634, 5635, 5636, 5637, 5638, 5639, 5640, 5641, 5642, 5643, 5644, 5645, 5646, 5647, 5648, 
5649, 5650, 5651, 5652, 5653, 5654, 5655, 5656, 5657, 5658, 5659, 5660, 5661, 5662, 5663, 5664, 
5665, 5666, 5667, 5668, 5669, 5670, 5671, 5672, 5673, 5674, 5675, 5676, 5677, 5678, 5679, 5680, 
5681, 5682, 5683, 5684, 5685, 5686, 5687, 5688, 5689, 5690, 5691, 5692, 5693, 5694, 5695, 5696, 
5697, 5698, 5699, 5700, 5701, 5702, 5703, 5704, 5705, 5706, 5707, 5708, 5709, 5710, 5711, 5712, 
5713, 5714, 5715, 5716, 5717, 5718, 5719, 5720, 5721, 5722, 5723, 5724, 5725, 5726, 5727, 5728, 
5729, 5730, 5731, 5732, 5733, 5734, 5735, 5736, 5737, 5738, 5739, 5740, 5741, 5742, 5743, 5744, 
5745, 5746, 5747, 5748, 5749, 5750, 5751, 5752, 5753, 5754, 5755, 5756, 5757, 5758, 5759, 5760, 
5761, 5762, 5763, 5764, 5765, 5766, 5767, 5768, 5769, 5770, 5771, 5772, 5773, 5774, 5775, 5776, 
5777, 5778, 5779, 5780, 5781, 5782, 5783, 5784, 5785, 5786, 5787, 5788, 5789, 5790, 5791, 5792, 
5793, 5794, 5795, 5796, 5797, 5798, 5799, 5800, 5801, 5802, 5803, 5804, 5805, 5806, 5807, 5808, 
5809, 5810, 5811, 5812, 5813, 5814, 5815, 5816, 5817, 5818, 5819, 5820, 5821, 5822, 5823, 5824, 
5825, 5826, 5827, 5828, 5829, 5830, 5831, 5832, 5833, 5834, 5835, 5836, 5837, 5838, 5839, 5840, 
5841, 5842, 5843, 5844, 5845, 5846, 5847, 5848, 5849, 5850, 5851, 5852, 5853, 5854, 5855, 5856, 
5857, 5858, 5859, 5860, 5861, 5862, 5863, 5864, 5865, 5866, 5867, 5868, 5869, 5870, 5871, 5872, 
5873, 5874, 5875, 5876, 5877, 5878, 5879, 5880, 5881, 5882, 5883, 5884, 5885, 5886, 5887, 5888, 
5889, 5890, 5891, 5892, 5893, 5894, 5895, 5896, 5897, 5898, 5899, 5900, 5901, 5902, 5903, 5904, 
5905, 5906, 5907, 5908, 5909, 5910, 5911, 5912, 5913, 5914, 5915, 5916, 5917, 5918, 5919, 5920, 
5921, 5922, 5923, 5924, 5925, 5926, 5927, 5928, 5929, 5930, 5931, 5932, 5933, 5934, 5935, 5936, 
5937, 5938, 5939, 5940, 5941, 5942, 5943, 5944, 5945, 5946, 5947, 5948, 5949, 5950, 5951, 5952, 
5953, 5954, 5955, 5956, 5957, 5958, 5959, 5960, 5961, 5962, 5963, 5964, 5965, 5966, 5967, 5968, 
5969, 5970, 5971, 5972, 5973, 5974, 5975, 5976, 5977, 5978, 5979, 5980, 5981, 5982, 5983, 5984, 
5985, 5986, 5987, 5988, 5989, 5990, 5991, 5992, 5993, 5994, 5995, 5996, 5997, 5998, 5999, 6000, 
6001, 6002, 6003, 6004, 6005, 6006, 6007, 6008, 6009, 6010, 6011, 6012, 6013, 6014, 6015, 6016, 
6017, 6018, 6019, 6020, 6021, 6022, 6023, 6024, 6025, 6026, 6027, 6028, 6029, 6030, 6031, 6032, 
6033, 6034, 6035, 6036, 6037, 6038, 6039, 6040, 6041, 6042, 6043, 6044, 6045, 6046, 6047, 6048, 
6049, 6050, 6051, 6052, 6053, 6054, 6055, 6056, 6057, 6058, 6059, 6060, 6061, 6062, 6063, 6064, 
6065, 6066, 6067, 6068, 6069, 6070, 6071, 6072, 6073, 6074, 6075, 6076, 6077, 6078, 6079, 6080, 
6081, 6082, 6083, 6084, 6085, 6086, 6087, 6088, 6089, 6090, 6091, 6092, 6093, 6094, 6095, 6096, 
6097, 6098, 6099, 6100, 6101, 6102, 6103, 6104, 6105, 6106, 6107, 6108, 6109, 6110, 6111, 6112, 
6113, 6114, 6115, 6116, 6117, 6118, 6119, 6120, 6121, 6122, 6123, 6124, 6125, 6126, 6127, 6128, 
6129, 6130, 6131, 6132, 6133, 6134, 6135, 6136, 6137, 6138, 6139, 6140, 6141, 6142, 6143, 6144, 
6145, 6146, 6147, 6148, 6149, 6150, 6151, 6152, 6153, 6154, 6155, 6156, 6157, 6158, 6159, 6160, 
6161, 6162, 6163, 6164, 6165, 6166, 6167, 6168, 6169, 6170, 6171, 6172, 6173, 6174, 6175, 6176, 
6177, 6178, 6179, 6180, 6181, 6182, 6183, 6184, 6185, 6186, 6187, 6188, 6189, 6190, 6191, 6192, 
6193, 6194, 6195, 6196, 6197, 6198, 6199, 6200, 6201, 6202, 6203, 6204, 6205, 6206, 6207, 6208, 
6209, 6210, 6211, 6212, 6213, 6214, 6215, 6216, 6217, 6218, 6219, 6220, 6221, 6222, 6223, 6224, 
6225, 6226, 6227, 6228, 6229, 6230, 6231, 6232, 6233, 6234, 6235, 6236, 6237, 6238, 6239, 6240, 
6241, 6242, 6243, 6244, 6245, 6246, 6247, 6248, 6249, 6250, 6251, 6252, 6253, 6254, 6255, 6256, 
6257, 6258, 6259, 6260, 6261, 6262, 6263, 6264, 6265, 6266, 6267, 6268, 6269, 6270, 6271, 6272, 
6273, 6274, 6275, 6276, 6277, 6278, 6279, 6280, 6281, 6282, 6283, 6284, 6285, 6286, 6287, 6288, 
6289, 6290, 6291, 6292, 6293, 6294, 6295, 6296, 6297, 6298, 6299, 6300, 6301, 6302, 6303, 6304, 
6305, 6306, 6307, 6308, 6309, 6310, 6311, 6312, 6313, 6314, 6315, 6316, 6317, 6318, 6319, 6320, 
6321, 6322, 6323, 6324, 6325, 6326, 6327, 6328, 6329, 6330, 6331, 6332, 6333, 6334, 6335, 6336, 
6337, 6338, 6339, 6340, 6341, 6342, 6343, 6344, 6345, 6346, 6347, 6348, 6349, 6350, 6351, 6352, 
6353, 6354, 6355, 6356, 6357, 6358, 6359, 6360, 6361, 6362, 6363, 6364, 6365, 6366, 6367, 6368, 
6369, 6370, 6371, 6372, 6373, 6374, 6375, 6376, 6377, 6378, 6379, 6380, 6381, 6382, 6383, 6384, 
6385, 6386, 6387, 6388, 6389, 6390, 6391, 6392, 6393, 6394, 6395, 6396, 6397, 6398, 6399, 6400, 
6401, 6402, 6403, 6404, 6405, 6406, 6407, 6408, 6409, 6410, 6411, 6412, 6413, 6414, 6415, 6416, 
6417, 6418, 6419, 6420, 6421, 6422, 6423, 6424, 6425, 6426, 6427, 6428, 6429, 6430, 6431, 6432, 
6433, 6434, 6435, 6436, 6437, 6438, 6439, 6440, 6441, 6442, 6443, 6444, 6445, 6446, 6447, 6448, 
6449, 6450, 6451, 6452, 6453, 6454, 6455, 6456, 6457, 6458, 6459, 6460, 6461, 6462, 6463, 6464, 
6465, 6466, 6467, 6468, 6469, 6470, 6471, 6472, 6473, 6474, 6475, 6476, 6477, 6478, 6479, 6480, 
6481, 6482, 6483, 6484, 6485, 6486, 6487, 6488, 6489, 6490, 6491, 6492, 6493, 6494, 6495, 6496, 
6497, 6498, 6499, 6500, 6501, 6502, 6503, 6504, 6505, 6506, 6507, 6508, 6509, 6510, 6511, 6512, 
6513, 6514, 6515, 6516, 6517, 6518, 6519, 6520, 6521, 6522, 6523, 6524, 6525, 6526, 6527, 6528, 
6529, 6530, 6531, 6532, 6533, 6534, 6535, 6536, 6537, 6538, 6539, 6540, 6541, 6542, 6543, 6544, 
6545, 6546, 6547, 6548, 6549, 6550, 6551, 6552, 6553, 6554, 6555, 6556, 6557, 6558, 6559, 6560, 
6561, 6562, 6563, 6564, 6565, 6566, 6567, 6568, 6569, 6570, 6571, 6572, 6573, 6574, 6575, 6576, 
6577, 6578, 6579, 6580, 6581, 6582, 6583, 6584, 6585, 6586, 6587, 6588, 6589, 6590, 6591, 6592, 
6593, 6594, 6595, 6596, 6597, 6598, 6599, 6600, 6601, 6602, 6603, 6604, 6605, 6606, 6607, 6608, 
6609, 6610, 6611, 6612, 6613, 6614, 6615, 6616, 6617, 6618, 6619, 6620, 6621, 6622, 6623, 6624, 
6625, 6626, 6627, 6628, 6629, 6630, 6631, 6632, 6633, 6634, 6635, 6636, 6637, 6638, 6639, 6640, 
6641, 6642, 6643, 6644, 6645, 6646, 6647, 6648, 6649, 6650, 6651, 6652, 6653, 6654, 6655, 6656, 
6657, 6658, 6659, 6660, 6661, 6662, 6663, 6664, 6665, 6666, 6667, 6668, 6669, 6670, 6671, 6672, 
6673, 6674, 6675, 6676, 6677, 6678, 6679, 6680, 6681, 6682, 6683, 6684, 6685, 6686, 6687, 6688, 
6689, 6690, 6691, 6692, 6693, 6694, 6695, 6696, 6697, 6698, 6699, 6700, 6701, 6702, 6703, 6704, 
6705, 6706, 6707, 6708, 6709, 6710, 6711, 6712, 6713, 6714, 6715, 6716, 6717, 6718, 6719, 6720, 
6721, 6722, 6723, 6724, 6725, 6726, 6727, 6728, 6729, 6730, 6731, 6732, 6733, 6734, 6735, 6736, 
6737, 6738, 6739, 6740, 6741, 6742, 6743, 6744, 6745, 6746, 6747, 6748, 6749, 6750, 6751, 6752, 
6753, 6754, 6755, 6756, 6757, 6758, 6759, 6760, 6761, 6762, 6763, 6764, 6765, 6766, 6767, 6768, 
6769, 6770, 6771, 6772, 6773, 6774, 6775, 6776, 6777, 6778, 6779, 6780, 6781, 6782, 6783, 6784, 
6785, 6786, 6787, 6788, 6789, 6790, 6791, 6792, 6793, 6794, 6795, 6796, 6797, 6798, 6799, 6800, 
6801, 6802, 6803, 6804, 6805, 6806, 6807, 6808, 6809, 6810, 6811, 6812, 6813, 6814, 6815, 6816, 
6817, 6818, 6819, 6820, 6821, 6822, 6823, 6824, 6825, 6826, 6827, 6828, 6829, 6830, 6831, 6832, 
6833, 6834, 6835, 6836, 6837, 6838, 6839, 6840, 6841, 6842, 6843, 6844, 6845, 6846, 6847, 6848, 
6849, 6850, 6851, 6852, 6853, 6854, 6855, 6856, 6857, 6858, 6859, 6860, 6861, 6862, 6863, 6864, 
6865, 6866, 6867, 6868, 6869, 6870, 6871, 6872, 6873, 6874, 6875, 6876, 6877, 6878, 6879, 6880, 
6881, 6882, 6883, 6884, 6885, 6886, 6887, 6888, 6889, 6890, 6891, 6892, 6893, 6894, 6895, 6896, 
6897, 6898, 6899, 6900, 6901, 6902, 6903, 6904, 6905, 6906, 6907, 6908, 6909, 6910, 6911, 6912, 

*Nset, Nset=WPAll
1, 2, 3, 4, 5, 6, 7, 8, 9, 10, 11, 12, 13, 14, 15, 16, 
17, 18, 19, 20, 21, 22, 23, 24, 25, 26, 27, 28, 29, 30, 31, 32, 
33, 34, 35, 36, 37, 38, 39, 40, 41, 42, 43, 44, 45, 46, 47, 48, 
49, 50, 51, 52, 53, 54, 55, 56, 57, 58, 59, 60, 61, 62, 63, 64, 
65, 66, 67, 68, 69, 70, 71, 72, 73, 74, 75, 76, 77, 78, 79, 80, 
81, 82, 83, 84, 85, 86, 87, 88, 89, 90, 91, 92, 93, 94, 95, 96, 
97, 98, 99, 100, 101, 102, 103, 104, 105, 106, 107, 108, 109, 110, 111, 112, 
113, 114, 115, 116, 117, 118, 119, 120, 121, 122, 123, 124, 125, 126, 127, 128, 
129, 130, 131, 132, 133, 134, 135, 136, 137, 138, 139, 140, 141, 142, 143, 144, 
145, 146, 147, 148, 149, 150, 151, 152, 153, 154, 155, 156, 157, 158, 159, 160, 
161, 162, 163, 164, 165, 166, 167, 168, 169, 170, 171, 172, 173, 174, 175, 176, 
177, 178, 179, 180, 181, 182, 183, 184, 185, 186, 187, 188, 189, 190, 191, 192, 
193, 194, 195, 196, 197, 198, 199, 200, 201, 202, 203, 204, 205, 206, 207, 208, 
209, 210, 211, 212, 213, 214, 215, 216, 217, 218, 219, 220, 221, 222, 223, 224, 
225, 226, 227, 228, 229, 230, 231, 232, 233, 234, 235, 236, 237, 238, 239, 240, 
241, 242, 243, 244, 245, 246, 247, 248, 249, 250, 251, 252, 253, 254, 255, 256, 
257, 258, 259, 260, 261, 262, 263, 264, 265, 266, 267, 268, 269, 270, 271, 272, 
273, 274, 275, 276, 277, 278, 279, 280, 281, 282, 283, 284, 285, 286, 287, 288, 
289, 290, 291, 292, 293, 294, 295, 296, 297, 298, 299, 300, 301, 302, 303, 304, 
305, 306, 307, 308, 309, 310, 311, 312, 313, 314, 315, 316, 317, 318, 319, 320, 
321, 322, 323, 324, 325, 326, 327, 328, 329, 330, 331, 332, 333, 334, 335, 336, 
337, 338, 339, 340, 341, 342, 343, 344, 345, 346, 347, 348, 349, 350, 351, 352, 
353, 354, 355, 356, 357, 358, 359, 360, 361, 362, 363, 364, 365, 366, 367, 368, 
369, 370, 371, 372, 373, 374, 375, 376, 377, 378, 379, 380, 381, 382, 383, 384, 
385, 386, 387, 388, 389, 390, 391, 392, 393, 394, 395, 396, 397, 398, 399, 400, 
401, 402, 403, 404, 405, 406, 407, 408, 409, 410, 411, 412, 413, 414, 415, 416, 
417, 418, 419, 420, 421, 422, 423, 424, 425, 426, 427, 428, 429, 430, 431, 432, 
433, 434, 435, 436, 437, 438, 439, 440, 441, 442, 443, 444, 445, 446, 447, 448, 
449, 450, 451, 452, 453, 454, 455, 456, 457, 458, 459, 460, 461, 462, 463, 464, 
465, 466, 467, 468, 469, 470, 471, 472, 473, 474, 475, 476, 477, 478, 479, 480, 
481, 482, 483, 484, 485, 486, 487, 488, 489, 490, 491, 492, 493, 494, 495, 496, 
497, 498, 499, 500, 501, 502, 503, 504, 505, 506, 507, 508, 509, 510, 511, 512, 
513, 514, 515, 516, 517, 518, 519, 520, 521, 522, 523, 524, 525, 526, 527, 528, 
529, 530, 531, 532, 533, 534, 535, 536, 537, 538, 539, 540, 541, 542, 543, 544, 
545, 546, 547, 548, 549, 550, 551, 552, 553, 554, 555, 556, 557, 558, 559, 560, 
561, 562, 563, 564, 565, 566, 567, 568, 569, 570, 571, 572, 573, 574, 575, 576, 
577, 578, 579, 580, 581, 582, 583, 584, 585, 586, 587, 588, 589, 590, 591, 592, 
593, 594, 595, 596, 597, 598, 599, 600, 601, 602, 603, 604, 605, 606, 607, 608, 
609, 610, 611, 612, 613, 614, 615, 616, 617, 618, 619, 620, 621, 622, 623, 624, 
625, 626, 627, 628, 629, 630, 631, 632, 633, 634, 635, 636, 637, 638, 639, 640, 
641, 642, 643, 644, 645, 646, 647, 648, 649, 650, 651, 652, 653, 654, 655, 656, 
657, 658, 659, 660, 661, 662, 663, 664, 665, 666, 667, 668, 669, 670, 671, 672, 
673, 674, 675, 676, 677, 678, 679, 680, 681, 682, 683, 684, 685, 686, 687, 688, 
689, 690, 691, 692, 693, 694, 695, 696, 697, 698, 699, 700, 701, 702, 703, 704, 
705, 706, 707, 708, 709, 710, 711, 712, 713, 714, 715, 716, 717, 718, 719, 720, 
721, 722, 723, 724, 725, 726, 727, 728, 729, 730, 731, 732, 733, 734, 735, 736, 
737, 738, 739, 740, 741, 742, 743, 744, 745, 746, 747, 748, 749, 750, 751, 752, 
753, 754, 755, 756, 757, 758, 759, 760, 761, 762, 763, 764, 765, 766, 767, 768, 
769, 770, 771, 772, 773, 774, 775, 776, 777, 778, 779, 780, 781, 782, 783, 784, 
785, 786, 787, 788, 789, 790, 791, 792, 793, 794, 795, 796, 797, 798, 799, 800, 
801, 802, 803, 804, 805, 806, 807, 808, 809, 810, 811, 812, 813, 814, 815, 816, 
817, 818, 819, 820, 821, 822, 823, 824, 825, 826, 827, 828, 829, 830, 831, 832, 
833, 834, 835, 836, 837, 838, 839, 840, 841, 842, 843, 844, 845, 846, 847, 848, 
849, 850, 851, 852, 853, 854, 855, 856, 857, 858, 859, 860, 861, 862, 863, 864, 
865, 866, 867, 868, 869, 870, 871, 872, 873, 874, 875, 876, 877, 878, 879, 880, 
881, 882, 883, 884, 885, 886, 887, 888, 889, 890, 891, 892, 893, 894, 895, 896, 
897, 898, 899, 900, 901, 902, 903, 904, 905, 906, 907, 908, 909, 910, 911, 912, 
913, 914, 915, 916, 917, 918, 919, 920, 921, 922, 923, 924, 925, 926, 927, 928, 
929, 930, 931, 932, 933, 934, 935, 936, 937, 938, 939, 940, 941, 942, 943, 944, 
945, 946, 947, 948, 949, 950, 951, 952, 953, 954, 955, 956, 957, 958, 959, 960, 
961, 962, 963, 964, 965, 966, 967, 968, 969, 970, 971, 972, 973, 974, 975, 976, 
977, 978, 979, 980, 981, 982, 983, 984, 985, 986, 987, 988, 989, 990, 991, 992, 
993, 994, 995, 996, 997, 998, 999, 1000, 1001, 1002, 1003, 1004, 1005, 1006, 1007, 1008, 
1009, 1010, 1011, 1012, 1013, 1014, 1015, 1016, 1017, 1018, 1019, 1020, 1021, 1022, 1023, 1024, 
1025, 1026, 1027, 1028, 1029, 1030, 1031, 1032, 1033, 1034, 1035, 1036, 1037, 1038, 1039, 1040, 
1041, 1042, 1043, 1044, 1045, 1046, 1047, 1048, 1049, 1050, 1051, 1052, 1053, 1054, 1055, 1056, 
1057, 1058, 1059, 1060, 1061, 1062, 1063, 1064, 1065, 1066, 1067, 1068, 1069, 1070, 1071, 1072, 
1073, 1074, 1075, 1076, 1077, 1078, 1079, 1080, 1081, 1082, 1083, 1084, 1085, 1086, 1087, 1088, 
1089, 1090, 1091, 1092, 1093, 1094, 1095, 1096, 1097, 1098, 1099, 1100, 1101, 1102, 1103, 1104, 
1105, 1106, 1107, 1108, 1109, 1110, 1111, 1112, 1113, 1114, 1115, 1116, 1117, 1118, 1119, 1120, 
1121, 1122, 1123, 1124, 1125, 1126, 1127, 1128, 1129, 1130, 1131, 1132, 1133, 1134, 1135, 1136, 
1137, 1138, 1139, 1140, 1141, 1142, 1143, 1144, 1145, 1146, 1147, 1148, 1149, 1150, 1151, 1152, 
1153, 1154, 1155, 1156, 1157, 1158, 1159, 1160, 1161, 1162, 1163, 1164, 1165, 1166, 1167, 1168, 
1169, 1170, 1171, 1172, 1173, 1174, 1175, 1176, 1177, 1178, 1179, 1180, 1181, 1182, 1183, 1184, 
1185, 1186, 1187, 1188, 1189, 1190, 1191, 1192, 1193, 1194, 1195, 1196, 1197, 1198, 1199, 1200, 
1201, 1202, 1203, 1204, 1205, 1206, 1207, 1208, 1209, 1210, 1211, 1212, 1213, 1214, 1215, 1216, 
1217, 1218, 1219, 1220, 1221, 1222, 1223, 1224, 1225, 1226, 1227, 1228, 1229, 1230, 1231, 1232, 
1233, 1234, 1235, 1236, 1237, 1238, 1239, 1240, 1241, 1242, 1243, 1244, 1245, 1246, 1247, 1248, 
1249, 1250, 1251, 1252, 1253, 1254, 1255, 1256, 1257, 1258, 1259, 1260, 1261, 1262, 1263, 1264, 
1265, 1266, 1267, 1268, 1269, 1270, 1271, 1272, 1273, 1274, 1275, 1276, 1277, 1278, 1279, 1280, 
1281, 1282, 1283, 1284, 1285, 1286, 1287, 1288, 1289, 1290, 1291, 1292, 1293, 1294, 1295, 1296, 
1297, 1298, 1299, 1300, 1301, 1302, 1303, 1304, 1305, 1306, 1307, 1308, 1309, 1310, 1311, 1312, 
1313, 1314, 1315, 1316, 1317, 1318, 1319, 1320, 1321, 1322, 1323, 1324, 1325, 1326, 1327, 1328, 
1329, 1330, 1331, 1332, 1333, 1334, 1335, 1336, 1337, 1338, 1339, 1340, 1341, 1342, 1343, 1344, 
1345, 1346, 1347, 1348, 1349, 1350, 1351, 1352, 1353, 1354, 1355, 1356, 1357, 1358, 1359, 1360, 
1361, 1362, 1363, 1364, 1365, 1366, 1367, 1368, 1369, 1370, 1371, 1372, 1373, 1374, 1375, 1376, 
1377, 1378, 1379, 1380, 1381, 1382, 1383, 1384, 1385, 1386, 1387, 1388, 1389, 1390, 1391, 1392, 
1393, 1394, 1395, 1396, 1397, 1398, 1399, 1400, 1401, 1402, 1403, 1404, 1405, 1406, 1407, 1408, 
1409, 1410, 1411, 1412, 1413, 1414, 1415, 1416, 1417, 1418, 1419, 1420, 1421, 1422, 1423, 1424, 
1425, 1426, 1427, 1428, 1429, 1430, 1431, 1432, 1433, 1434, 1435, 1436, 1437, 1438, 1439, 1440, 
1441, 1442, 1443, 1444, 1445, 1446, 1447, 1448, 1449, 1450, 1451, 1452, 1453, 1454, 1455, 1456, 
1457, 1458, 1459, 1460, 1461, 1462, 1463, 1464, 1465, 1466, 1467, 1468, 1469, 1470, 1471, 1472, 
1473, 1474, 1475, 1476, 1477, 1478, 1479, 1480, 1481, 1482, 1483, 1484, 1485, 1486, 1487, 1488, 
1489, 1490, 1491, 1492, 1493, 1494, 1495, 1496, 1497, 1498, 1499, 1500, 1501, 1502, 1503, 1504, 
1505, 1506, 1507, 1508, 1509, 1510, 1511, 1512, 1513, 1514, 1515, 1516, 1517, 1518, 1519, 1520, 
1521, 1522, 1523, 1524, 1525, 1526, 1527, 1528, 1529, 1530, 1531, 1532, 1533, 1534, 1535, 1536, 
1537, 1538, 1539, 1540, 1541, 1542, 1543, 1544, 1545, 1546, 1547, 1548, 1549, 1550, 1551, 1552, 
1553, 1554, 1555, 1556, 1557, 1558, 1559, 1560, 1561, 1562, 1563, 1564, 1565, 1566, 1567, 1568, 
1569, 1570, 1571, 1572, 1573, 1574, 1575, 1576, 1577, 1578, 1579, 1580, 1581, 1582, 1583, 1584, 
1585, 1586, 1587, 1588, 1589, 1590, 1591, 1592, 1593, 1594, 1595, 1596, 1597, 1598, 1599, 1600, 
1601, 1602, 1603, 1604, 1605, 1606, 1607, 1608, 1609, 1610, 1611, 1612, 1613, 1614, 1615, 1616, 
1617, 1618, 1619, 1620, 1621, 1622, 1623, 1624, 1625, 1626, 1627, 1628, 1629, 1630, 1631, 1632, 
1633, 1634, 1635, 1636, 1637, 1638, 1639, 1640, 1641, 1642, 1643, 1644, 1645, 1646, 1647, 1648, 
1649, 1650, 1651, 1652, 1653, 1654, 1655, 1656, 1657, 1658, 1659, 1660, 1661, 1662, 1663, 1664, 
1665, 1666, 1667, 1668, 1669, 1670, 1671, 1672, 1673, 1674, 1675, 1676, 1677, 1678, 1679, 1680, 
1681, 1682, 1683, 1684, 1685, 1686, 1687, 1688, 1689, 1690, 1691, 1692, 1693, 1694, 1695, 1696, 
1697, 1698, 1699, 1700, 1701, 1702, 1703, 1704, 1705, 1706, 1707, 1708, 1709, 1710, 1711, 1712, 
1713, 1714, 1715, 1716, 1717, 1718, 1719, 1720, 1721, 1722, 1723, 1724, 1725, 1726, 1727, 1728, 
1729, 1730, 1731, 1732, 1733, 1734, 1735, 1736, 1737, 1738, 1739, 1740, 1741, 1742, 1743, 1744, 
1745, 1746, 1747, 1748, 1749, 1750, 1751, 1752, 1753, 1754, 1755, 1756, 1757, 1758, 1759, 1760, 
1761, 1762, 1763, 1764, 1765, 1766, 1767, 1768, 1769, 1770, 1771, 1772, 1773, 1774, 1775, 1776, 
1777, 1778, 1779, 1780, 1781, 1782, 1783, 1784, 1785, 1786, 1787, 1788, 1789, 1790, 1791, 1792, 
1793, 1794, 1795, 1796, 1797, 1798, 1799, 1800, 1801, 1802, 1803, 1804, 1805, 1806, 1807, 1808, 
1809, 1810, 1811, 1812, 1813, 1814, 1815, 1816, 1817, 1818, 1819, 1820, 1821, 1822, 1823, 1824, 
1825, 1826, 1827, 1828, 1829, 1830, 1831, 1832, 1833, 1834, 1835, 1836, 1837, 1838, 1839, 1840, 
1841, 1842, 1843, 1844, 1845, 1846, 1847, 1848, 1849, 1850, 1851, 1852, 1853, 1854, 1855, 1856, 
1857, 1858, 1859, 1860, 1861, 1862, 1863, 1864, 1865, 1866, 1867, 1868, 1869, 1870, 1871, 1872, 
1873, 1874, 1875, 1876, 1877, 1878, 1879, 1880, 1881, 1882, 1883, 1884, 1885, 1886, 1887, 1888, 
1889, 1890, 1891, 1892, 1893, 1894, 1895, 1896, 1897, 1898, 1899, 1900, 1901, 1902, 1903, 1904, 
1905, 1906, 1907, 1908, 1909, 1910, 1911, 1912, 1913, 1914, 1915, 1916, 1917, 1918, 1919, 1920, 
1921, 1922, 1923, 1924, 1925, 1926, 1927, 1928, 1929, 1930, 1931, 1932, 1933, 1934, 1935, 1936, 
1937, 1938, 1939, 1940, 1941, 1942, 1943, 1944, 1945, 1946, 1947, 1948, 1949, 1950, 1951, 1952, 
1953, 1954, 1955, 1956, 1957, 1958, 1959, 1960, 1961, 1962, 1963, 1964, 1965, 1966, 1967, 1968, 
1969, 1970, 1971, 1972, 1973, 1974, 1975, 1976, 1977, 1978, 1979, 1980, 1981, 1982, 1983, 1984, 
1985, 1986, 1987, 1988, 1989, 1990, 1991, 1992, 1993, 1994, 1995, 1996, 1997, 1998, 1999, 2000, 
2001, 2002, 2003, 2004, 2005, 2006, 2007, 2008, 2009, 2010, 2011, 2012, 2013, 2014, 2015, 2016, 
2017, 2018, 2019, 2020, 2021, 2022, 2023, 2024, 2025, 2026, 2027, 2028, 2029, 2030, 2031, 2032, 
2033, 2034, 2035, 2036, 2037, 2038, 2039, 2040, 2041, 2042, 2043, 2044, 2045, 2046, 2047, 2048, 
2049, 2050, 2051, 2052, 2053, 2054, 2055, 2056, 2057, 2058, 2059, 2060, 2061, 2062, 2063, 2064, 
2065, 2066, 2067, 2068, 2069, 2070, 2071, 2072, 2073, 2074, 2075, 2076, 2077, 2078, 2079, 2080, 
2081, 2082, 2083, 2084, 2085, 2086, 2087, 2088, 2089, 2090, 2091, 2092, 2093, 2094, 2095, 2096, 
2097, 2098, 2099, 2100, 2101, 2102, 2103, 2104, 2105, 2106, 2107, 2108, 2109, 2110, 2111, 2112, 
2113, 2114, 2115, 2116, 2117, 2118, 2119, 2120, 2121, 2122, 2123, 2124, 2125, 2126, 2127, 2128, 
2129, 2130, 2131, 2132, 2133, 2134, 2135, 2136, 2137, 2138, 2139, 2140, 2141, 2142, 2143, 2144, 
2145, 2146, 2147, 2148, 2149, 2150, 2151, 2152, 2153, 2154, 2155, 2156, 2157, 2158, 2159, 2160, 
2161, 2162, 2163, 2164, 2165, 2166, 2167, 2168, 2169, 2170, 2171, 2172, 2173, 2174, 2175, 2176, 
2177, 2178, 2179, 2180, 2181, 2182, 2183, 2184, 2185, 2186, 2187, 2188, 2189, 2190, 2191, 2192, 
2193, 2194, 2195, 2196, 2197, 2198, 2199, 2200, 2201, 2202, 2203, 2204, 2205, 2206, 2207, 2208, 
2209, 2210, 2211, 2212, 2213, 2214, 2215, 2216, 2217, 2218, 2219, 2220, 2221, 2222, 2223, 2224, 
2225, 2226, 2227, 2228, 2229, 2230, 2231, 2232, 2233, 2234, 2235, 2236, 2237, 2238, 2239, 2240, 
2241, 2242, 2243, 2244, 2245, 2246, 2247, 2248, 2249, 2250, 2251, 2252, 2253, 2254, 2255, 2256, 
2257, 2258, 2259, 2260, 2261, 2262, 2263, 2264, 2265, 2266, 2267, 2268, 2269, 2270, 2271, 2272, 
2273, 2274, 2275, 2276, 2277, 2278, 2279, 2280, 2281, 2282, 2283, 2284, 2285, 2286, 2287, 2288, 
2289, 2290, 2291, 2292, 2293, 2294, 2295, 2296, 2297, 2298, 2299, 2300, 2301, 2302, 2303, 2304, 
2305, 2306, 2307, 2308, 2309, 2310, 2311, 2312, 2313, 2314, 2315, 2316, 2317, 2318, 2319, 2320, 
2321, 2322, 2323, 2324, 2325, 2326, 2327, 2328, 2329, 2330, 2331, 2332, 2333, 2334, 2335, 2336, 
2337, 2338, 2339, 2340, 2341, 2342, 2343, 2344, 2345, 2346, 2347, 2348, 2349, 2350, 2351, 2352, 
2353, 2354, 2355, 2356, 2357, 2358, 2359, 2360, 2361, 2362, 2363, 2364, 2365, 2366, 2367, 2368, 
2369, 2370, 2371, 2372, 2373, 2374, 2375, 2376, 2377, 2378, 2379, 2380, 2381, 2382, 2383, 2384, 
2385, 2386, 2387, 2388, 2389, 2390, 2391, 2392, 2393, 2394, 2395, 2396, 2397, 2398, 2399, 2400, 
2401, 2402, 2403, 2404, 2405, 2406, 2407, 2408, 2409, 2410, 2411, 2412, 2413, 2414, 2415, 2416, 
2417, 2418, 2419, 2420, 2421, 2422, 2423, 2424, 2425, 2426, 2427, 2428, 2429, 2430, 2431, 2432, 
2433, 2434, 2435, 2436, 2437, 2438, 2439, 2440, 2441, 2442, 2443, 2444, 2445, 2446, 2447, 2448, 
2449, 2450, 2451, 2452, 2453, 2454, 2455, 2456, 2457, 2458, 2459, 2460, 2461, 2462, 2463, 2464, 
2465, 2466, 2467, 2468, 2469, 2470, 2471, 2472, 2473, 2474, 2475, 2476, 2477, 2478, 2479, 2480, 
2481, 2482, 2483, 2484, 2485, 2486, 2487, 2488, 2489, 2490, 2491, 2492, 2493, 2494, 2495, 2496, 
2497, 2498, 2499, 2500, 2501, 2502, 2503, 2504, 2505, 2506, 2507, 2508, 2509, 2510, 2511, 2512, 
2513, 2514, 2515, 2516, 2517, 2518, 2519, 2520, 2521, 2522, 2523, 2524, 2525, 2526, 2527, 2528, 
2529, 2530, 2531, 2532, 2533, 2534, 2535, 2536, 2537, 2538, 2539, 2540, 2541, 2542, 2543, 2544, 
2545, 2546, 2547, 2548, 2549, 2550, 2551, 2552, 2553, 2554, 2555, 2556, 2557, 2558, 2559, 2560, 
2561, 2562, 2563, 2564, 2565, 2566, 2567, 2568, 2569, 2570, 2571, 2572, 2573, 2574, 2575, 2576, 
2577, 2578, 2579, 2580, 2581, 2582, 2583, 2584, 2585, 2586, 2587, 2588, 2589, 2590, 2591, 2592, 
2593, 2594, 2595, 2596, 2597, 2598, 2599, 2600, 2601, 2602, 2603, 2604, 2605, 2606, 2607, 2608, 
2609, 2610, 2611, 2612, 2613, 2614, 2615, 2616, 2617, 2618, 2619, 2620, 2621, 2622, 2623, 2624, 
2625, 2626, 2627, 2628, 2629, 2630, 2631, 2632, 2633, 2634, 2635, 2636, 2637, 2638, 2639, 2640, 
2641, 2642, 2643, 2644, 2645, 2646, 2647, 2648, 2649, 2650, 2651, 2652, 2653, 2654, 2655, 2656, 
2657, 2658, 2659, 2660, 2661, 2662, 2663, 2664, 2665, 2666, 2667, 2668, 2669, 2670, 2671, 2672, 
2673, 2674, 2675, 2676, 2677, 2678, 2679, 2680, 2681, 2682, 2683, 2684, 2685, 2686, 2687, 2688, 
2689, 2690, 2691, 2692, 2693, 2694, 2695, 2696, 2697, 2698, 2699, 2700, 2701, 2702, 2703, 2704, 
2705, 2706, 2707, 2708, 2709, 2710, 2711, 2712, 2713, 2714, 2715, 2716, 2717, 2718, 2719, 2720, 
2721, 2722, 2723, 2724, 2725, 2726, 2727, 2728, 2729, 2730, 2731, 2732, 2733, 2734, 2735, 2736, 
2737, 2738, 2739, 2740, 2741, 2742, 2743, 2744, 2745, 2746, 2747, 2748, 2749, 2750, 2751, 2752, 
2753, 2754, 2755, 2756, 2757, 2758, 2759, 2760, 2761, 2762, 2763, 2764, 2765, 2766, 2767, 2768, 
2769, 2770, 2771, 2772, 2773, 2774, 2775, 2776, 2777, 2778, 2779, 2780, 2781, 2782, 2783, 2784, 
2785, 2786, 2787, 2788, 2789, 2790, 2791, 2792, 2793, 2794, 2795, 2796, 2797, 2798, 2799, 2800, 
2801, 2802, 2803, 2804, 2805, 2806, 2807, 2808, 2809, 2810, 2811, 2812, 2813, 2814, 2815, 2816, 
2817, 2818, 2819, 2820, 2821, 2822, 2823, 2824, 2825, 2826, 2827, 2828, 2829, 2830, 2831, 2832, 
2833, 2834, 2835, 2836, 2837, 2838, 2839, 2840, 2841, 2842, 2843, 2844, 2845, 2846, 2847, 2848, 
2849, 2850, 2851, 2852, 2853, 2854, 2855, 2856, 2857, 2858, 2859, 2860, 2861, 2862, 2863, 2864, 
2865, 2866, 2867, 2868, 2869, 2870, 2871, 2872, 2873, 2874, 2875, 2876, 2877, 2878, 2879, 2880, 
2881, 2882, 2883, 2884, 2885, 2886, 2887, 2888, 2889, 2890, 2891, 2892, 2893, 2894, 2895, 2896, 
2897, 2898, 2899, 2900, 2901, 2902, 2903, 2904, 2905, 2906, 2907, 2908, 2909, 2910, 2911, 2912, 
2913, 2914, 2915, 2916, 2917, 2918, 2919, 2920, 2921, 2922, 2923, 2924, 2925, 2926, 2927, 2928, 
2929, 2930, 2931, 2932, 2933, 2934, 2935, 2936, 2937, 2938, 2939, 2940, 2941, 2942, 2943, 2944, 
2945, 2946, 2947, 2948, 2949, 2950, 2951, 2952, 2953, 2954, 2955, 2956, 2957, 2958, 2959, 2960, 
2961, 2962, 2963, 2964, 2965, 2966, 2967, 2968, 2969, 2970, 2971, 2972, 2973, 2974, 2975, 2976, 
2977, 2978, 2979, 2980, 2981, 2982, 2983, 2984, 2985, 2986, 2987, 2988, 2989, 2990, 2991, 2992, 
2993, 2994, 2995, 2996, 2997, 2998, 2999, 3000, 3001, 3002, 3003, 3004, 3005, 3006, 3007, 3008, 
3009, 3010, 3011, 3012, 3013, 3014, 3015, 3016, 3017, 3018, 3019, 3020, 3021, 3022, 3023, 3024, 
3025, 3026, 3027, 3028, 3029, 3030, 3031, 3032, 3033, 3034, 3035, 3036, 3037, 3038, 3039, 3040, 
3041, 3042, 3043, 3044, 3045, 3046, 3047, 3048, 3049, 3050, 3051, 3052, 3053, 3054, 3055, 3056, 
3057, 3058, 3059, 3060, 3061, 3062, 3063, 3064, 3065, 3066, 3067, 3068, 3069, 3070, 3071, 3072, 
3073, 3074, 3075, 3076, 3077, 3078, 3079, 3080, 3081, 3082, 3083, 3084, 3085, 3086, 3087, 3088, 
3089, 3090, 3091, 3092, 3093, 3094, 3095, 3096, 3097, 3098, 3099, 3100, 3101, 3102, 3103, 3104, 
3105, 3106, 3107, 3108, 3109, 3110, 3111, 3112, 3113, 3114, 3115, 3116, 3117, 3118, 3119, 3120, 
3121, 3122, 3123, 3124, 3125, 3126, 3127, 3128, 3129, 3130, 3131, 3132, 3133, 3134, 3135, 3136, 
3137, 3138, 3139, 3140, 3141, 3142, 3143, 3144, 3145, 3146, 3147, 3148, 3149, 3150, 3151, 3152, 
3153, 3154, 3155, 3156, 3157, 3158, 3159, 3160, 3161, 3162, 3163, 3164, 3165, 3166, 3167, 3168, 
3169, 3170, 3171, 3172, 3173, 3174, 3175, 3176, 3177, 3178, 3179, 3180, 3181, 3182, 3183, 3184, 
3185, 3186, 3187, 3188, 3189, 3190, 3191, 3192, 3193, 3194, 3195, 3196, 3197, 3198, 3199, 3200, 
3201, 3202, 3203, 3204, 3205, 3206, 3207, 3208, 3209, 3210, 3211, 3212, 3213, 3214, 3215, 3216, 
3217, 3218, 3219, 3220, 3221, 3222, 3223, 3224, 3225, 3226, 3227, 3228, 3229, 3230, 3231, 3232, 
3233, 3234, 3235, 3236, 3237, 3238, 3239, 3240, 3241, 3242, 3243, 3244, 3245, 3246, 3247, 3248, 
3249, 3250, 3251, 3252, 3253, 3254, 3255, 3256, 3257, 3258, 3259, 3260, 3261, 3262, 3263, 3264, 
3265, 3266, 3267, 3268, 3269, 3270, 3271, 3272, 3273, 3274, 3275, 3276, 3277, 3278, 3279, 3280, 
3281, 3282, 3283, 3284, 3285, 3286, 3287, 3288, 3289, 3290, 3291, 3292, 3293, 3294, 3295, 3296, 
3297, 3298, 3299, 3300, 3301, 3302, 3303, 3304, 3305, 3306, 3307, 3308, 3309, 3310, 3311, 3312, 
3313, 3314, 3315, 3316, 3317, 3318, 3319, 3320, 3321, 3322, 3323, 3324, 3325, 3326, 3327, 3328, 
3329, 3330, 3331, 3332, 3333, 3334, 3335, 3336, 3337, 3338, 3339, 3340, 3341, 3342, 3343, 3344, 
3345, 3346, 3347, 3348, 3349, 3350, 3351, 3352, 3353, 3354, 3355, 3356, 3357, 3358, 3359, 3360, 
3361, 3362, 3363, 3364, 3365, 3366, 3367, 3368, 3369, 3370, 3371, 3372, 3373, 3374, 3375, 3376, 
3377, 3378, 3379, 3380, 3381, 3382, 3383, 3384, 3385, 3386, 3387, 3388, 3389, 3390, 3391, 3392, 
3393, 3394, 3395, 3396, 3397, 3398, 3399, 3400, 3401, 3402, 3403, 3404, 3405, 3406, 3407, 3408, 
3409, 3410, 3411, 3412, 3413, 3414, 3415, 3416, 3417, 3418, 3419, 3420, 3421, 3422, 3423, 3424, 
3425, 3426, 3427, 3428, 3429, 3430, 3431, 3432, 3433, 3434, 3435, 3436, 3437, 3438, 3439, 3440, 
3441, 3442, 3443, 3444, 3445, 3446, 3447, 3448, 3449, 3450, 3451, 3452, 3453, 3454, 3455, 3456, 
3457, 3458, 3459, 3460, 3461, 3462, 3463, 3464, 3465, 3466, 3467, 3468, 3469, 3470, 3471, 3472, 
3473, 3474, 3475, 3476, 3477, 3478, 3479, 3480, 3481, 3482, 3483, 3484, 3485, 3486, 3487, 3488, 
3489, 3490, 3491, 3492, 3493, 3494, 3495, 3496, 3497, 3498, 3499, 3500, 3501, 3502, 3503, 3504, 
3505, 3506, 3507, 3508, 3509, 3510, 3511, 3512, 3513, 3514, 3515, 3516, 3517, 3518, 3519, 3520, 
3521, 3522, 3523, 3524, 3525, 3526, 3527, 3528, 3529, 3530, 3531, 3532, 3533, 3534, 3535, 3536, 
3537, 3538, 3539, 3540, 3541, 3542, 3543, 3544, 3545, 3546, 3547, 3548, 3549, 3550, 3551, 3552, 
3553, 3554, 3555, 3556, 3557, 3558, 3559, 3560, 3561, 3562, 3563, 3564, 3565, 3566, 3567, 3568, 
3569, 3570, 3571, 3572, 3573, 3574, 3575, 3576, 3577, 3578, 3579, 3580, 3581, 3582, 3583, 3584, 
3585, 3586, 3587, 3588, 3589, 3590, 3591, 3592, 3593, 3594, 3595, 3596, 3597, 3598, 3599, 3600, 
3601, 3602, 3603, 3604, 3605, 3606, 3607, 3608, 3609, 3610, 3611, 3612, 3613, 3614, 3615, 3616, 
3617, 3618, 3619, 3620, 3621, 3622, 3623, 3624, 3625, 3626, 3627, 3628, 3629, 3630, 3631, 3632, 
3633, 3634, 3635, 3636, 3637, 3638, 3639, 3640, 3641, 3642, 3643, 3644, 3645, 3646, 3647, 3648, 
3649, 3650, 3651, 3652, 3653, 3654, 3655, 3656, 3657, 3658, 3659, 3660, 3661, 3662, 3663, 3664, 
3665, 3666, 3667, 3668, 3669, 3670, 3671, 3672, 3673, 3674, 3675, 3676, 3677, 3678, 3679, 3680, 
3681, 3682, 3683, 3684, 3685, 3686, 3687, 3688, 3689, 3690, 3691, 3692, 3693, 3694, 3695, 3696, 
3697, 3698, 3699, 3700, 3701, 3702, 3703, 3704, 3705, 3706, 3707, 3708, 3709, 3710, 3711, 3712, 
3713, 3714, 3715, 3716, 3717, 3718, 3719, 3720, 3721, 3722, 3723, 3724, 3725, 3726, 3727, 3728, 
3729, 3730, 3731, 3732, 3733, 3734, 3735, 3736, 3737, 3738, 3739, 3740, 3741, 3742, 3743, 3744, 
3745, 3746, 3747, 3748, 3749, 3750, 3751, 3752, 3753, 3754, 3755, 3756, 3757, 3758, 3759, 3760, 
3761, 3762, 3763, 3764, 3765, 3766, 3767, 3768, 3769, 3770, 3771, 3772, 3773, 3774, 3775, 3776, 
3777, 3778, 3779, 3780, 3781, 3782, 3783, 3784, 3785, 3786, 3787, 3788, 3789, 3790, 3791, 3792, 
3793, 3794, 3795, 3796, 3797, 3798, 3799, 3800, 3801, 3802, 3803, 3804, 3805, 3806, 3807, 3808, 
3809, 3810, 3811, 3812, 3813, 3814, 3815, 3816, 3817, 3818, 3819, 3820, 3821, 3822, 3823, 3824, 
3825, 3826, 3827, 3828, 3829, 3830, 3831, 3832, 3833, 3834, 3835, 3836, 3837, 3838, 3839, 3840, 
3841, 3842, 3843, 3844, 3845, 3846, 3847, 3848, 3849, 3850, 3851, 3852, 3853, 3854, 3855, 3856, 
3857, 3858, 3859, 3860, 3861, 3862, 3863, 3864, 3865, 3866, 3867, 3868, 3869, 3870, 3871, 3872, 
3873, 3874, 3875, 3876, 3877, 3878, 3879, 3880, 3881, 3882, 3883, 3884, 3885, 3886, 3887, 3888, 
3889, 3890, 3891, 3892, 3893, 3894, 3895, 3896, 3897, 3898, 3899, 3900, 3901, 3902, 3903, 3904, 
3905, 3906, 3907, 3908, 3909, 3910, 3911, 3912, 3913, 3914, 3915, 3916, 3917, 3918, 3919, 3920, 
3921, 3922, 3923, 3924, 3925, 3926, 3927, 3928, 3929, 3930, 3931, 3932, 3933, 3934, 3935, 3936, 
3937, 3938, 3939, 3940, 3941, 3942, 3943, 3944, 3945, 3946, 3947, 3948, 3949, 3950, 3951, 3952, 
3953, 3954, 3955, 3956, 3957, 3958, 3959, 3960, 3961, 3962, 3963, 3964, 3965, 3966, 3967, 3968, 
3969, 3970, 3971, 3972, 3973, 3974, 3975, 3976, 3977, 3978, 3979, 3980, 3981, 3982, 3983, 3984, 
3985, 3986, 3987, 3988, 3989, 3990, 3991, 3992, 3993, 3994, 3995, 3996, 3997, 3998, 3999, 4000, 
4001, 4002, 4003, 4004, 4005, 4006, 4007, 4008, 4009, 4010, 4011, 4012, 4013, 4014, 4015, 4016, 
4017, 4018, 4019, 4020, 4021, 4022, 4023, 4024, 4025, 4026, 4027, 4028, 4029, 4030, 4031, 4032, 
4033, 4034, 4035, 4036, 4037, 4038, 4039, 4040, 4041, 4042, 4043, 4044, 4045, 4046, 4047, 4048, 
4049, 4050, 4051, 4052, 4053, 4054, 4055, 4056, 4057, 4058, 4059, 4060, 4061, 4062, 4063, 4064, 
4065, 4066, 4067, 4068, 4069, 4070, 4071, 4072, 4073, 4074, 4075, 4076, 4077, 4078, 4079, 4080, 
4081, 4082, 4083, 4084, 4085, 4086, 4087, 4088, 4089, 4090, 4091, 4092, 4093, 4094, 4095, 4096, 
4097, 4098, 4099, 4100, 4101, 4102, 4103, 4104, 4105, 4106, 4107, 4108, 4109, 4110, 4111, 4112, 
4113, 4114, 4115, 4116, 4117, 4118, 4119, 4120, 4121, 4122, 4123, 4124, 4125, 4126, 4127, 4128, 
4129, 4130, 4131, 4132, 4133, 4134, 4135, 4136, 4137, 4138, 4139, 4140, 4141, 4142, 4143, 4144, 
4145, 4146, 4147, 4148, 4149, 4150, 4151, 4152, 4153, 4154, 4155, 4156, 4157, 4158, 4159, 4160, 
4161, 4162, 4163, 4164, 4165, 4166, 4167, 4168, 4169, 4170, 4171, 4172, 4173, 4174, 4175, 4176, 
4177, 4178, 4179, 4180, 4181, 4182, 4183, 4184, 4185, 4186, 4187, 4188, 4189, 4190, 4191, 4192, 
4193, 4194, 4195, 4196, 4197, 4198, 4199, 4200, 4201, 4202, 4203, 4204, 4205, 4206, 4207, 4208, 
4209, 4210, 4211, 4212, 4213, 4214, 4215, 4216, 4217, 4218, 4219, 4220, 4221, 4222, 4223, 4224, 
4225, 4226, 4227, 4228, 4229, 4230, 4231, 4232, 4233, 4234, 4235, 4236, 4237, 4238, 4239, 4240, 
4241, 4242, 4243, 4244, 4245, 4246, 4247, 4248, 4249, 4250, 4251, 4252, 4253, 4254, 4255, 4256, 
4257, 4258, 4259, 4260, 4261, 4262, 4263, 4264, 4265, 4266, 4267, 4268, 4269, 4270, 4271, 4272, 
4273, 4274, 4275, 4276, 4277, 4278, 4279, 4280, 4281, 4282, 4283, 4284, 4285, 4286, 4287, 4288, 
4289, 4290, 4291, 4292, 4293, 4294, 4295, 4296, 4297, 4298, 4299, 4300, 4301, 4302, 4303, 4304, 
4305, 4306, 4307, 4308, 4309, 4310, 4311, 4312, 4313, 4314, 4315, 4316, 4317, 4318, 4319, 4320, 
4321, 4322, 4323, 4324, 4325, 4326, 4327, 4328, 4329, 4330, 4331, 4332, 4333, 4334, 4335, 4336, 
4337, 4338, 4339, 4340, 4341, 4342, 4343, 4344, 4345, 4346, 4347, 4348, 4349, 4350, 4351, 4352, 
4353, 4354, 4355, 4356, 4357, 4358, 4359, 4360, 4361, 4362, 4363, 4364, 4365, 4366, 4367, 4368, 
4369, 4370, 4371, 4372, 4373, 4374, 4375, 4376, 4377, 4378, 4379, 4380, 4381, 4382, 4383, 4384, 
4385, 4386, 4387, 4388, 4389, 4390, 4391, 4392, 4393, 4394, 4395, 4396, 4397, 4398, 4399, 4400, 
4401, 4402, 4403, 4404, 4405, 4406, 4407, 4408, 4409, 4410, 4411, 4412, 4413, 4414, 4415, 4416, 
4417, 4418, 4419, 4420, 4421, 4422, 4423, 4424, 4425, 4426, 4427, 4428, 4429, 4430, 4431, 4432, 
4433, 4434, 4435, 4436, 4437, 4438, 4439, 4440, 4441, 4442, 4443, 4444, 4445, 4446, 4447, 4448, 
4449, 4450, 4451, 4452, 4453, 4454, 4455, 4456, 4457, 4458, 4459, 4460, 4461, 4462, 4463, 4464, 
4465, 4466, 4467, 4468, 4469, 4470, 4471, 4472, 4473, 4474, 4475, 4476, 4477, 4478, 4479, 4480, 
4481, 4482, 4483, 4484, 4485, 4486, 4487, 4488, 4489, 4490, 4491, 4492, 4493, 4494, 4495, 4496, 
4497, 4498, 4499, 4500, 4501, 4502, 4503, 4504, 4505, 4506, 4507, 4508, 4509, 4510, 4511, 4512, 
4513, 4514, 4515, 4516, 4517, 4518, 4519, 4520, 4521, 4522, 4523, 4524, 4525, 4526, 4527, 4528, 
4529, 4530, 4531, 4532, 4533, 4534, 4535, 4536, 4537, 4538, 4539, 4540, 4541, 4542, 4543, 4544, 
4545, 4546, 4547, 4548, 4549, 4550, 4551, 4552, 4553, 4554, 4555, 4556, 4557, 4558, 4559, 4560, 
4561, 4562, 4563, 4564, 4565, 4566, 4567, 4568, 4569, 4570, 4571, 4572, 4573, 4574, 4575, 4576, 
4577, 4578, 4579, 4580, 4581, 4582, 4583, 4584, 4585, 4586, 4587, 4588, 4589, 4590, 4591, 4592, 
4593, 4594, 4595, 4596, 4597, 4598, 4599, 4600, 4601, 4602, 4603, 4604, 4605, 4606, 4607, 4608, 
4609, 4610, 4611, 4612, 4613, 4614, 4615, 4616, 4617, 4618, 4619, 4620, 4621, 4622, 4623, 4624, 
4625, 4626, 4627, 4628, 4629, 4630, 4631, 4632, 4633, 4634, 4635, 4636, 4637, 4638, 4639, 4640, 
4641, 4642, 4643, 4644, 4645, 4646, 4647, 4648, 4649, 4650, 4651, 4652, 4653, 4654, 4655, 4656, 
4657, 4658, 4659, 4660, 4661, 4662, 4663, 4664, 4665, 4666, 4667, 4668, 4669, 4670, 4671, 4672, 
4673, 4674, 4675, 4676, 4677, 4678, 4679, 4680, 4681, 4682, 4683, 4684, 4685, 4686, 4687, 4688, 
4689, 4690, 4691, 4692, 4693, 4694, 4695, 4696, 4697, 4698, 4699, 4700, 4701, 4702, 4703, 4704, 
4705, 4706, 4707, 4708, 4709, 4710, 4711, 4712, 4713, 4714, 4715, 4716, 4717, 4718, 4719, 4720, 
4721, 4722, 4723, 4724, 4725, 4726, 4727, 4728, 4729, 4730, 4731, 4732, 4733, 4734, 4735, 4736, 
4737, 4738, 4739, 4740, 4741, 4742, 4743, 4744, 4745, 4746, 4747, 4748, 4749, 4750, 4751, 4752, 
4753, 4754, 4755, 4756, 4757, 4758, 4759, 4760, 4761, 4762, 4763, 4764, 4765, 4766, 4767, 4768, 
4769, 4770, 4771, 4772, 4773, 4774, 4775, 4776, 4777, 4778, 4779, 4780, 4781, 4782, 4783, 4784, 
4785, 4786, 4787, 4788, 4789, 4790, 4791, 4792, 4793, 4794, 4795, 4796, 4797, 4798, 4799, 4800, 
4801, 4802, 4803, 4804, 4805, 4806, 4807, 4808, 4809, 4810, 4811, 4812, 4813, 4814, 4815, 4816, 
4817, 4818, 4819, 4820, 4821, 4822, 4823, 4824, 4825, 4826, 4827, 4828, 4829, 4830, 4831, 4832, 
4833, 4834, 4835, 4836, 4837, 4838, 4839, 4840, 4841, 4842, 4843, 4844, 4845, 4846, 4847, 4848, 
4849, 4850, 4851, 4852, 4853, 4854, 4855, 4856, 4857, 4858, 4859, 4860, 4861, 4862, 4863, 4864, 
4865, 4866, 4867, 4868, 4869, 4870, 4871, 4872, 4873, 4874, 4875, 4876, 4877, 4878, 4879, 4880, 
4881, 4882, 4883, 4884, 4885, 4886, 4887, 4888, 4889, 4890, 4891, 4892, 4893, 4894, 4895, 4896, 
4897, 4898, 4899, 4900, 4901, 4902, 4903, 4904, 4905, 4906, 4907, 4908, 4909, 4910, 4911, 4912, 
4913, 4914, 4915, 4916, 4917, 4918, 4919, 4920, 4921, 4922, 4923, 4924, 4925, 4926, 4927, 4928, 
4929, 4930, 4931, 4932, 4933, 4934, 4935, 4936, 4937, 4938, 4939, 4940, 4941, 4942, 4943, 4944, 
4945, 4946, 4947, 4948, 4949, 4950, 4951, 4952, 4953, 4954, 4955, 4956, 4957, 4958, 4959, 4960, 
4961, 4962, 4963, 4964, 4965, 4966, 4967, 4968, 4969, 4970, 4971, 4972, 4973, 4974, 4975, 4976, 
4977, 4978, 4979, 4980, 4981, 4982, 4983, 4984, 4985, 4986, 4987, 4988, 4989, 4990, 4991, 4992, 
4993, 4994, 4995, 4996, 4997, 4998, 4999, 5000, 5001, 5002, 5003, 5004, 5005, 5006, 5007, 5008, 
5009, 5010, 5011, 5012, 5013, 5014, 5015, 5016, 5017, 5018, 5019, 5020, 5021, 5022, 5023, 5024, 
5025, 5026, 5027, 5028, 5029, 5030, 5031, 5032, 5033, 5034, 5035, 5036, 5037, 5038, 5039, 5040, 
5041, 5042, 5043, 5044, 5045, 5046, 5047, 5048, 5049, 5050, 5051, 5052, 5053, 5054, 5055, 5056, 
5057, 5058, 5059, 5060, 5061, 5062, 5063, 5064, 5065, 5066, 5067, 5068, 5069, 5070, 5071, 5072, 
5073, 5074, 5075, 5076, 5077, 5078, 5079, 5080, 5081, 5082, 5083, 5084, 5085, 5086, 5087, 5088, 
5089, 5090, 5091, 5092, 5093, 5094, 5095, 5096, 5097, 5098, 5099, 5100, 5101, 5102, 5103, 5104, 
5105, 5106, 5107, 5108, 5109, 5110, 5111, 5112, 5113, 5114, 5115, 5116, 5117, 5118, 5119, 5120, 
5121, 5122, 5123, 5124, 5125, 5126, 5127, 5128, 5129, 5130, 5131, 5132, 5133, 5134, 5135, 5136, 
5137, 5138, 5139, 5140, 5141, 5142, 5143, 5144, 5145, 5146, 5147, 5148, 5149, 5150, 5151, 5152, 
5153, 5154, 5155, 5156, 5157, 5158, 5159, 5160, 5161, 5162, 5163, 5164, 5165, 5166, 5167, 5168, 
5169, 5170, 5171, 5172, 5173, 5174, 5175, 5176, 5177, 5178, 5179, 5180, 5181, 5182, 5183, 5184, 
5185, 5186, 5187, 5188, 5189, 5190, 5191, 5192, 5193, 5194, 5195, 5196, 5197, 5198, 5199, 5200, 
5201, 5202, 5203, 5204, 5205, 5206, 5207, 5208, 5209, 5210, 5211, 5212, 5213, 5214, 5215, 5216, 
5217, 5218, 5219, 5220, 5221, 5222, 5223, 5224, 5225, 5226, 5227, 5228, 5229, 5230, 5231, 5232, 
5233, 5234, 5235, 5236, 5237, 5238, 5239, 5240, 5241, 5242, 5243, 5244, 5245, 5246, 5247, 5248, 
5249, 5250, 5251, 5252, 5253, 5254, 5255, 5256, 5257, 5258, 5259, 5260, 5261, 5262, 5263, 5264, 
5265, 5266, 5267, 5268, 5269, 5270, 5271, 5272, 5273, 5274, 5275, 5276, 5277, 5278, 5279, 5280, 
5281, 5282, 5283, 5284, 5285, 5286, 5287, 5288, 5289, 5290, 5291, 5292, 5293, 5294, 5295, 5296, 
5297, 5298, 5299, 5300, 5301, 5302, 5303, 5304, 5305, 5306, 5307, 5308, 5309, 5310, 5311, 5312, 
5313, 5314, 5315, 5316, 5317, 5318, 5319, 5320, 5321, 5322, 5323, 5324, 5325, 5326, 5327, 5328, 
5329, 5330, 5331, 5332, 5333, 5334, 5335, 5336, 5337, 5338, 5339, 5340, 5341, 5342, 5343, 5344, 
5345, 5346, 5347, 5348, 5349, 5350, 5351, 5352, 5353, 5354, 5355, 5356, 5357, 5358, 5359, 5360, 
5361, 5362, 5363, 5364, 5365, 5366, 5367, 5368, 5369, 5370, 5371, 5372, 5373, 5374, 5375, 5376, 
5377, 5378, 5379, 5380, 5381, 5382, 5383, 5384, 5385, 5386, 5387, 5388, 5389, 5390, 5391, 5392, 
5393, 5394, 5395, 5396, 5397, 5398, 5399, 5400, 5401, 5402, 5403, 5404, 5405, 5406, 5407, 5408, 
5409, 5410, 5411, 5412, 5413, 5414, 5415, 5416, 5417, 5418, 5419, 5420, 5421, 5422, 5423, 5424, 
5425, 5426, 5427, 5428, 5429, 5430, 5431, 5432, 5433, 5434, 5435, 5436, 5437, 5438, 5439, 5440, 
5441, 5442, 5443, 5444, 5445, 5446, 5447, 5448, 5449, 5450, 5451, 5452, 5453, 5454, 5455, 5456, 
5457, 5458, 5459, 5460, 5461, 5462, 5463, 5464, 5465, 5466, 5467, 5468, 5469, 5470, 5471, 5472, 
5473, 5474, 5475, 5476, 5477, 5478, 5479, 5480, 5481, 5482, 5483, 5484, 5485, 5486, 5487, 5488, 
5489, 5490, 5491, 5492, 5493, 5494, 5495, 5496, 5497, 5498, 5499, 5500, 5501, 5502, 5503, 5504, 
5505, 5506, 5507, 5508, 5509, 5510, 5511, 5512, 5513, 5514, 5515, 5516, 5517, 5518, 5519, 5520, 
5521, 5522, 5523, 5524, 5525, 5526, 5527, 5528, 5529, 5530, 5531, 5532, 5533, 5534, 5535, 5536, 
5537, 5538, 5539, 5540, 5541, 5542, 5543, 5544, 5545, 5546, 5547, 5548, 5549, 5550, 5551, 5552, 
5553, 5554, 5555, 5556, 5557, 5558, 5559, 5560, 5561, 5562, 5563, 5564, 5565, 5566, 5567, 5568, 
5569, 5570, 5571, 5572, 5573, 5574, 5575, 5576, 5577, 5578, 5579, 5580, 5581, 5582, 5583, 5584, 
5585, 5586, 5587, 5588, 5589, 5590, 5591, 5592, 5593, 5594, 5595, 5596, 5597, 5598, 5599, 5600, 
5601, 5602, 5603, 5604, 5605, 5606, 5607, 5608, 5609, 5610, 5611, 5612, 5613, 5614, 5615, 5616, 
5617, 5618, 5619, 5620, 5621, 5622, 5623, 5624, 5625, 5626, 5627, 5628, 5629, 5630, 5631, 5632, 
5633, 5634, 5635, 5636, 5637, 5638, 5639, 5640, 5641, 5642, 5643, 5644, 5645, 5646, 5647, 5648, 
5649, 5650, 5651, 5652, 5653, 5654, 5655, 5656, 5657, 5658, 5659, 5660, 5661, 5662, 5663, 5664, 
5665, 5666, 5667, 5668, 5669, 5670, 5671, 5672, 5673, 5674, 5675, 5676, 5677, 5678, 5679, 5680, 
5681, 5682, 5683, 5684, 5685, 5686, 5687, 5688, 5689, 5690, 5691, 5692, 5693, 5694, 5695, 5696, 
5697, 5698, 5699, 5700, 5701, 5702, 5703, 5704, 5705, 5706, 5707, 5708, 5709, 5710, 5711, 5712, 
5713, 5714, 5715, 5716, 5717, 5718, 5719, 5720, 5721, 5722, 5723, 5724, 5725, 5726, 5727, 5728, 
5729, 5730, 5731, 5732, 5733, 5734, 5735, 5736, 5737, 5738, 5739, 5740, 5741, 5742, 5743, 5744, 
5745, 5746, 5747, 5748, 5749, 5750, 5751, 5752, 5753, 5754, 5755, 5756, 5757, 5758, 5759, 5760, 
5761, 5762, 5763, 5764, 5765, 5766, 5767, 5768, 5769, 5770, 5771, 5772, 5773, 5774, 5775, 5776, 
5777, 5778, 5779, 5780, 5781, 5782, 5783, 5784, 5785, 5786, 5787, 5788, 5789, 5790, 5791, 5792, 
5793, 5794, 5795, 5796, 5797, 5798, 5799, 5800, 5801, 5802, 5803, 5804, 5805, 5806, 5807, 5808, 
5809, 5810, 5811, 5812, 5813, 5814, 5815, 5816, 5817, 5818, 5819, 5820, 5821, 5822, 5823, 5824, 
5825, 5826, 5827, 5828, 5829, 5830, 5831, 5832, 5833, 5834, 5835, 5836, 5837, 5838, 5839, 5840, 
5841, 5842, 5843, 5844, 5845, 5846, 5847, 5848, 5849, 5850, 5851, 5852, 5853, 5854, 5855, 5856, 
5857, 5858, 5859, 5860, 5861, 5862, 5863, 5864, 5865, 5866, 5867, 5868, 5869, 5870, 5871, 5872, 
5873, 5874, 5875, 5876, 5877, 5878, 5879, 5880, 5881, 5882, 5883, 5884, 5885, 5886, 5887, 5888, 
5889, 5890, 5891, 5892, 5893, 5894, 5895, 5896, 5897, 5898, 5899, 5900, 5901, 5902, 5903, 5904, 
5905, 5906, 5907, 5908, 5909, 5910, 5911, 5912, 5913, 5914, 5915, 5916, 5917, 5918, 5919, 5920, 
5921, 5922, 5923, 5924, 5925, 5926, 5927, 5928, 5929, 5930, 5931, 5932, 5933, 5934, 5935, 5936, 
5937, 5938, 5939, 5940, 5941, 5942, 5943, 5944, 5945, 5946, 5947, 5948, 5949, 5950, 5951, 5952, 
5953, 5954, 5955, 5956, 5957, 5958, 5959, 5960, 5961, 5962, 5963, 5964, 5965, 5966, 5967, 5968, 
5969, 5970, 5971, 5972, 5973, 5974, 5975, 5976, 5977, 5978, 5979, 5980, 5981, 5982, 5983, 5984, 
5985, 5986, 5987, 5988, 5989, 5990, 5991, 5992, 5993, 5994, 5995, 5996, 5997, 5998, 5999, 6000, 
6001, 6002, 6003, 6004, 6005, 6006, 6007, 6008, 6009, 6010, 6011, 6012, 6013, 6014, 6015, 6016, 
6017, 6018, 6019, 6020, 6021, 6022, 6023, 6024, 6025, 6026, 6027, 6028, 6029, 6030, 6031, 6032, 
6033, 6034, 6035, 6036, 6037, 6038, 6039, 6040, 6041, 6042, 6043, 6044, 6045, 6046, 6047, 6048, 
6049, 6050, 6051, 6052, 6053, 6054, 6055, 6056, 6057, 6058, 6059, 6060, 6061, 6062, 6063, 6064, 
6065, 6066, 6067, 6068, 6069, 6070, 6071, 6072, 6073, 6074, 6075, 6076, 6077, 6078, 6079, 6080, 
6081, 6082, 6083, 6084, 6085, 6086, 6087, 6088, 6089, 6090, 6091, 6092, 6093, 6094, 6095, 6096, 
6097, 6098, 6099, 6100, 6101, 6102, 6103, 6104, 6105, 6106, 6107, 6108, 6109, 6110, 6111, 6112, 
6113, 6114, 6115, 6116, 6117, 6118, 6119, 6120, 6121, 6122, 6123, 6124, 6125, 6126, 6127, 6128, 
6129, 6130, 6131, 6132, 6133, 6134, 6135, 6136, 6137, 6138, 6139, 6140, 6141, 6142, 6143, 6144, 
6145, 6146, 6147, 6148, 6149, 6150, 6151, 6152, 6153, 6154, 6155, 6156, 6157, 6158, 6159, 6160, 
6161, 6162, 6163, 6164, 6165, 6166, 6167, 6168, 6169, 6170, 6171, 6172, 6173, 6174, 6175, 6176, 
6177, 6178, 6179, 6180, 6181, 6182, 6183, 6184, 6185, 6186, 6187, 6188, 6189, 6190, 6191, 6192, 
6193, 6194, 6195, 6196, 6197, 6198, 6199, 6200, 6201, 6202, 6203, 6204, 6205, 6206, 6207, 6208, 
6209, 6210, 6211, 6212, 6213, 6214, 6215, 6216, 6217, 6218, 6219, 6220, 6221, 6222, 6223, 6224, 
6225, 6226, 6227, 6228, 6229, 6230, 6231, 6232, 6233, 6234, 6235, 6236, 6237, 6238, 6239, 6240, 
6241, 6242, 6243, 6244, 6245, 6246, 6247, 6248, 6249, 6250, 6251, 6252, 6253, 6254, 6255, 6256, 
6257, 6258, 6259, 6260, 6261, 6262, 6263, 6264, 6265, 6266, 6267, 6268, 6269, 6270, 6271, 6272, 
6273, 6274, 6275, 6276, 6277, 6278, 6279, 6280, 6281, 6282, 6283, 6284, 6285, 6286, 6287, 6288, 
6289, 6290, 6291, 6292, 6293, 6294, 6295, 6296, 6297, 6298, 6299, 6300, 6301, 6302, 6303, 6304, 
6305, 6306, 6307, 6308, 6309, 6310, 6311, 6312, 6313, 6314, 6315, 6316, 6317, 6318, 6319, 6320, 
6321, 6322, 6323, 6324, 6325, 6326, 6327, 6328, 6329, 6330, 6331, 6332, 6333, 6334, 6335, 6336, 
6337, 6338, 6339, 6340, 6341, 6342, 6343, 6344, 6345, 6346, 6347, 6348, 6349, 6350, 6351, 6352, 
6353, 6354, 6355, 6356, 6357, 6358, 6359, 6360, 6361, 6362, 6363, 6364, 6365, 6366, 6367, 6368, 
6369, 6370, 6371, 6372, 6373, 6374, 6375, 6376, 6377, 6378, 6379, 6380, 6381, 6382, 6383, 6384, 
6385, 6386, 6387, 6388, 6389, 6390, 6391, 6392, 6393, 6394, 6395, 6396, 6397, 6398, 6399, 6400, 
6401, 6402, 6403, 6404, 6405, 6406, 6407, 6408, 6409, 6410, 6411, 6412, 6413, 6414, 6415, 6416, 
6417, 6418, 6419, 6420, 6421, 6422, 6423, 6424, 6425, 6426, 6427, 6428, 6429, 6430, 6431, 6432, 
6433, 6434, 6435, 6436, 6437, 6438, 6439, 6440, 6441, 6442, 6443, 6444, 6445, 6446, 6447, 6448, 
6449, 6450, 6451, 6452, 6453, 6454, 6455, 6456, 6457, 6458, 6459, 6460, 6461, 6462, 6463, 6464, 
6465, 6466, 6467, 6468, 6469, 6470, 6471, 6472, 6473, 6474, 6475, 6476, 6477, 6478, 6479, 6480, 
6481, 6482, 6483, 6484, 6485, 6486, 6487, 6488, 6489, 6490, 6491, 6492, 6493, 6494, 6495, 6496, 
6497, 6498, 6499, 6500, 6501, 6502, 6503, 6504, 6505, 6506, 6507, 6508, 6509, 6510, 6511, 6512, 
6513, 6514, 6515, 6516, 6517, 6518, 6519, 6520, 6521, 6522, 6523, 6524, 6525, 6526, 6527, 6528, 
6529, 6530, 6531, 6532, 6533, 6534, 6535, 6536, 6537, 6538, 6539, 6540, 6541, 6542, 6543, 6544, 
6545, 6546, 6547, 6548, 6549, 6550, 6551, 6552, 6553, 6554, 6555, 6556, 6557, 6558, 6559, 6560, 
6561, 6562, 6563, 6564, 6565, 6566, 6567, 6568, 6569, 6570, 6571, 6572, 6573, 6574, 6575, 6576, 
6577, 6578, 6579, 6580, 6581, 6582, 6583, 6584, 6585, 6586, 6587, 6588, 6589, 6590, 6591, 6592, 
6593, 6594, 6595, 6596, 6597, 6598, 6599, 6600, 6601, 6602, 6603, 6604, 6605, 6606, 6607, 6608, 
6609, 6610, 6611, 6612, 6613, 6614, 6615, 6616, 6617, 6618, 6619, 6620, 6621, 6622, 6623, 6624, 
6625, 6626, 6627, 6628, 6629, 6630, 6631, 6632, 6633, 6634, 6635, 6636, 6637, 6638, 6639, 6640, 
6641, 6642, 6643, 6644, 6645, 6646, 6647, 6648, 6649, 6650, 6651, 6652, 6653, 6654, 6655, 6656, 
6657, 6658, 6659, 6660, 6661, 6662, 6663, 6664, 6665, 6666, 6667, 6668, 6669, 6670, 6671, 6672, 
6673, 6674, 6675, 6676, 6677, 6678, 6679, 6680, 6681, 6682, 6683, 6684, 6685, 6686, 6687, 6688, 
6689, 6690, 6691, 6692, 6693, 6694, 6695, 6696, 6697, 6698, 6699, 6700, 6701, 6702, 6703, 6704, 
6705, 6706, 6707, 6708, 6709, 6710, 6711, 6712, 6713, 6714, 6715, 6716, 6717, 6718, 6719, 6720, 
6721, 6722, 6723, 6724, 6725, 6726, 6727, 6728, 6729, 6730, 6731, 6732, 6733, 6734, 6735, 6736, 
6737, 6738, 6739, 6740, 6741, 6742, 6743, 6744, 6745, 6746, 6747, 6748, 6749, 6750, 6751, 6752, 
6753, 6754, 6755, 6756, 6757, 6758, 6759, 6760, 6761, 6762, 6763, 6764, 6765, 6766, 6767, 6768, 
6769, 6770, 6771, 6772, 6773, 6774, 6775, 6776, 6777, 6778, 6779, 6780, 6781, 6782, 6783, 6784, 
6785, 6786, 6787, 6788, 6789, 6790, 6791, 6792, 6793, 6794, 6795, 6796, 6797, 6798, 6799, 6800, 
6801, 6802, 6803, 6804, 6805, 6806, 6807, 6808, 6809, 6810, 6811, 6812, 6813, 6814, 6815, 6816, 
6817, 6818, 6819, 6820, 6821, 6822, 6823, 6824, 6825, 6826, 6827, 6828, 6829, 6830, 6831, 6832, 
6833, 6834, 6835, 6836, 6837, 6838, 6839, 6840, 6841, 6842, 6843, 6844, 6845, 6846, 6847, 6848, 
6849, 6850, 6851, 6852, 6853, 6854, 6855, 6856, 6857, 6858, 6859, 6860, 6861, 6862, 6863, 6864, 
6865, 6866, 6867, 6868, 6869, 6870, 6871, 6872, 6873, 6874, 6875, 6876, 6877, 6878, 6879, 6880, 
6881, 6882, 6883, 6884, 6885, 6886, 6887, 6888, 6889, 6890, 6891, 6892, 6893, 6894, 6895, 6896, 
6897, 6898, 6899, 6900, 6901, 6902, 6903, 6904, 6905, 6906, 6907, 6908, 6909, 6910, 6911, 6912, 
6913, 6914, 6915, 6916, 6917, 6918, 6919, 6920, 6921, 6922, 6923, 6924, 6925, 6926, 6927, 6928, 
6929, 6930, 6931, 6932, 6933, 6934, 6935, 6936, 6937, 6938, 6939, 6940, 6941, 6942, 6943, 6944, 
6945, 6946, 6947, 6948, 6949, 6950, 6951, 6952, 6953, 6954, 6955, 6956, 6957, 6958, 6959, 6960, 
6961, 6962, 6963, 6964, 6965, 6966, 6967, 6968, 6969, 6970, 6971, 6972, 6973, 6974, 6975, 6976, 
6977, 6978, 6979, 6980, 6981, 6982, 6983, 6984, 6985, 6986, 6987, 6988, 6989, 6990, 6991, 6992, 
6993, 6994, 6995, 6996, 6997, 6998, 6999, 7000, 7001, 7002, 7003, 7004, 7005, 7006, 7007, 7008, 
7009, 7010, 7011, 7012, 7013, 7014, 7015, 7016, 7017, 7018, 7019, 7020, 7021, 7022, 7023, 7024, 
7025, 7026, 7027, 7028, 7029, 7030, 7031, 7032, 7033, 7034, 7035, 7036, 7037, 7038, 7039, 7040, 
7041, 7042, 7043, 7044, 7045, 7046, 7047, 7048, 7049, 7050, 7051, 7052, 7053, 7054, 7055, 7056, 
7057, 7058, 7059, 7060, 7061, 7062, 7063, 7064, 7065, 7066, 7067, 7068, 7069, 7070, 7071, 7072, 
7073, 7074, 7075, 7076, 7077, 7078, 7079, 7080, 7081, 7082, 7083, 7084, 7085, 7086, 7087, 7088, 
7089, 7090, 7091, 7092, 7093, 7094, 7095, 7096, 7097, 7098, 7099, 7100, 7101, 7102, 7103, 7104, 
7105, 7106, 7107, 7108, 7109, 7110, 7111, 7112, 7113, 7114, 7115, 7116, 7117, 7118, 7119, 7120, 
7121, 7122, 7123, 7124, 7125, 7126, 7127, 7128, 7129, 7130, 7131, 7132, 7133, 7134, 7135, 7136, 
7137, 7138, 7139, 7140, 7141, 7142, 7143, 7144, 7145, 7146, 7147, 7148, 7149, 7150, 7151, 7152, 
7153, 7154, 7155, 7156, 7157, 7158, 7159, 7160, 7161, 7162, 7163, 7164, 7165, 7166, 7167, 7168, 
7169, 7170, 7171, 7172, 7173, 7174, 7175, 7176, 7177, 7178, 7179, 7180, 7181, 7182, 7183, 7184, 
7185, 7186, 7187, 7188, 7189, 7190, 7191, 7192, 7193, 7194, 7195, 7196, 7197, 7198, 7199, 7200, 
7201, 7202, 7203, 7204, 7205, 7206, 7207, 7208, 7209, 7210, 7211, 7212, 7213, 7214, 7215, 7216, 
7217, 7218, 7219, 7220, 7221, 7222, 7223, 7224, 7225, 7226, 7227, 7228, 7229, 7230, 7231, 7232, 
7233, 7234, 7235, 7236, 7237, 7238, 7239, 7240, 7241, 7242, 7243, 7244, 7245, 7246, 7247, 7248, 
7249, 7250, 7251, 7252, 7253, 7254, 7255, 7256, 7257, 7258, 7259, 7260, 7261, 7262, 7263, 7264, 
7265, 7266, 7267, 7268, 7269, 7270, 7271, 7272, 7273, 7274, 7275, 7276, 7277, 7278, 7279, 7280, 
7281, 7282, 7283, 7284, 7285, 7286, 7287, 7288, 7289, 7290, 7291, 7292, 7293, 7294, 7295, 7296, 
7297, 7298, 7299, 7300, 7301, 7302, 7303, 7304, 7305, 7306, 7307, 7308, 7309, 7310, 7311, 7312, 
7313, 7314, 7315, 7316, 7317, 7318, 7319, 7320, 7321, 7322, 7323, 7324, 7325, 7326, 7327, 7328, 
7329, 7330, 7331, 7332, 7333, 7334, 7335, 7336, 7337, 7338, 7339, 7340, 7341, 7342, 7343, 7344, 
7345, 7346, 7347, 7348, 7349, 7350, 7351, 7352, 7353, 7354, 7355, 7356, 7357, 7358, 7359, 7360, 
7361, 7362, 7363, 7364, 7365, 7366, 7367, 7368, 7369, 7370, 7371, 7372, 7373, 7374, 7375, 7376, 
7377, 7378, 7379, 7380, 7381, 7382, 7383, 7384, 7385, 7386, 7387, 7388, 7389, 7390, 7391, 7392, 
7393, 7394, 7395, 7396, 7397, 7398, 7399, 7400, 7401, 7402, 7403, 7404, 7405, 7406, 7407, 7408, 
7409, 7410, 7411, 7412, 7413, 7414, 7415, 7416, 7417, 7418, 7419, 7420, 7421, 7422, 7423, 7424, 
7425, 7426, 7427, 7428, 7429, 7430, 7431, 7432, 7433, 7434, 7435, 7436, 7437, 7438, 7439, 7440, 
7441, 7442, 7443, 7444, 7445, 7446, 7447, 7448, 7449, 7450, 7451, 7452, 7453, 7454, 7455, 7456, 
7457, 7458, 7459, 7460, 7461, 7462, 7463, 7464, 7465, 7466, 7467, 7468, 7469, 7470, 7471, 7472, 
7473, 7474, 7475, 7476, 7477, 7478, 7479, 7480, 7481, 7482, 7483, 7484, 7485, 7486, 7487, 7488, 
7489, 7490, 7491, 7492, 7493, 7494, 7495, 7496, 7497, 7498, 7499, 7500, 7501, 7502, 7503, 7504, 
7505, 7506, 7507, 7508, 7509, 7510, 7511, 7512, 7513, 7514, 7515, 7516, 7517, 7518, 7519, 7520, 
7521, 7522, 7523, 7524, 7525, 7526, 7527, 7528, 7529, 7530, 7531, 7532, 7533, 7534, 7535, 7536, 
7537, 7538, 7539, 7540, 7541, 7542, 7543, 7544, 7545, 7546, 7547, 7548, 7549, 7550, 7551, 7552, 
7553, 7554, 7555, 7556, 7557, 7558, 7559, 7560, 7561, 7562, 7563, 7564, 7565, 7566, 7567, 7568, 
7569, 7570, 7571, 7572, 7573, 7574, 7575, 7576, 7577, 7578, 7579, 7580, 7581, 7582, 7583, 7584, 
7585, 7586, 7587, 7588, 7589, 7590, 7591, 7592, 7593, 7594, 7595, 7596, 7597, 7598, 7599, 7600, 
7601, 7602, 7603, 7604, 7605, 7606, 7607, 7608, 7609, 7610, 7611, 7612, 7613, 7614, 7615, 7616, 
7617, 7618, 7619, 7620, 7621, 7622, 7623, 7624, 7625, 7626, 7627, 7628, 7629, 7630, 7631, 7632, 
7633, 7634, 7635, 7636, 7637, 7638, 7639, 7640, 7641, 7642, 7643, 7644, 7645, 7646, 7647, 7648, 
7649, 7650, 7651, 7652, 7653, 7654, 7655, 7656, 7657, 7658, 7659, 7660, 7661, 7662, 7663, 7664, 
7665, 7666, 7667, 7668, 7669, 7670, 7671, 7672, 7673, 7674, 7675, 7676, 7677, 7678, 7679, 7680, 
7681, 7682, 7683, 7684, 7685, 7686, 7687, 7688, 7689, 7690, 7691, 7692, 7693, 7694, 7695, 7696, 
7697, 7698, 7699, 7700, 7701, 7702, 7703, 7704, 7705, 7706, 7707, 7708, 7709, 7710, 7711, 7712, 
7713, 7714, 7715, 7716, 7717, 7718, 7719, 7720, 7721, 7722, 7723, 7724, 7725, 7726, 7727, 7728, 
7729, 7730, 7731, 7732, 7733, 7734, 7735, 7736, 7737, 7738, 7739, 7740, 7741, 7742, 7743, 7744, 
7745, 7746, 7747, 7748, 7749, 7750, 7751, 7752, 7753, 7754, 7755, 7756, 7757, 7758, 7759, 7760, 
7761, 7762, 7763, 7764, 7765, 7766, 7767, 7768, 7769, 7770, 7771, 7772, 7773, 7774, 7775, 7776, 
7777, 7778, 7779, 7780, 7781, 7782, 7783, 7784, 7785, 7786, 7787, 7788, 7789, 7790, 7791, 7792, 
7793, 7794, 7795, 7796, 7797, 7798, 7799, 7800, 7801, 7802, 7803, 7804, 7805, 7806, 7807, 7808, 
7809, 7810, 7811, 7812, 7813, 7814, 7815, 7816, 7817, 7818, 7819, 7820, 7821, 7822, 7823, 7824, 
7825, 7826, 7827, 7828, 7829, 7830, 7831, 7832, 7833, 7834, 7835, 7836, 7837, 7838, 7839, 7840, 
7841, 7842, 7843, 7844, 7845, 7846, 7847, 7848, 7849, 7850, 7851, 7852, 7853, 7854, 7855, 7856, 
7857, 7858, 7859, 7860, 7861, 7862, 7863, 7864, 7865, 7866, 7867, 7868, 7869, 7870, 7871, 7872, 
7873, 7874, 7875, 7876, 7877, 7878, 7879, 7880, 7881, 7882, 7883, 7884, 7885, 7886, 7887, 7888, 
7889, 7890, 7891, 7892, 7893, 7894, 7895, 7896, 7897, 7898, 7899, 7900, 7901, 7902, 7903, 7904, 
7905, 7906, 7907, 7908, 7909, 7910, 7911, 7912, 7913, 7914, 7915, 7916, 7917, 7918, 7919, 7920, 
7921, 7922, 7923, 7924, 7925, 7926, 7927, 7928, 7929, 7930, 7931, 7932, 7933, 7934, 7935, 7936, 
7937, 7938, 7939, 7940, 7941, 7942, 7943, 7944, 7945, 7946, 7947, 7948, 7949, 7950, 7951, 7952, 
7953, 7954, 7955, 7956, 7957, 7958, 7959, 7960, 7961, 7962, 7963, 7964, 7965, 7966, 7967, 7968, 
7969, 7970, 7971, 7972, 7973, 7974, 7975, 7976, 7977, 7978, 7979, 7980, 7981, 7982, 7983, 7984, 
7985, 7986, 7987, 7988, 7989, 7990, 7991, 7992, 7993, 7994, 7995, 7996, 7997, 7998, 7999, 8000, 
8001, 8002, 8003, 8004, 8005, 8006, 8007, 8008, 8009, 8010, 8011, 8012, 8013, 8014, 8015, 8016, 
8017, 8018, 8019, 8020, 8021, 8022, 8023, 8024, 8025, 8026, 8027, 8028, 8029, 8030, 8031, 8032, 
8033, 8034, 8035, 8036, 8037, 8038, 8039, 8040, 8041, 8042, 8043, 8044, 8045, 8046, 8047, 8048, 
8049, 8050, 8051, 8052, 8053, 8054, 8055, 8056, 8057, 8058, 8059, 8060, 8061, 8062, 8063, 8064, 
8065, 8066, 8067, 8068, 8069, 8070, 8071, 8072, 8073, 8074, 8075, 8076, 8077, 8078, 8079, 8080, 
8081, 8082, 8083, 8084, 8085, 8086, 8087, 8088, 8089, 8090, 8091, 8092, 8093, 8094, 8095, 8096, 
8097, 8098, 8099, 8100, 8101, 8102, 8103, 8104, 8105, 8106, 8107, 8108, 8109, 8110, 8111, 8112, 
8113, 8114, 8115, 8116, 8117, 8118, 8119, 8120, 8121, 8122, 8123, 8124, 8125, 8126, 8127, 8128, 
8129, 8130, 8131, 8132, 8133, 8134, 8135, 8136, 8137, 8138, 8139, 8140, 8141, 8142, 8143, 8144, 
8145, 8146, 8147, 8148, 8149, 8150, 8151, 8152, 8153, 8154, 8155, 8156, 8157, 8158, 8159, 8160, 
8161, 8162, 8163, 8164, 8165, 8166, 8167, 8168, 8169, 8170, 8171, 8172, 8173, 8174, 8175, 8176, 
8177, 8178, 8179, 8180, 8181, 8182, 8183, 8184, 8185, 8186, 8187, 8188, 8189, 8190, 8191, 8192, 
8193, 8194, 8195, 8196, 8197, 8198, 8199, 8200, 8201, 8202, 8203, 8204, 8205, 8206, 8207, 8208, 
8209, 8210, 8211, 8212, 8213, 8214, 8215, 8216, 8217, 8218, 8219, 8220, 8221, 8222, 8223, 8224, 
8225, 8226, 8227, 8228, 8229, 8230, 8231, 8232, 8233, 8234, 8235, 8236, 8237, 8238, 8239, 8240, 
8241, 8242, 8243, 8244, 8245, 8246, 8247, 8248, 8249, 8250, 8251, 8252, 8253, 8254, 8255, 8256, 
8257, 8258, 8259, 8260, 8261, 8262, 8263, 8264, 8265, 8266, 8267, 8268, 8269, 8270, 8271, 8272, 
8273, 8274, 8275, 8276, 8277, 8278, 8279, 8280, 8281, 8282, 8283, 8284, 8285, 8286, 8287, 8288, 
8289, 8290, 8291, 8292, 8293, 8294, 8295, 8296, 8297, 8298, 8299, 8300, 8301, 8302, 8303, 8304, 
8305, 8306, 8307, 8308, 8309, 8310, 8311, 8312, 8313, 8314, 8315, 8316, 8317, 8318, 8319, 8320, 
8321, 8322, 8323, 8324, 8325, 8326, 8327, 8328, 8329, 8330, 8331, 8332, 8333, 8334, 8335, 8336, 
8337, 8338, 8339, 8340, 8341, 8342, 8343, 8344, 8345, 8346, 8347, 8348, 8349, 8350, 8351, 8352, 
8353, 8354, 8355, 8356, 8357, 8358, 8359, 8360, 8361, 8362, 8363, 8364, 8365, 8366, 8367, 8368, 
8369, 8370, 8371, 8372, 8373, 8374, 8375, 8376, 8377, 8378, 8379, 8380, 8381, 8382, 8383, 8384, 
8385, 8386, 8387, 8388, 8389, 8390, 8391, 8392, 8393, 8394, 8395, 8396, 8397, 8398, 8399, 8400, 
8401, 8402, 8403, 8404, 8405, 8406, 8407, 8408, 8409, 8410, 8411, 8412, 8413, 8414, 8415, 8416, 
8417, 8418, 8419, 8420, 8421, 8422, 8423, 8424, 8425, 8426, 8427, 8428, 8429, 8430, 8431, 8432, 
8433, 8434, 8435, 8436, 8437, 8438, 8439, 8440, 8441, 8442, 8443, 8444, 8445, 8446, 8447, 8448, 
8449, 8450, 8451, 8452, 8453, 8454, 8455, 8456, 8457, 8458, 8459, 8460, 8461, 8462, 8463, 8464, 
8465, 8466, 8467, 8468, 8469, 8470, 8471, 8472, 8473, 8474, 8475, 8476, 8477, 8478, 8479, 8480, 
8481, 8482, 8483, 8484, 8485, 8486, 8487, 8488, 8489, 8490, 8491, 8492, 8493, 8494, 8495, 8496, 
8497, 8498, 8499, 8500, 8501, 8502, 8503, 8504, 8505, 8506, 8507, 8508, 8509, 8510, 8511, 8512, 
8513, 8514, 8515, 8516, 8517, 8518, 8519, 8520, 8521, 8522, 8523, 8524, 8525, 8526, 8527, 8528, 
8529, 8530, 8531, 8532, 8533, 8534, 8535, 8536, 8537, 8538, 8539, 8540, 8541, 8542, 8543, 8544, 
8545, 8546, 8547, 8548, 8549, 8550, 8551, 8552, 8553, 8554, 8555, 8556, 8557, 8558, 8559, 8560, 
8561, 8562, 8563, 8564, 8565, 8566, 8567, 8568, 8569, 8570, 8571, 8572, 8573, 8574, 8575, 
*Nset, Nset=WP_End_Left
1, 2, 3, 4, 5, 6, 7, 8, 9, 10, 11, 12, 13, 14, 15, 16, 17, 18, 19, 20, 21, 22, 23, 24, 25, 26, 27, 28, 29, 30, 31, 32, 33, 34, 35, 36, 37, 38, 39, 40, 41, 42, 43, 44, 45, 46, 47, 48, 49, 50, 51, 52, 53, 54, 55, 56, 57, 58, 59, 60, 61, 62, 63, 64, 65, 66, 67, 68, 69, 70, 71, 72, 73, 74, 75, 76, 77, 78, 79, 80, 81, 82, 83, 84, 85, 86, 87, 88, 89, 90, 91, 92, 93, 94, 95, 96, 97, 98, 99, 100, 101, 102, 103, 104, 105, 106, 107, 108, 109, 110, 111, 112, 113, 114, 115, 116, 117, 118, 119, 120, 121, 122, 123, 124, 125, 126, 127, 128, 129, 130, 131, 132, 133, 134, 135, 136, 137, 138, 139, 140, 141, 142, 143, 144, 145, 146, 147, 148, 149, 150, 151, 152, 153, 154, 155, 156, 157, 158, 159, 160, 161, 162, 163, 164, 165, 166, 167, 168, 169, 170, 171, 172, 173, 174, 175, 176, 177, 178, 179, 180, 181, 182, 183, 184, 185, 186, 187, 188, 189, 190, 191, 192, 193, 194, 195, 196, 197, 198, 199, 200, 201, 202, 203, 204, 205, 206, 207, 208, 209, 210, 211, 212, 213, 214, 215, 216, 217, 218, 219, 220, 221, 222, 223, 224, 225, 226, 227, 228, 229, 230, 231, 232, 233, 234, 235, 236, 237, 238, 239, 240, 241, 242, 243, 244, 245, 246, 247, 248, 249, 250, 251, 252, 253, 254, 255, 256, 257, 258, 259, 260, 261, 262, 263, 264, 265, 266, 267, 268, 269, 270, 271, 272, 273, 274, 275, 276, 277, 278, 279, 280, 281, 282, 283, 284, 285, 286, 287, 288, 289, 290, 291, 292, 293, 294, 295, 296, 297, 298, 299, 300, 301, 302, 303, 304, 305, 306, 307, 308, 309, 310, 311, 312, 313, 314, 315, 316, 317, 318, 319, 320, 321, 322, 323, 324, 325, 326, 327, 328, 329, 330, 331, 332, 333, 334, 335, 336, 337, 338, 339, 340, 341, 342, 343, 
*Nset, Nset=WP_End_Right
8233, 8234, 8235, 8236, 8237, 8238, 8239, 8240, 8241, 8242, 8243, 8244, 8245, 8246, 8247, 8248, 8249, 8250, 8251, 8252, 8253, 8254, 8255, 8256, 8257, 8258, 8259, 8260, 8261, 8262, 8263, 8264, 8265, 8266, 8267, 8268, 8269, 8270, 8271, 8272, 8273, 8274, 8275, 8276, 8277, 8278, 8279, 8280, 8281, 8282, 8283, 8284, 8285, 8286, 8287, 8288, 8289, 8290, 8291, 8292, 8293, 8294, 8295, 8296, 8297, 8298, 8299, 8300, 8301, 8302, 8303, 8304, 8305, 8306, 8307, 8308, 8309, 8310, 8311, 8312, 8313, 8314, 8315, 8316, 8317, 8318, 8319, 8320, 8321, 8322, 8323, 8324, 8325, 8326, 8327, 8328, 8329, 8330, 8331, 8332, 8333, 8334, 8335, 8336, 8337, 8338, 8339, 8340, 8341, 8342, 8343, 8344, 8345, 8346, 8347, 8348, 8349, 8350, 8351, 8352, 8353, 8354, 8355, 8356, 8357, 8358, 8359, 8360, 8361, 8362, 8363, 8364, 8365, 8366, 8367, 8368, 8369, 8370, 8371, 8372, 8373, 8374, 8375, 8376, 8377, 8378, 8379, 8380, 8381, 8382, 8383, 8384, 8385, 8386, 8387, 8388, 8389, 8390, 8391, 8392, 8393, 8394, 8395, 8396, 8397, 8398, 8399, 8400, 8401, 8402, 8403, 8404, 8405, 8406, 8407, 8408, 8409, 8410, 8411, 8412, 8413, 8414, 8415, 8416, 8417, 8418, 8419, 8420, 8421, 8422, 8423, 8424, 8425, 8426, 8427, 8428, 8429, 8430, 8431, 8432, 8433, 8434, 8435, 8436, 8437, 8438, 8439, 8440, 8441, 8442, 8443, 8444, 8445, 8446, 8447, 8448, 8449, 8450, 8451, 8452, 8453, 8454, 8455, 8456, 8457, 8458, 8459, 8460, 8461, 8462, 8463, 8464, 8465, 8466, 8467, 8468, 8469, 8470, 8471, 8472, 8473, 8474, 8475, 8476, 8477, 8478, 8479, 8480, 8481, 8482, 8483, 8484, 8485, 8486, 8487, 8488, 8489, 8490, 8491, 8492, 8493, 8494, 8495, 8496, 8497, 8498, 8499, 8500, 8501, 8502, 8503, 8504, 8505, 8506, 8507, 8508, 8509, 8510, 8511, 8512, 8513, 8514, 8515, 8516, 8517, 8518, 8519, 8520, 8521, 8522, 8523, 8524, 8525, 8526, 8527, 8528, 8529, 8530, 8531, 8532, 8533, 8534, 8535, 8536, 8537, 8538, 8539, 8540, 8541, 8542, 8543, 8544, 8545, 8546, 8547, 8548, 8549, 8550, 8551, 8552, 8553, 8554, 8555, 8556, 8557, 8558, 8559, 8560, 8561, 8562, 8563, 8564, 8565, 8566, 8567, 8568, 8569, 8570, 8571, 8572, 8573, 8574, 8575, 
*Nset, Nset=WP_Surface
7, 14, 21, 28, 35, 42, 49, 56, 63, 70, 77, 84, 91, 98, 105, 112, 119, 126, 133, 140, 147, 154, 161, 168, 175, 182, 189, 196, 203, 210, 217, 224, 231, 238, 245, 252, 259, 266, 273, 280, 287, 294, 301, 308, 315, 322, 329, 336, 343, 350, 357, 364, 371, 378, 385, 392, 399, 406, 413, 420, 427, 434, 441, 448, 455, 462, 469, 476, 483, 490, 497, 504, 511, 518, 525, 532, 539, 546, 553, 560, 567, 574, 581, 588, 595, 602, 609, 616, 623, 630, 637, 644, 651, 658, 665, 672, 679, 686, 693, 700, 707, 714, 721, 728, 735, 742, 749, 756, 763, 770, 777, 784, 791, 798, 805, 812, 819, 826, 833, 840, 847, 854, 861, 868, 875, 882, 889, 896, 903, 910, 917, 924, 931, 938, 945, 952, 959, 966, 973, 980, 987, 994, 1001, 1008, 1015, 1022, 1029, 1036, 1043, 1050, 1057, 1064, 1071, 1078, 1085, 1092, 1099, 1106, 1113, 1120, 1127, 1134, 1141, 1148, 1155, 1162, 1169, 1176, 1183, 1190, 1197, 1204, 1211, 1218, 1225, 1232, 1239, 1246, 1253, 1260, 1267, 1274, 1281, 1288, 1295, 1302, 1309, 1316, 1323, 1330, 1337, 1344, 1351, 1358, 1365, 1372, 1379, 1386, 1393, 1400, 1407, 1414, 1421, 1428, 1435, 1442, 1449, 1456, 1463, 1470, 1477, 1484, 1491, 1498, 1505, 1512, 1519, 1526, 1533, 1540, 1547, 1554, 1561, 1568, 1575, 1582, 1589, 1596, 1603, 1610, 1617, 1624, 1631, 1638, 1645, 1652, 1659, 1666, 1673, 1680, 1687, 1694, 1701, 1708, 1715, 1722, 1729, 1736, 1743, 1750, 1757, 1764, 1771, 1778, 1785, 1792, 1799, 1806, 1813, 1820, 1827, 1834, 1841, 1848, 1855, 1862, 1869, 1876, 1883, 1890, 1897, 1904, 1911, 1918, 1925, 1932, 1939, 1946, 1953, 1960, 1967, 1974, 1981, 1988, 1995, 2002, 2009, 2016, 2023, 2030, 2037, 2044, 2051, 2058, 2065, 2072, 2079, 2086, 2093, 2100, 2107, 2114, 2121, 2128, 2135, 2142, 2149, 2156, 2163, 2170, 2177, 2184, 2191, 2198, 2205, 2212, 2219, 2226, 2233, 2240, 2247, 2254, 2261, 2268, 2275, 2282, 2289, 2296, 2303, 2310, 2317, 2324, 2331, 2338, 2345, 2352, 2359, 2366, 2373, 2380, 2387, 2394, 2401, 2408, 2415, 2422, 2429, 2436, 2443, 2450, 2457, 2464, 2471, 2478, 2485, 2492, 2499, 2506, 2513, 2520, 2527, 2534, 2541, 2548, 2555, 2562, 2569, 2576, 2583, 2590, 2597, 2604, 2611, 2618, 2625, 2632, 2639, 2646, 2653, 2660, 2667, 2674, 2681, 2688, 2695, 2702, 2709, 2716, 2723, 2730, 2737, 2744, 2751, 2758, 2765, 2772, 2779, 2786, 2793, 2800, 2807, 2814, 2821, 2828, 2835, 2842, 2849, 2856, 2863, 2870, 2877, 2884, 2891, 2898, 2905, 2912, 2919, 2926, 2933, 2940, 2947, 2954, 2961, 2968, 2975, 2982, 2989, 2996, 3003, 3010, 3017, 3024, 3031, 3038, 3045, 3052, 3059, 3066, 3073, 3080, 3087, 3094, 3101, 3108, 3115, 3122, 3129, 3136, 3143, 3150, 3157, 3164, 3171, 3178, 3185, 3192, 3199, 3206, 3213, 3220, 3227, 3234, 3241, 3248, 3255, 3262, 3269, 3276, 3283, 3290, 3297, 3304, 3311, 3318, 3325, 3332, 3339, 3346, 3353, 3360, 3367, 3374, 3381, 3388, 3395, 3402, 3409, 3416, 3423, 3430, 3437, 3444, 3451, 3458, 3465, 3472, 3479, 3486, 3493, 3500, 3507, 3514, 3521, 3528, 3535, 3542, 3549, 3556, 3563, 3570, 3577, 3584, 3591, 3598, 3605, 3612, 3619, 3626, 3633, 3640, 3647, 3654, 3661, 3668, 3675, 3682, 3689, 3696, 3703, 3710, 3717, 3724, 3731, 3738, 3745, 3752, 3759, 3766, 3773, 3780, 3787, 3794, 3801, 3808, 3815, 3822, 3829, 3836, 3843, 3850, 3857, 3864, 3871, 3878, 3885, 3892, 3899, 3906, 3913, 3920, 3927, 3934, 3941, 3948, 3955, 3962, 3969, 3976, 3983, 3990, 3997, 4004, 4011, 4018, 4025, 4032, 4039, 4046, 4053, 4060, 4067, 4074, 4081, 4088, 4095, 4102, 4109, 4116, 4123, 4130, 4137, 4144, 4151, 4158, 4165, 4172, 4179, 4186, 4193, 4200, 4207, 4214, 4221, 4228, 4235, 4242, 4249, 4256, 4263, 4270, 4277, 4284, 4291, 4298, 4305, 4312, 4319, 4326, 4333, 4340, 4347, 4354, 4361, 4368, 4375, 4382, 4389, 4396, 4403, 4410, 4417, 4424, 4431, 4438, 4445, 4452, 4459, 4466, 4473, 4480, 4487, 4494, 4501, 4508, 4515, 4522, 4529, 4536, 4543, 4550, 4557, 4564, 4571, 4578, 4585, 4592, 4599, 4606, 4613, 4620, 4627, 4634, 4641, 4648, 4655, 4662, 4669, 4676, 4683, 4690, 4697, 4704, 4711, 4718, 4725, 4732, 4739, 4746, 4753, 4760, 4767, 4774, 4781, 4788, 4795, 4802, 4809, 4816, 4823, 4830, 4837, 4844, 4851, 4858, 4865, 4872, 4879, 4886, 4893, 4900, 4907, 4914, 4921, 4928, 4935, 4942, 4949, 4956, 4963, 4970, 4977, 4984, 4991, 4998, 5005, 5012, 5019, 5026, 5033, 5040, 5047, 5054, 5061, 5068, 5075, 5082, 5089, 5096, 5103, 5110, 5117, 5124, 5131, 5138, 5145, 5152, 5159, 5166, 5173, 5180, 5187, 5194, 5201, 5208, 5215, 5222, 5229, 5236, 5243, 5250, 5257, 5264, 5271, 5278, 5285, 5292, 5299, 5306, 5313, 5320, 5327, 5334, 5341, 5348, 5355, 5362, 5369, 5376, 5383, 5390, 5397, 5404, 5411, 5418, 5425, 5432, 5439, 5446, 5453, 5460, 5467, 5474, 5481, 5488, 5495, 5502, 5509, 5516, 5523, 5530, 5537, 5544, 5551, 5558, 5565, 5572, 5579, 5586, 5593, 5600, 5607, 5614, 5621, 5628, 5635, 5642, 5649, 5656, 5663, 5670, 5677, 5684, 5691, 5698, 5705, 5712, 5719, 5726, 5733, 5740, 5747, 5754, 5761, 5768, 5775, 5782, 5789, 5796, 5803, 5810, 5817, 5824, 5831, 5838, 5845, 5852, 5859, 5866, 5873, 5880, 5887, 5894, 5901, 5908, 5915, 5922, 5929, 5936, 5943, 5950, 5957, 5964, 5971, 5978, 5985, 5992, 5999, 6006, 6013, 6020, 6027, 6034, 6041, 6048, 6055, 6062, 6069, 6076, 6083, 6090, 6097, 6104, 6111, 6118, 6125, 6132, 6139, 6146, 6153, 6160, 6167, 6174, 6181, 6188, 6195, 6202, 6209, 6216, 6223, 6230, 6237, 6244, 6251, 6258, 6265, 6272, 6279, 6286, 6293, 6300, 6307, 6314, 6321, 6328, 6335, 6342, 6349, 6356, 6363, 6370, 6377, 6384, 6391, 6398, 6405, 6412, 6419, 6426, 6433, 6440, 6447, 6454, 6461, 6468, 6475, 6482, 6489, 6496, 6503, 6510, 6517, 6524, 6531, 6538, 6545, 6552, 6559, 6566, 6573, 6580, 6587, 6594, 6601, 6608, 6615, 6622, 6629, 6636, 6643, 6650, 6657, 6664, 6671, 6678, 6685, 6692, 6699, 6706, 6713, 6720, 6727, 6734, 6741, 6748, 6755, 6762, 6769, 6776, 6783, 6790, 6797, 6804, 6811, 6818, 6825, 6832, 6839, 6846, 6853, 6860, 6867, 6874, 6881, 6888, 6895, 6902, 6909, 6916, 6923, 6930, 6937, 6944, 6951, 6958, 6965, 6972, 6979, 6986, 6993, 7000, 7007, 7014, 7021, 7028, 7035, 7042, 7049, 7056, 7063, 7070, 7077, 7084, 7091, 7098, 7105, 7112, 7119, 7126, 7133, 7140, 7147, 7154, 7161, 7168, 7175, 7182, 7189, 7196, 7203, 7210, 7217, 7224, 7231, 7238, 7245, 7252, 7259, 7266, 7273, 7280, 7287, 7294, 7301, 7308, 7315, 7322, 7329, 7336, 7343, 7350, 7357, 7364, 7371, 7378, 7385, 7392, 7399, 7406, 7413, 7420, 7427, 7434, 7441, 7448, 7455, 7462, 7469, 7476, 7483, 7490, 7497, 7504, 7511, 7518, 7525, 7532, 7539, 7546, 7553, 7560, 7567, 7574, 7581, 7588, 7595, 7602, 7609, 7616, 7623, 7630, 7637, 7644, 7651, 7658, 7665, 7672, 7679, 7686, 7693, 7700, 7707, 7714, 7721, 7728, 7735, 7742, 7749, 7756, 7763, 7770, 7777, 7784, 7791, 7798, 7805, 7812, 7819, 7826, 7833, 7840, 7847, 7854, 7861, 7868, 7875, 7882, 7889, 7896, 7903, 7910, 7917, 7924, 7931, 7938, 7945, 7952, 7959, 7966, 7973, 7980, 7987, 7994, 8001, 8008, 8015, 8022, 8029, 8036, 8043, 8050, 8057, 8064, 8071, 8078, 8085, 8092, 8099, 8106, 8113, 8120, 8127, 8134, 8141, 8148, 8155, 8162, 8169, 8176, 8183, 8190, 8197, 8204, 8211, 8218, 8225, 8232, 8239, 8246, 8253, 8260, 8267, 8274, 8281, 8288, 8295, 8302, 8309, 8316, 8323, 8330, 8337, 8344, 8351, 8358, 8365, 8372, 8379, 8386, 8393, 8400, 8407, 8414, 8421, 8428, 8435, 8442, 8449, 8456, 8463, 8470, 8477, 8484, 8491, 8498, 8505, 8512, 8519, 8526, 8533, 8540, 8547, 8554, 8561, 8568, 8575, 
*Nset, Nset=WP_ContactZone_Surface
1722, 1729, 1736, 1743, 1750, 1757, 1764, 1771, 1778, 1785, 1792, 1799, 1806, 1813, 1820, 1827, 1834, 1841, 1848, 1855, 1862, 1869, 1876, 1883, 1890, 1897, 1904, 1911, 1918, 1925, 1932, 1939, 1946, 1953, 1960, 1967, 1974, 1981, 1988, 1995, 2002, 2009, 2016, 2023, 2030, 2037, 2044, 2051, 2058, 2065, 2072, 2079, 2086, 2093, 2100, 2107, 2114, 2121, 2128, 2135, 2142, 2149, 2156, 2163, 2170, 2177, 2184, 2191, 2198, 2205, 2212, 2219, 2226, 2233, 2240, 2247, 2254, 2261, 2268, 2275, 2282, 2289, 2296, 2303, 2310, 2317, 2324, 2331, 2338, 2345, 2352, 2359, 2366, 2373, 2380, 2387, 2394, 2401, 2408, 2415, 2422, 2429, 2436, 2443, 2450, 2457, 2464, 2471, 2478, 2485, 2492, 2499, 2506, 2513, 2520, 2527, 2534, 2541, 2548, 2555, 2562, 2569, 2576, 2583, 2590, 2597, 2604, 2611, 2618, 2625, 2632, 2639, 2646, 2653, 2660, 2667, 2674, 2681, 2688, 2695, 2702, 2709, 2716, 2723, 2730, 2737, 2744, 2751, 2758, 2765, 2772, 2779, 2786, 2793, 2800, 2807, 2814, 2821, 2828, 2835, 2842, 2849, 2856, 2863, 2870, 2877, 2884, 2891, 2898, 2905, 2912, 2919, 2926, 2933, 2940, 2947, 2954, 2961, 2968, 2975, 2982, 2989, 2996, 3003, 3010, 3017, 3024, 3031, 3038, 3045, 3052, 3059, 3066, 3073, 3080, 3087, 3094, 3101, 3108, 3115, 3122, 3129, 3136, 3143, 3150, 3157, 3164, 3171, 3178, 3185, 3192, 3199, 3206, 3213, 3220, 3227, 3234, 3241, 3248, 3255, 3262, 3269, 3276, 3283, 3290, 3297, 3304, 3311, 3318, 3325, 3332, 3339, 3346, 3353, 3360, 3367, 3374, 3381, 3388, 3395, 3402, 3409, 3416, 3423, 3430, 3437, 3444, 3451, 3458, 3465, 3472, 3479, 3486, 3493, 3500, 3507, 3514, 3521, 3528, 3535, 3542, 3549, 3556, 3563, 3570, 3577, 3584, 3591, 3598, 3605, 3612, 3619, 3626, 3633, 3640, 3647, 3654, 3661, 3668, 3675, 3682, 3689, 3696, 3703, 3710, 3717, 3724, 3731, 3738, 3745, 3752, 3759, 3766, 3773, 3780, 3787, 3794, 3801, 3808, 3815, 3822, 3829, 3836, 3843, 3850, 3857, 3864, 3871, 3878, 3885, 3892, 3899, 3906, 3913, 3920, 3927, 3934, 3941, 3948, 3955, 3962, 3969, 3976, 3983, 3990, 3997, 4004, 4011, 4018, 4025, 4032, 4039, 4046, 4053, 4060, 4067, 4074, 4081, 4088, 4095, 4102, 4109, 4116, 4123, 4130, 4137, 4144, 4151, 4158, 4165, 4172, 4179, 4186, 4193, 4200, 4207, 4214, 4221, 4228, 4235, 4242, 4249, 4256, 4263, 4270, 4277, 4284, 4291, 4298, 4305, 4312, 4319, 4326, 4333, 4340, 4347, 4354, 4361, 4368, 4375, 4382, 4389, 4396, 4403, 4410, 4417, 4424, 4431, 4438, 4445, 4452, 4459, 4466, 4473, 4480, 4487, 4494, 4501, 4508, 4515, 4522, 4529, 4536, 4543, 4550, 4557, 4564, 4571, 4578, 4585, 4592, 4599, 4606, 4613, 4620, 4627, 4634, 4641, 4648, 4655, 4662, 4669, 4676, 4683, 4690, 4697, 4704, 4711, 4718, 4725, 4732, 4739, 4746, 4753, 4760, 4767, 4774, 4781, 4788, 4795, 4802, 4809, 4816, 4823, 4830, 4837, 4844, 4851, 4858, 4865, 4872, 4879, 4886, 4893, 4900, 4907, 4914, 4921, 4928, 4935, 4942, 4949, 4956, 4963, 4970, 4977, 4984, 4991, 4998, 5005, 5012, 5019, 5026, 5033, 5040, 5047, 5054, 5061, 5068, 5075, 5082, 5089, 5096, 5103, 5110, 5117, 5124, 5131, 5138, 5145, 5152, 5159, 5166, 5173, 5180, 5187, 5194, 5201, 5208, 5215, 5222, 5229, 5236, 5243, 5250, 5257, 5264, 5271, 5278, 5285, 5292, 5299, 5306, 5313, 5320, 5327, 5334, 5341, 5348, 5355, 5362, 5369, 5376, 5383, 5390, 5397, 5404, 5411, 5418, 5425, 5432, 5439, 5446, 5453, 5460, 5467, 5474, 5481, 5488, 5495, 5502, 5509, 5516, 5523, 5530, 5537, 5544, 5551, 5558, 5565, 5572, 5579, 5586, 5593, 5600, 5607, 5614, 5621, 5628, 5635, 5642, 5649, 5656, 5663, 5670, 5677, 5684, 5691, 5698, 5705, 5712, 5719, 5726, 5733, 5740, 5747, 5754, 5761, 5768, 5775, 5782, 5789, 5796, 5803, 5810, 5817, 5824, 5831, 5838, 5845, 5852, 5859, 5866, 5873, 5880, 5887, 5894, 5901, 5908, 5915, 5922, 5929, 5936, 5943, 5950, 5957, 5964, 5971, 5978, 5985, 5992, 5999, 6006, 6013, 6020, 6027, 6034, 6041, 6048, 6055, 6062, 6069, 6076, 6083, 6090, 6097, 6104, 6111, 6118, 6125, 6132, 6139, 6146, 6153, 6160, 6167, 6174, 6181, 6188, 6195, 6202, 6209, 6216, 6223, 6230, 6237, 6244, 6251, 6258, 6265, 6272, 6279, 6286, 6293, 6300, 6307, 6314, 6321, 6328, 6335, 6342, 6349, 6356, 6363, 6370, 6377, 6384, 6391, 6398, 6405, 6412, 6419, 6426, 6433, 6440, 6447, 6454, 6461, 6468, 6475, 6482, 6489, 6496, 6503, 6510, 6517, 6524, 6531, 6538, 6545, 6552, 6559, 6566, 6573, 6580, 6587, 6594, 6601, 6608, 6615, 6622, 6629, 6636, 6643, 6650, 6657, 6664, 6671, 6678, 6685, 6692, 6699, 6706, 6713, 6720, 6727, 6734, 6741, 6748, 6755, 6762, 6769, 6776, 6783, 6790, 6797, 6804, 6811, 6818, 6825, 6832, 6839, 6846, 6853, 6860, 
*End Part
*Assembly, name=Assembly
*Instance, name=WP, part=Workpiece
*End Instance
*End Assembly
